@RELATION B12345-S04568distSWL
@ATTRIBUTE f1 REAL
@ATTRIBUTE f2 REAL
@ATTRIBUTE f3 REAL
@ATTRIBUTE f4 REAL
@ATTRIBUTE f5 REAL
@ATTRIBUTE f6 REAL
@ATTRIBUTE f7 REAL
@ATTRIBUTE f8 REAL
@ATTRIBUTE f9 REAL
@ATTRIBUTE f10 REAL
@ATTRIBUTE f11 REAL
@ATTRIBUTE f12 REAL
@ATTRIBUTE f13 REAL
@ATTRIBUTE f14 REAL
@ATTRIBUTE f15 REAL
@ATTRIBUTE f16 REAL
@ATTRIBUTE f17 REAL
@ATTRIBUTE f18 REAL
@ATTRIBUTE f19 REAL
@ATTRIBUTE f20 REAL
@ATTRIBUTE f21 REAL
@ATTRIBUTE f22 REAL
@ATTRIBUTE f23 REAL
@ATTRIBUTE f24 REAL
@ATTRIBUTE f25 REAL
@ATTRIBUTE f26 REAL
@ATTRIBUTE f27 REAL
@ATTRIBUTE f28 REAL
@ATTRIBUTE f29 REAL
@ATTRIBUTE f30 REAL
@ATTRIBUTE f31 REAL
@ATTRIBUTE f32 REAL
@ATTRIBUTE f33 REAL
@ATTRIBUTE f34 REAL
@ATTRIBUTE f35 REAL
@ATTRIBUTE f36 REAL
@ATTRIBUTE f37 REAL
@ATTRIBUTE f38 REAL
@ATTRIBUTE f39 REAL
@ATTRIBUTE f40 REAL
@ATTRIBUTE f41 REAL
@ATTRIBUTE f42 REAL
@ATTRIBUTE f43 REAL
@ATTRIBUTE f44 REAL
@ATTRIBUTE f45 REAL
@ATTRIBUTE f46 REAL
@ATTRIBUTE f47 REAL
@ATTRIBUTE f48 REAL
@ATTRIBUTE f49 REAL
@ATTRIBUTE f50 REAL
@ATTRIBUTE f51 REAL
@ATTRIBUTE f52 REAL
@ATTRIBUTE f53 REAL
@ATTRIBUTE f54 REAL
@ATTRIBUTE f55 REAL
@ATTRIBUTE f56 REAL
@ATTRIBUTE f57 REAL
@ATTRIBUTE f58 REAL
@ATTRIBUTE f59 REAL
@ATTRIBUTE f60 REAL
@ATTRIBUTE f61 REAL
@ATTRIBUTE f62 REAL
@ATTRIBUTE f63 REAL
@ATTRIBUTE f64 REAL
@ATTRIBUTE f65 REAL
@ATTRIBUTE f66 REAL
@ATTRIBUTE f67 REAL
@ATTRIBUTE f68 REAL
@ATTRIBUTE f69 REAL
@ATTRIBUTE f70 REAL
@ATTRIBUTE f71 REAL
@ATTRIBUTE f72 REAL
@ATTRIBUTE f73 REAL
@ATTRIBUTE f74 REAL
@ATTRIBUTE f75 REAL
@ATTRIBUTE f76 REAL
@ATTRIBUTE f77 REAL
@ATTRIBUTE f78 REAL
@ATTRIBUTE f79 REAL
@ATTRIBUTE f80 REAL
@ATTRIBUTE f81 REAL
@ATTRIBUTE f82 REAL
@ATTRIBUTE f83 REAL
@ATTRIBUTE f84 REAL
@ATTRIBUTE f85 REAL
@ATTRIBUTE f86 REAL
@ATTRIBUTE f87 REAL
@ATTRIBUTE f88 REAL
@ATTRIBUTE f89 REAL
@ATTRIBUTE f90 REAL
@ATTRIBUTE f91 REAL
@ATTRIBUTE f92 REAL
@ATTRIBUTE f93 REAL
@ATTRIBUTE f94 REAL
@ATTRIBUTE f95 REAL
@ATTRIBUTE f96 REAL
@ATTRIBUTE f97 REAL
@ATTRIBUTE f98 REAL
@ATTRIBUTE f99 REAL
@ATTRIBUTE f100 REAL
@ATTRIBUTE f101 REAL
@ATTRIBUTE f102 REAL
@ATTRIBUTE f103 REAL
@ATTRIBUTE f104 REAL
@ATTRIBUTE f105 REAL
@ATTRIBUTE f106 REAL
@ATTRIBUTE f107 REAL
@ATTRIBUTE f108 REAL
@ATTRIBUTE f109 REAL
@ATTRIBUTE f110 REAL
@ATTRIBUTE f111 REAL
@ATTRIBUTE f112 REAL
@ATTRIBUTE f113 REAL
@ATTRIBUTE f114 REAL
@ATTRIBUTE f115 REAL
@ATTRIBUTE f116 REAL
@ATTRIBUTE f117 REAL
@ATTRIBUTE f118 REAL
@ATTRIBUTE f119 REAL
@ATTRIBUTE f120 REAL
@ATTRIBUTE f121 REAL
@ATTRIBUTE f122 REAL
@ATTRIBUTE f123 REAL
@ATTRIBUTE f124 REAL
@ATTRIBUTE f125 REAL
@ATTRIBUTE f126 REAL
@ATTRIBUTE f127 REAL
@ATTRIBUTE f128 REAL
@ATTRIBUTE f129 REAL
@ATTRIBUTE f130 REAL
@ATTRIBUTE f131 REAL
@ATTRIBUTE f132 REAL
@ATTRIBUTE f133 REAL
@ATTRIBUTE f134 REAL
@ATTRIBUTE f135 REAL
@ATTRIBUTE f136 REAL
@ATTRIBUTE f137 REAL
@ATTRIBUTE f138 REAL
@ATTRIBUTE f139 REAL
@ATTRIBUTE f140 REAL
@ATTRIBUTE f141 REAL
@ATTRIBUTE f142 REAL
@ATTRIBUTE f143 REAL
@ATTRIBUTE f144 REAL
@ATTRIBUTE f145 REAL
@ATTRIBUTE f146 REAL
@ATTRIBUTE f147 REAL
@ATTRIBUTE f148 REAL
@ATTRIBUTE f149 REAL
@ATTRIBUTE f150 REAL
@ATTRIBUTE f151 REAL
@ATTRIBUTE f152 REAL
@ATTRIBUTE f153 REAL
@ATTRIBUTE f154 REAL
@ATTRIBUTE f155 REAL
@ATTRIBUTE f156 REAL
@ATTRIBUTE f157 REAL
@ATTRIBUTE f158 REAL
@ATTRIBUTE f159 REAL
@ATTRIBUTE f160 REAL
@ATTRIBUTE f161 REAL
@ATTRIBUTE f162 REAL
@ATTRIBUTE f163 REAL
@ATTRIBUTE f164 REAL
@ATTRIBUTE f165 REAL
@ATTRIBUTE f166 REAL
@ATTRIBUTE f167 REAL
@ATTRIBUTE f168 REAL
@ATTRIBUTE f169 REAL
@ATTRIBUTE f170 REAL
@ATTRIBUTE f171 REAL
@ATTRIBUTE f172 REAL
@ATTRIBUTE f173 REAL
@ATTRIBUTE f174 REAL
@ATTRIBUTE f175 REAL
@ATTRIBUTE f176 REAL
@ATTRIBUTE f177 REAL
@ATTRIBUTE f178 REAL
@ATTRIBUTE f179 REAL
@ATTRIBUTE f180 REAL
@ATTRIBUTE f181 REAL
@ATTRIBUTE f182 REAL
@ATTRIBUTE f183 REAL
@ATTRIBUTE f184 REAL
@ATTRIBUTE f185 REAL
@ATTRIBUTE f186 REAL
@ATTRIBUTE f187 REAL
@ATTRIBUTE f188 REAL
@ATTRIBUTE f189 REAL
@ATTRIBUTE f190 REAL
@ATTRIBUTE f191 REAL
@ATTRIBUTE f192 REAL
@ATTRIBUTE f193 REAL
@ATTRIBUTE f194 REAL
@ATTRIBUTE f195 REAL
@ATTRIBUTE f196 REAL
@ATTRIBUTE f197 REAL
@ATTRIBUTE f198 REAL
@ATTRIBUTE f199 REAL
@ATTRIBUTE f200 REAL
@ATTRIBUTE f201 REAL
@ATTRIBUTE f202 REAL
@ATTRIBUTE f203 REAL
@ATTRIBUTE f204 REAL
@ATTRIBUTE f205 REAL
@ATTRIBUTE f206 REAL
@ATTRIBUTE f207 REAL
@ATTRIBUTE f208 REAL
@ATTRIBUTE f209 REAL
@ATTRIBUTE f210 REAL
@ATTRIBUTE f211 REAL
@ATTRIBUTE f212 REAL
@ATTRIBUTE f213 REAL
@ATTRIBUTE f214 REAL
@ATTRIBUTE f215 REAL
@ATTRIBUTE f216 REAL
@ATTRIBUTE f217 REAL
@ATTRIBUTE f218 REAL
@ATTRIBUTE f219 REAL
@ATTRIBUTE f220 REAL
@ATTRIBUTE f221 REAL
@ATTRIBUTE f222 REAL
@ATTRIBUTE f223 REAL
@ATTRIBUTE f224 REAL
@ATTRIBUTE f225 REAL
@ATTRIBUTE f226 REAL
@ATTRIBUTE f227 REAL
@ATTRIBUTE f228 REAL
@ATTRIBUTE f229 REAL
@ATTRIBUTE f230 REAL
@ATTRIBUTE f231 REAL
@ATTRIBUTE f232 REAL
@ATTRIBUTE f233 REAL
@ATTRIBUTE f234 REAL
@ATTRIBUTE f235 REAL
@ATTRIBUTE f236 REAL
@ATTRIBUTE f237 REAL
@ATTRIBUTE f238 REAL
@ATTRIBUTE f239 REAL
@ATTRIBUTE f240 REAL
@ATTRIBUTE f241 REAL
@ATTRIBUTE f242 REAL
@ATTRIBUTE f243 REAL
@ATTRIBUTE f244 REAL
@ATTRIBUTE f245 REAL
@ATTRIBUTE f246 REAL
@ATTRIBUTE f247 REAL
@ATTRIBUTE f248 REAL
@ATTRIBUTE f249 REAL
@ATTRIBUTE f250 REAL
@ATTRIBUTE f251 REAL
@ATTRIBUTE f252 REAL
@ATTRIBUTE f253 REAL
@ATTRIBUTE f254 REAL
@ATTRIBUTE f255 REAL
@ATTRIBUTE f256 REAL
@ATTRIBUTE f257 REAL
@ATTRIBUTE f258 REAL
@ATTRIBUTE f259 REAL
@ATTRIBUTE f260 REAL
@ATTRIBUTE f261 REAL
@ATTRIBUTE f262 REAL
@ATTRIBUTE f263 REAL
@ATTRIBUTE f264 REAL
@ATTRIBUTE f265 REAL
@ATTRIBUTE f266 REAL
@ATTRIBUTE f267 REAL
@ATTRIBUTE f268 REAL
@ATTRIBUTE f269 REAL
@ATTRIBUTE f270 REAL
@ATTRIBUTE f271 REAL
@ATTRIBUTE f272 REAL
@ATTRIBUTE f273 REAL
@ATTRIBUTE f274 REAL
@ATTRIBUTE f275 REAL
@ATTRIBUTE f276 REAL
@ATTRIBUTE f277 REAL
@ATTRIBUTE f278 REAL
@ATTRIBUTE f279 REAL
@ATTRIBUTE f280 REAL
@ATTRIBUTE f281 REAL
@ATTRIBUTE f282 REAL
@ATTRIBUTE f283 REAL
@ATTRIBUTE f284 REAL
@ATTRIBUTE f285 REAL
@ATTRIBUTE f286 REAL
@ATTRIBUTE f287 REAL
@ATTRIBUTE f288 REAL
@ATTRIBUTE f289 REAL
@ATTRIBUTE f290 REAL
@ATTRIBUTE f291 REAL
@ATTRIBUTE f292 REAL
@ATTRIBUTE f293 REAL
@ATTRIBUTE f294 REAL
@ATTRIBUTE f295 REAL
@ATTRIBUTE f296 REAL
@ATTRIBUTE f297 REAL
@ATTRIBUTE f298 REAL
@ATTRIBUTE f299 REAL
@ATTRIBUTE f300 REAL
@ATTRIBUTE f301 REAL
@ATTRIBUTE f302 REAL
@ATTRIBUTE f303 REAL
@ATTRIBUTE f304 REAL
@ATTRIBUTE f305 REAL
@ATTRIBUTE f306 REAL
@ATTRIBUTE f307 REAL
@ATTRIBUTE f308 REAL
@ATTRIBUTE f309 REAL
@ATTRIBUTE f310 REAL
@ATTRIBUTE f311 REAL
@ATTRIBUTE f312 REAL
@ATTRIBUTE f313 REAL
@ATTRIBUTE f314 REAL
@ATTRIBUTE f315 REAL
@ATTRIBUTE f316 REAL
@ATTRIBUTE f317 REAL
@ATTRIBUTE f318 REAL
@ATTRIBUTE f319 REAL
@ATTRIBUTE f320 REAL
@ATTRIBUTE f321 REAL
@ATTRIBUTE f322 REAL
@ATTRIBUTE f323 REAL
@ATTRIBUTE f324 REAL
@ATTRIBUTE f325 REAL
@ATTRIBUTE f326 REAL
@ATTRIBUTE f327 REAL
@ATTRIBUTE f328 REAL
@ATTRIBUTE f329 REAL
@ATTRIBUTE f330 REAL
@ATTRIBUTE f331 REAL
@ATTRIBUTE f332 REAL
@ATTRIBUTE f333 REAL
@ATTRIBUTE f334 REAL
@ATTRIBUTE f335 REAL
@ATTRIBUTE f336 REAL
@ATTRIBUTE f337 REAL
@ATTRIBUTE f338 REAL
@ATTRIBUTE f339 REAL
@ATTRIBUTE f340 REAL
@ATTRIBUTE f341 REAL
@ATTRIBUTE f342 REAL
@ATTRIBUTE f343 REAL
@ATTRIBUTE f344 REAL
@ATTRIBUTE f345 REAL
@ATTRIBUTE f346 REAL
@ATTRIBUTE f347 REAL
@ATTRIBUTE f348 REAL
@ATTRIBUTE f349 REAL
@ATTRIBUTE f350 REAL
@ATTRIBUTE f351 REAL
@ATTRIBUTE f352 REAL
@ATTRIBUTE f353 REAL
@ATTRIBUTE f354 REAL
@ATTRIBUTE f355 REAL
@ATTRIBUTE f356 REAL
@ATTRIBUTE f357 REAL
@ATTRIBUTE f358 REAL
@ATTRIBUTE f359 REAL
@ATTRIBUTE f360 REAL
@ATTRIBUTE f361 REAL
@ATTRIBUTE f362 REAL
@ATTRIBUTE f363 REAL
@ATTRIBUTE f364 REAL
@ATTRIBUTE f365 REAL
@ATTRIBUTE f366 REAL
@ATTRIBUTE f367 REAL
@ATTRIBUTE f368 REAL
@ATTRIBUTE f369 REAL
@ATTRIBUTE f370 REAL
@ATTRIBUTE f371 REAL
@ATTRIBUTE f372 REAL
@ATTRIBUTE f373 REAL
@ATTRIBUTE f374 REAL
@ATTRIBUTE f375 REAL
@ATTRIBUTE f376 REAL
@ATTRIBUTE f377 REAL
@ATTRIBUTE f378 REAL
@ATTRIBUTE f379 REAL
@ATTRIBUTE f380 REAL
@ATTRIBUTE f381 REAL
@ATTRIBUTE f382 REAL
@ATTRIBUTE f383 REAL
@ATTRIBUTE f384 REAL
@ATTRIBUTE f385 REAL
@ATTRIBUTE f386 REAL
@ATTRIBUTE f387 REAL
@ATTRIBUTE f388 REAL
@ATTRIBUTE f389 REAL
@ATTRIBUTE f390 REAL
@ATTRIBUTE f391 REAL
@ATTRIBUTE f392 REAL
@ATTRIBUTE f393 REAL
@ATTRIBUTE f394 REAL
@ATTRIBUTE f395 REAL
@ATTRIBUTE f396 REAL
@ATTRIBUTE f397 REAL
@ATTRIBUTE f398 REAL
@ATTRIBUTE f399 REAL
@ATTRIBUTE f400 REAL
@ATTRIBUTE f401 REAL
@ATTRIBUTE f402 REAL
@ATTRIBUTE f403 REAL
@ATTRIBUTE f404 REAL
@ATTRIBUTE f405 REAL
@ATTRIBUTE f406 REAL
@ATTRIBUTE f407 REAL
@ATTRIBUTE f408 REAL
@ATTRIBUTE f409 REAL
@ATTRIBUTE f410 REAL
@ATTRIBUTE f411 REAL
@ATTRIBUTE f412 REAL
@ATTRIBUTE f413 REAL
@ATTRIBUTE f414 REAL
@ATTRIBUTE f415 REAL
@ATTRIBUTE f416 REAL
@ATTRIBUTE f417 REAL
@ATTRIBUTE f418 REAL
@ATTRIBUTE f419 REAL
@ATTRIBUTE f420 REAL
@ATTRIBUTE f421 REAL
@ATTRIBUTE f422 REAL
@ATTRIBUTE f423 REAL
@ATTRIBUTE f424 REAL
@ATTRIBUTE f425 REAL
@ATTRIBUTE f426 REAL
@ATTRIBUTE f427 REAL
@ATTRIBUTE f428 REAL
@ATTRIBUTE f429 REAL
@ATTRIBUTE f430 REAL
@ATTRIBUTE f431 REAL
@ATTRIBUTE f432 REAL
@ATTRIBUTE f433 REAL
@ATTRIBUTE f434 REAL
@ATTRIBUTE f435 REAL
@ATTRIBUTE f436 REAL
@ATTRIBUTE f437 REAL
@ATTRIBUTE f438 REAL
@ATTRIBUTE f439 REAL
@ATTRIBUTE f440 REAL
@ATTRIBUTE f441 REAL
@ATTRIBUTE f442 REAL
@ATTRIBUTE f443 REAL
@ATTRIBUTE f444 REAL
@ATTRIBUTE f445 REAL
@ATTRIBUTE f446 REAL
@ATTRIBUTE f447 REAL
@ATTRIBUTE f448 REAL
@ATTRIBUTE f449 REAL
@ATTRIBUTE f450 REAL
@ATTRIBUTE f451 REAL
@ATTRIBUTE f452 REAL
@ATTRIBUTE f453 REAL
@ATTRIBUTE f454 REAL
@ATTRIBUTE f455 REAL
@ATTRIBUTE f456 REAL
@ATTRIBUTE f457 REAL
@ATTRIBUTE f458 REAL
@ATTRIBUTE f459 REAL
@ATTRIBUTE f460 REAL
@ATTRIBUTE f461 REAL
@ATTRIBUTE f462 REAL
@ATTRIBUTE f463 REAL
@ATTRIBUTE f464 REAL
@ATTRIBUTE f465 REAL
@ATTRIBUTE f466 REAL
@ATTRIBUTE f467 REAL
@ATTRIBUTE f468 REAL
@ATTRIBUTE f469 REAL
@ATTRIBUTE f470 REAL
@ATTRIBUTE f471 REAL
@ATTRIBUTE f472 REAL
@ATTRIBUTE f473 REAL
@ATTRIBUTE f474 REAL
@ATTRIBUTE f475 REAL
@ATTRIBUTE f476 REAL
@ATTRIBUTE f477 REAL
@ATTRIBUTE f478 REAL
@ATTRIBUTE f479 REAL
@ATTRIBUTE f480 REAL
@ATTRIBUTE f481 REAL
@ATTRIBUTE f482 REAL
@ATTRIBUTE f483 REAL
@ATTRIBUTE f484 REAL
@ATTRIBUTE f485 REAL
@ATTRIBUTE f486 REAL
@ATTRIBUTE f487 REAL
@ATTRIBUTE f488 REAL
@ATTRIBUTE f489 REAL
@ATTRIBUTE f490 REAL
@ATTRIBUTE f491 REAL
@ATTRIBUTE f492 REAL
@ATTRIBUTE f493 REAL
@ATTRIBUTE f494 REAL
@ATTRIBUTE f495 REAL
@ATTRIBUTE f496 REAL
@ATTRIBUTE f497 REAL
@ATTRIBUTE f498 REAL
@ATTRIBUTE f499 REAL
@ATTRIBUTE f500 REAL
@ATTRIBUTE f501 REAL
@ATTRIBUTE f502 REAL
@ATTRIBUTE f503 REAL
@ATTRIBUTE f504 REAL
@ATTRIBUTE f505 REAL
@ATTRIBUTE f506 REAL
@ATTRIBUTE f507 REAL
@ATTRIBUTE f508 REAL
@ATTRIBUTE f509 REAL
@ATTRIBUTE f510 REAL
@ATTRIBUTE f511 REAL
@ATTRIBUTE f512 REAL
@ATTRIBUTE f513 REAL
@ATTRIBUTE f514 REAL
@ATTRIBUTE f515 REAL
@ATTRIBUTE f516 REAL
@ATTRIBUTE f517 REAL
@ATTRIBUTE f518 REAL
@ATTRIBUTE f519 REAL
@ATTRIBUTE f520 REAL
@ATTRIBUTE f521 REAL
@ATTRIBUTE f522 REAL
@ATTRIBUTE f523 REAL
@ATTRIBUTE f524 REAL
@ATTRIBUTE f525 REAL
@ATTRIBUTE f526 REAL
@ATTRIBUTE f527 REAL
@ATTRIBUTE f528 REAL
@ATTRIBUTE f529 REAL
@ATTRIBUTE f530 REAL
@ATTRIBUTE f531 REAL
@ATTRIBUTE f532 REAL
@ATTRIBUTE f533 REAL
@ATTRIBUTE f534 REAL
@ATTRIBUTE f535 REAL
@ATTRIBUTE f536 REAL
@ATTRIBUTE f537 REAL
@ATTRIBUTE f538 REAL
@ATTRIBUTE f539 REAL
@ATTRIBUTE f540 REAL
@ATTRIBUTE f541 REAL
@ATTRIBUTE f542 REAL
@ATTRIBUTE f543 REAL
@ATTRIBUTE f544 REAL
@ATTRIBUTE f545 REAL
@ATTRIBUTE f546 REAL
@ATTRIBUTE f547 REAL
@ATTRIBUTE f548 REAL
@ATTRIBUTE f549 REAL
@ATTRIBUTE f550 REAL
@ATTRIBUTE f551 REAL
@ATTRIBUTE f552 REAL
@ATTRIBUTE f553 REAL
@ATTRIBUTE f554 REAL
@ATTRIBUTE f555 REAL
@ATTRIBUTE f556 REAL
@ATTRIBUTE f557 REAL
@ATTRIBUTE f558 REAL
@ATTRIBUTE f559 REAL
@ATTRIBUTE f560 REAL
@ATTRIBUTE f561 REAL
@ATTRIBUTE f562 REAL
@ATTRIBUTE f563 REAL
@ATTRIBUTE f564 REAL
@ATTRIBUTE f565 REAL
@ATTRIBUTE f566 REAL
@ATTRIBUTE f567 REAL
@ATTRIBUTE f568 REAL
@ATTRIBUTE f569 REAL
@ATTRIBUTE f570 REAL
@ATTRIBUTE f571 REAL
@ATTRIBUTE f572 REAL
@ATTRIBUTE f573 REAL
@ATTRIBUTE f574 REAL
@ATTRIBUTE f575 REAL
@ATTRIBUTE f576 REAL
@ATTRIBUTE f577 REAL
@ATTRIBUTE f578 REAL
@ATTRIBUTE f579 REAL
@ATTRIBUTE f580 REAL
@ATTRIBUTE f581 REAL
@ATTRIBUTE f582 REAL
@ATTRIBUTE f583 REAL
@ATTRIBUTE f584 REAL
@ATTRIBUTE f585 REAL
@ATTRIBUTE f586 REAL
@ATTRIBUTE f587 REAL
@ATTRIBUTE f588 REAL
@ATTRIBUTE f589 REAL
@ATTRIBUTE f590 REAL
@ATTRIBUTE f591 REAL
@ATTRIBUTE f592 REAL
@ATTRIBUTE f593 REAL
@ATTRIBUTE f594 REAL
@ATTRIBUTE f595 REAL
@ATTRIBUTE f596 REAL
@ATTRIBUTE f597 REAL
@ATTRIBUTE f598 REAL
@ATTRIBUTE f599 REAL
@ATTRIBUTE f600 REAL
@ATTRIBUTE f601 REAL
@ATTRIBUTE f602 REAL
@ATTRIBUTE f603 REAL
@ATTRIBUTE f604 REAL
@ATTRIBUTE f605 REAL
@ATTRIBUTE f606 REAL
@ATTRIBUTE f607 REAL
@ATTRIBUTE f608 REAL
@ATTRIBUTE f609 REAL
@ATTRIBUTE f610 REAL
@ATTRIBUTE f611 REAL
@ATTRIBUTE f612 REAL
@ATTRIBUTE f613 REAL
@ATTRIBUTE f614 REAL
@ATTRIBUTE f615 REAL
@ATTRIBUTE f616 REAL
@ATTRIBUTE f617 REAL
@ATTRIBUTE f618 REAL
@ATTRIBUTE f619 REAL
@ATTRIBUTE f620 REAL
@ATTRIBUTE f621 REAL
@ATTRIBUTE f622 REAL
@ATTRIBUTE f623 REAL
@ATTRIBUTE f624 REAL
@ATTRIBUTE f625 REAL
@ATTRIBUTE f626 REAL
@ATTRIBUTE f627 REAL
@ATTRIBUTE f628 REAL
@ATTRIBUTE f629 REAL
@ATTRIBUTE f630 REAL
@ATTRIBUTE f631 REAL
@ATTRIBUTE f632 REAL
@ATTRIBUTE f633 REAL
@ATTRIBUTE f634 REAL
@ATTRIBUTE f635 REAL
@ATTRIBUTE f636 REAL
@ATTRIBUTE f637 REAL
@ATTRIBUTE f638 REAL
@ATTRIBUTE f639 REAL
@ATTRIBUTE f640 REAL
@ATTRIBUTE f641 REAL
@ATTRIBUTE f642 REAL
@ATTRIBUTE f643 REAL
@ATTRIBUTE f644 REAL
@ATTRIBUTE f645 REAL
@ATTRIBUTE f646 REAL
@ATTRIBUTE f647 REAL
@ATTRIBUTE f648 REAL
@ATTRIBUTE f649 REAL
@ATTRIBUTE f650 REAL
@ATTRIBUTE f651 REAL
@ATTRIBUTE f652 REAL
@ATTRIBUTE f653 REAL
@ATTRIBUTE f654 REAL
@ATTRIBUTE f655 REAL
@ATTRIBUTE f656 REAL
@ATTRIBUTE f657 REAL
@ATTRIBUTE f658 REAL
@ATTRIBUTE f659 REAL
@ATTRIBUTE f660 REAL
@ATTRIBUTE f661 REAL
@ATTRIBUTE f662 REAL
@ATTRIBUTE f663 REAL
@ATTRIBUTE f664 REAL
@ATTRIBUTE f665 REAL
@ATTRIBUTE f666 REAL
@ATTRIBUTE f667 REAL
@ATTRIBUTE f668 REAL
@ATTRIBUTE f669 REAL
@ATTRIBUTE f670 REAL
@ATTRIBUTE f671 REAL
@ATTRIBUTE f672 REAL
@ATTRIBUTE f673 REAL
@ATTRIBUTE f674 REAL
@ATTRIBUTE f675 REAL
@ATTRIBUTE f676 REAL
@ATTRIBUTE f677 REAL
@ATTRIBUTE f678 REAL
@ATTRIBUTE f679 REAL
@ATTRIBUTE f680 REAL
@ATTRIBUTE f681 REAL
@ATTRIBUTE f682 REAL
@ATTRIBUTE f683 REAL
@ATTRIBUTE f684 REAL
@ATTRIBUTE f685 REAL
@ATTRIBUTE f686 REAL
@ATTRIBUTE f687 REAL
@ATTRIBUTE f688 REAL
@ATTRIBUTE f689 REAL
@ATTRIBUTE f690 REAL
@ATTRIBUTE f691 REAL
@ATTRIBUTE f692 REAL
@ATTRIBUTE f693 REAL
@ATTRIBUTE f694 REAL
@ATTRIBUTE f695 REAL
@ATTRIBUTE f696 REAL
@ATTRIBUTE f697 REAL
@ATTRIBUTE f698 REAL
@ATTRIBUTE f699 REAL
@ATTRIBUTE f700 REAL
@ATTRIBUTE f701 REAL
@ATTRIBUTE f702 REAL
@ATTRIBUTE f703 REAL
@ATTRIBUTE f704 REAL
@ATTRIBUTE f705 REAL
@ATTRIBUTE f706 REAL
@ATTRIBUTE f707 REAL
@ATTRIBUTE f708 REAL
@ATTRIBUTE f709 REAL
@ATTRIBUTE f710 REAL
@ATTRIBUTE f711 REAL
@ATTRIBUTE f712 REAL
@ATTRIBUTE f713 REAL
@ATTRIBUTE f714 REAL
@ATTRIBUTE f715 REAL
@ATTRIBUTE f716 REAL
@ATTRIBUTE f717 REAL
@ATTRIBUTE f718 REAL
@ATTRIBUTE f719 REAL
@ATTRIBUTE f720 REAL
@ATTRIBUTE f721 REAL
@ATTRIBUTE f722 REAL
@ATTRIBUTE f723 REAL
@ATTRIBUTE f724 REAL
@ATTRIBUTE f725 REAL
@ATTRIBUTE f726 REAL
@ATTRIBUTE f727 REAL
@ATTRIBUTE f728 REAL
@ATTRIBUTE f729 REAL
@ATTRIBUTE f730 REAL
@ATTRIBUTE f731 REAL
@ATTRIBUTE f732 REAL
@ATTRIBUTE f733 REAL
@ATTRIBUTE f734 REAL
@ATTRIBUTE f735 REAL
@ATTRIBUTE f736 REAL
@ATTRIBUTE f737 REAL
@ATTRIBUTE f738 REAL
@ATTRIBUTE f739 REAL
@ATTRIBUTE f740 REAL
@ATTRIBUTE f741 REAL
@ATTRIBUTE f742 REAL
@ATTRIBUTE f743 REAL
@ATTRIBUTE f744 REAL
@ATTRIBUTE f745 REAL
@ATTRIBUTE f746 REAL
@ATTRIBUTE f747 REAL
@ATTRIBUTE f748 REAL
@ATTRIBUTE f749 REAL
@ATTRIBUTE f750 REAL
@ATTRIBUTE f751 REAL
@ATTRIBUTE f752 REAL
@ATTRIBUTE f753 REAL
@ATTRIBUTE f754 REAL
@ATTRIBUTE f755 REAL
@ATTRIBUTE f756 REAL
@ATTRIBUTE f757 REAL
@ATTRIBUTE f758 REAL
@ATTRIBUTE f759 REAL
@ATTRIBUTE f760 REAL
@ATTRIBUTE f761 REAL
@ATTRIBUTE f762 REAL
@ATTRIBUTE f763 REAL
@ATTRIBUTE f764 REAL
@ATTRIBUTE f765 REAL
@ATTRIBUTE f766 REAL
@ATTRIBUTE f767 REAL
@ATTRIBUTE f768 REAL
@ATTRIBUTE f769 REAL
@ATTRIBUTE f770 REAL
@ATTRIBUTE f771 REAL
@ATTRIBUTE f772 REAL
@ATTRIBUTE f773 REAL
@ATTRIBUTE f774 REAL
@ATTRIBUTE f775 REAL
@ATTRIBUTE f776 REAL
@ATTRIBUTE f777 REAL
@ATTRIBUTE f778 REAL
@ATTRIBUTE f779 REAL
@ATTRIBUTE f780 REAL
@ATTRIBUTE f781 REAL
@ATTRIBUTE f782 REAL
@ATTRIBUTE f783 REAL
@ATTRIBUTE f784 REAL
@ATTRIBUTE f785 REAL
@ATTRIBUTE f786 REAL
@ATTRIBUTE f787 REAL
@ATTRIBUTE f788 REAL
@ATTRIBUTE f789 REAL
@ATTRIBUTE f790 REAL
@ATTRIBUTE f791 REAL
@ATTRIBUTE f792 REAL
@ATTRIBUTE f793 REAL
@ATTRIBUTE f794 REAL
@ATTRIBUTE f795 REAL
@ATTRIBUTE f796 REAL
@ATTRIBUTE f797 REAL
@ATTRIBUTE f798 REAL
@ATTRIBUTE f799 REAL
@ATTRIBUTE f800 REAL
@ATTRIBUTE f801 REAL
@ATTRIBUTE f802 REAL
@ATTRIBUTE f803 REAL
@ATTRIBUTE f804 REAL
@ATTRIBUTE f805 REAL
@ATTRIBUTE f806 REAL
@ATTRIBUTE f807 REAL
@ATTRIBUTE f808 REAL
@ATTRIBUTE f809 REAL
@ATTRIBUTE f810 REAL
@ATTRIBUTE f811 REAL
@ATTRIBUTE f812 REAL
@ATTRIBUTE f813 REAL
@ATTRIBUTE f814 REAL
@ATTRIBUTE f815 REAL
@ATTRIBUTE f816 REAL
@ATTRIBUTE f817 REAL
@ATTRIBUTE f818 REAL
@ATTRIBUTE f819 REAL
@ATTRIBUTE f820 REAL
@ATTRIBUTE f821 REAL
@ATTRIBUTE f822 REAL
@ATTRIBUTE f823 REAL
@ATTRIBUTE f824 REAL
@ATTRIBUTE f825 REAL
@ATTRIBUTE f826 REAL
@ATTRIBUTE f827 REAL
@ATTRIBUTE f828 REAL
@ATTRIBUTE f829 REAL
@ATTRIBUTE f830 REAL
@ATTRIBUTE f831 REAL
@ATTRIBUTE f832 REAL
@ATTRIBUTE f833 REAL
@ATTRIBUTE f834 REAL
@ATTRIBUTE f835 REAL
@ATTRIBUTE f836 REAL
@ATTRIBUTE f837 REAL
@ATTRIBUTE f838 REAL
@ATTRIBUTE f839 REAL
@ATTRIBUTE f840 REAL
@ATTRIBUTE f841 REAL
@ATTRIBUTE f842 REAL
@ATTRIBUTE f843 REAL
@ATTRIBUTE f844 REAL
@ATTRIBUTE f845 REAL
@ATTRIBUTE f846 REAL
@ATTRIBUTE f847 REAL
@ATTRIBUTE f848 REAL
@ATTRIBUTE f849 REAL
@ATTRIBUTE f850 REAL
@ATTRIBUTE f851 REAL
@ATTRIBUTE f852 REAL
@ATTRIBUTE f853 REAL
@ATTRIBUTE f854 REAL
@ATTRIBUTE f855 REAL
@ATTRIBUTE f856 REAL
@ATTRIBUTE f857 REAL
@ATTRIBUTE f858 REAL
@ATTRIBUTE f859 REAL
@ATTRIBUTE f860 REAL
@ATTRIBUTE f861 REAL
@ATTRIBUTE f862 REAL
@ATTRIBUTE f863 REAL
@ATTRIBUTE f864 REAL
@ATTRIBUTE f865 REAL
@ATTRIBUTE f866 REAL
@ATTRIBUTE f867 REAL
@ATTRIBUTE f868 REAL
@ATTRIBUTE f869 REAL
@ATTRIBUTE f870 REAL
@ATTRIBUTE f871 REAL
@ATTRIBUTE f872 REAL
@ATTRIBUTE f873 REAL
@ATTRIBUTE f874 REAL
@ATTRIBUTE f875 REAL
@ATTRIBUTE f876 REAL
@ATTRIBUTE f877 REAL
@ATTRIBUTE f878 REAL
@ATTRIBUTE f879 REAL
@ATTRIBUTE f880 REAL
@ATTRIBUTE f881 REAL
@ATTRIBUTE f882 REAL
@ATTRIBUTE f883 REAL
@ATTRIBUTE f884 REAL
@ATTRIBUTE f885 REAL
@ATTRIBUTE f886 REAL
@ATTRIBUTE f887 REAL
@ATTRIBUTE f888 REAL
@ATTRIBUTE f889 REAL
@ATTRIBUTE f890 REAL
@ATTRIBUTE f891 REAL
@ATTRIBUTE f892 REAL
@ATTRIBUTE f893 REAL
@ATTRIBUTE f894 REAL
@ATTRIBUTE f895 REAL
@ATTRIBUTE f896 REAL
@ATTRIBUTE f897 REAL
@ATTRIBUTE f898 REAL
@ATTRIBUTE f899 REAL
@ATTRIBUTE f900 REAL
@ATTRIBUTE f901 REAL
@ATTRIBUTE f902 REAL
@ATTRIBUTE f903 REAL
@ATTRIBUTE f904 REAL
@ATTRIBUTE f905 REAL
@ATTRIBUTE f906 REAL
@ATTRIBUTE f907 REAL
@ATTRIBUTE f908 REAL
@ATTRIBUTE f909 REAL
@ATTRIBUTE f910 REAL
@ATTRIBUTE f911 REAL
@ATTRIBUTE f912 REAL
@ATTRIBUTE f913 REAL
@ATTRIBUTE f914 REAL
@ATTRIBUTE f915 REAL
@ATTRIBUTE f916 REAL
@ATTRIBUTE f917 REAL
@ATTRIBUTE f918 REAL
@ATTRIBUTE f919 REAL
@ATTRIBUTE f920 REAL
@ATTRIBUTE f921 REAL
@ATTRIBUTE f922 REAL
@ATTRIBUTE f923 REAL
@ATTRIBUTE f924 REAL
@ATTRIBUTE f925 REAL
@ATTRIBUTE f926 REAL
@ATTRIBUTE f927 REAL
@ATTRIBUTE f928 REAL
@ATTRIBUTE f929 REAL
@ATTRIBUTE f930 REAL
@ATTRIBUTE f931 REAL
@ATTRIBUTE f932 REAL
@ATTRIBUTE f933 REAL
@ATTRIBUTE f934 REAL
@ATTRIBUTE f935 REAL
@ATTRIBUTE f936 REAL
@ATTRIBUTE f937 REAL
@ATTRIBUTE f938 REAL
@ATTRIBUTE f939 REAL
@ATTRIBUTE f940 REAL
@ATTRIBUTE f941 REAL
@ATTRIBUTE f942 REAL
@ATTRIBUTE f943 REAL
@ATTRIBUTE f944 REAL
@ATTRIBUTE f945 REAL
@ATTRIBUTE f946 REAL
@ATTRIBUTE f947 REAL
@ATTRIBUTE f948 REAL
@ATTRIBUTE f949 REAL
@ATTRIBUTE f950 REAL
@ATTRIBUTE f951 REAL
@ATTRIBUTE f952 REAL
@ATTRIBUTE f953 REAL
@ATTRIBUTE f954 REAL
@ATTRIBUTE f955 REAL
@ATTRIBUTE f956 REAL
@ATTRIBUTE f957 REAL
@ATTRIBUTE f958 REAL
@ATTRIBUTE f959 REAL
@ATTRIBUTE f960 REAL
@ATTRIBUTE class {NAT,L4,L24}
@DATA
0.9714285714285714,0.022222222222222223,0.0,0.0,0.0,0.0,0.0,0.0,0.0,0.0,0.0,0.0,0.0,0.0,0.0,0.0,0.0,0.0,0.0,0.006349206349206349,0.8324468085106383,0.125,0.005319148936170213,0.0,0.0,0.0,0.0,0.0,0.0,0.0,0.0,0.0,0.0,0.0,0.0,0.0,0.005319148936170213,0.0,0.013297872340425532,0.018617021276595744,0.5892857142857143,0.21428571428571427,0.04591836734693878,0.017857142857142856,0.01020408163265306,0.00510204081632653,0.01020408163265306,0.01020408163265306,0.00510204081632653,0.002551020408163265,0.002551020408163265,0.00510204081632653,0.0,0.0,0.0,0.0,0.01020408163265306,0.0,0.02295918367346939,0.04846938775510204,0.19035532994923857,0.10152284263959391,0.03299492385786802,0.005076142131979695,0.017766497461928935,0.02030456852791878,0.025380710659898477,0.02284263959390863,0.007614213197969543,0.015228426395939087,0.01015228426395939,0.007614213197969543,0.017766497461928935,0.012690355329949238,0.015228426395939087,0.025380710659898477,0.04060913705583756,0.04314720812182741,0.02030456852791878,0.3680203045685279,0.048223350253807105,0.03553299492385787,0.005076142131979695,0.0,0.0,0.0,0.0,0.0,0.0,0.0,0.0025380710659898475,0.0,0.0025380710659898475,0.007614213197969543,0.017766497461928935,0.03553299492385787,0.048223350253807105,0.07106598984771574,0.07106598984771574,0.6548223350253807,0.012690355329949238,0.0025380710659898475,0.0025380710659898475,0.0025380710659898475,0.0,0.0,0.005076142131979695,0.0025380710659898475,0.0,0.01015228426395939,0.01015228426395939,0.02284263959390863,0.025380710659898477,0.04060913705583756,0.07106598984771574,0.0583756345177665,0.07614213197969544,0.09898477157360407,0.1598984771573604,0.39847715736040606,0.0532994923857868,0.17766497461928935,0.10913705583756345,0.10406091370558376,0.08629441624365482,0.07360406091370558,0.09137055837563451,0.027918781725888325,0.027918781725888325,0.03807106598984772,0.03807106598984772,0.03807106598984772,0.027918781725888325,0.025380710659898477,0.015228426395939087,0.015228426395939087,0.0025380710659898475,0.0025380710659898475,0.015228426395939087,0.030456852791878174,0.2182741116751269,0.31218274111675126,0.1548223350253807,0.0583756345177665,0.04568527918781726,0.04568527918781726,0.030456852791878174,0.03807106598984772,0.007614213197969543,0.02284263959390863,0.007614213197969543,0.0,0.005076142131979695,0.0025380710659898475,0.015228426395939087,0.007614213197969543,0.005076142131979695,0.0,0.007614213197969543,0.015228426395939087,0.11421319796954314,0.14213197969543148,0.25380710659898476,0.1649746192893401,0.1598984771573604,0.08629441624365482,0.048223350253807105,0.015228426395939087,0.01015228426395939,0.0,0.0,0.0,0.0,0.0,0.0,0.0,0.0,0.0,0.0,0.005076142131979695,0.19543147208121828,0.17766497461928935,0.18274111675126903,0.12944162436548223,0.11928934010152284,0.07868020304568528,0.050761421319796954,0.030456852791878174,0.015228426395939087,0.015228426395939087,0.0,0.0,0.0,0.0,0.0,0.0,0.0,0.0,0.0,0.005076142131979695,0.04060913705583756,0.04568527918781726,0.08629441624365482,0.04060913705583756,0.06091370558375635,0.08629441624365482,0.0583756345177665,0.05583756345177665,0.03807106598984772,0.07106598984771574,0.07106598984771574,0.07868020304568528,0.06345177664974619,0.06852791878172589,0.04314720812182741,0.04314720812182741,0.03299492385786802,0.015228426395939087,0.0,0.0,0.0,0.005076142131979695,0.01015228426395939,0.048223350253807105,0.050761421319796954,0.0583756345177665,0.10406091370558376,0.1116751269035533,0.13705583756345177,0.116751269035533,0.09137055837563451,0.050761421319796954,0.06091370558375635,0.08375634517766498,0.0532994923857868,0.015228426395939087,0.0025380710659898475,0.0,0.0,0.0,0.0,0.0,0.0,0.0,0.0,0.0025380710659898475,0.0025380710659898475,0.0,0.005076142131979695,0.007614213197969543,0.01015228426395939,0.017766497461928935,0.015228426395939087,0.03299492385786802,0.04568527918781726,0.06852791878172589,0.05583756345177665,0.1446700507614213,0.2512690355329949,0.3401015228426396,0.0,0.0,0.0,0.0,0.0,0.0,0.0,0.0,0.0,0.0,0.0,0.0,0.0025380710659898475,0.005076142131979695,0.015228426395939087,0.015228426395939087,0.048223350253807105,0.1446700507614213,0.3730964467005076,0.39593908629441626,0.0,0.0,0.0,0.0,0.0,0.0,0.0,0.0,0.0,0.0,0.0,0.0,0.0,0.0025380710659898475,0.0025380710659898475,0.007614213197969543,0.025380710659898477,0.13705583756345177,0.4416243654822335,0.383248730964467,0.0,0.0,0.0,0.0,0.0,0.0,0.0,0.0,0.0,0.0,0.0,0.0,0.0,0.0,0.0,0.0,0.015228426395939087,0.1065989847715736,0.44416243654822335,0.434010152284264,0.975,0.0,0.0,0.0,0.0,0.0,0.0,0.0,0.0,0.0,0.0,0.0,0.0,0.0,0.0,0.0,0.0,0.0,0.0,0.025,0.925,0.0,0.025,0.0,0.0,0.0,0.0,0.025,0.0,0.0,0.025,0.0,0.0,0.0,0.0,0.0,0.0,0.0,0.0,0.0,0.925,0.025,0.0,0.0,0.0,0.025,0.0,0.0,0.0,0.0,0.0,0.025,0.0,0.0,0.0,0.0,0.0,0.0,0.0,0.0,0.9,0.025,0.025,0.0,0.0,0.025,0.0,0.0,0.0,0.025,0.0,0.0,0.0,0.0,0.0,0.0,0.0,0.0,0.0,0.0,0.9,0.025,0.025,0.0,0.0,0.025,0.0,0.025,0.0,0.0,0.0,0.0,0.0,0.0,0.0,0.0,0.0,0.0,0.0,0.0,0.9,0.025,0.025,0.0,0.025,0.0,0.0,0.025,0.0,0.0,0.0,0.0,0.0,0.0,0.0,0.0,0.0,0.0,0.0,0.0,0.9,0.025,0.025,0.025,0.0,0.0,0.0,0.0,0.0,0.025,0.0,0.0,0.0,0.0,0.0,0.0,0.0,0.0,0.0,0.0,0.925,0.025,0.0,0.0,0.025,0.0,0.0,0.0,0.0,0.0,0.0,0.025,0.0,0.0,0.0,0.0,0.0,0.0,0.0,0.0,0.9,0.05,0.0,0.025,0.0,0.0,0.0,0.0,0.0,0.0,0.025,0.0,0.0,0.0,0.0,0.0,0.0,0.0,0.0,0.0,0.9,0.05,0.0,0.025,0.0,0.0,0.0,0.0,0.0,0.0,0.025,0.0,0.0,0.0,0.0,0.0,0.0,0.0,0.0,0.0,0.9,0.025,0.025,0.025,0.0,0.0,0.0,0.0,0.025,0.0,0.0,0.0,0.0,0.0,0.0,0.0,0.0,0.0,0.0,0.0,0.875,0.05,0.025,0.025,0.0,0.0,0.0,0.025,0.0,0.0,0.0,0.0,0.0,0.0,0.0,0.0,0.0,0.0,0.0,0.0,0.875,0.05,0.025,0.025,0.0,0.0,0.0,0.0,0.025,0.0,0.0,0.0,0.0,0.0,0.0,0.0,0.0,0.0,0.0,0.0,0.875,0.05,0.025,0.025,0.0,0.0,0.0,0.0,0.025,0.0,0.0,0.0,0.0,0.0,0.0,0.0,0.0,0.0,0.0,0.0,0.875,0.05,0.025,0.025,0.0,0.0,0.0,0.0,0.025,0.0,0.0,0.0,0.0,0.0,0.0,0.0,0.0,0.0,0.0,0.0,0.9,0.025,0.025,0.025,0.0,0.0,0.0,0.0,0.025,0.0,0.0,0.0,0.0,0.0,0.0,0.0,0.0,0.0,0.0,0.0,0.8507936507936508,0.14285714285714285,0.0,0.0,0.006349206349206349,0.0,0.0,0.0,0.0,0.0,0.0,0.0,0.0,0.0,0.0,0.0,0.0,0.0,0.0,0.0,0.5771276595744681,0.38563829787234044,0.0,0.0,0.007978723404255319,0.0,0.013297872340425532,0.0,0.015957446808510637,0.0,0.0,0.0,0.0,0.0,0.0,0.0,0.0,0.0,0.0,0.0,0.33418367346938777,0.4770408163265306,0.04846938775510204,0.02040816326530612,0.030612244897959183,0.017857142857142856,0.017857142857142856,0.00510204081632653,0.002551020408163265,0.00510204081632653,0.012755102040816327,0.02040816326530612,0.007653061224489796,0.0,0.0,0.0,0.0,0.0,0.0,0.0,0.10406091370558376,0.18274111675126903,0.048223350253807105,0.027918781725888325,0.04568527918781726,0.03553299492385787,0.007614213197969543,0.007614213197969543,0.02030456852791878,0.025380710659898477,0.02030456852791878,0.017766497461928935,0.0532994923857868,0.04568527918781726,0.03807106598984772,0.05583756345177665,0.19796954314720813,0.06598984771573604,0.0,0.0,0.02284263959390863,0.06345177664974619,0.0025380710659898475,0.0,0.0,0.0,0.0,0.0,0.005076142131979695,0.005076142131979695,0.01015228426395939,0.03299492385786802,0.03299492385786802,0.048223350253807105,0.09390862944162437,0.1649746192893401,0.41624365482233505,0.10152284263959391,0.0,0.0,0.01015228426395939,0.005076142131979695,0.005076142131979695,0.0,0.0,0.007614213197969543,0.0025380710659898475,0.015228426395939087,0.048223350253807105,0.06345177664974619,0.1065989847715736,0.12436548223350254,0.13451776649746192,0.1319796954314721,0.14720812182741116,0.08883248730964467,0.09644670050761421,0.012690355329949238,0.0,0.0,0.017766497461928935,0.18781725888324874,0.2131979695431472,0.22081218274111675,0.11928934010152284,0.10406091370558376,0.04060913705583756,0.02284263959390863,0.02030456852791878,0.025380710659898477,0.005076142131979695,0.0025380710659898475,0.012690355329949238,0.007614213197969543,0.0,0.0,0.0,0.0,0.0,0.0,0.050761421319796954,0.49746192893401014,0.19543147208121828,0.14213197969543148,0.05583756345177665,0.012690355329949238,0.015228426395939087,0.0025380710659898475,0.0025380710659898475,0.0025380710659898475,0.007614213197969543,0.005076142131979695,0.005076142131979695,0.005076142131979695,0.0,0.0,0.0,0.0,0.0,0.0,0.015228426395939087,0.20304568527918782,0.4720812182741117,0.26903553299492383,0.03299492385786802,0.0025380710659898475,0.005076142131979695,0.0,0.0,0.0,0.0,0.0,0.0,0.0,0.0,0.0,0.0,0.0,0.0,0.0,0.03807106598984772,0.29949238578680204,0.30710659898477155,0.2918781725888325,0.0583756345177665,0.005076142131979695,0.0,0.0,0.0,0.0,0.0,0.0,0.0,0.0,0.0,0.0,0.0,0.0,0.0,0.0,0.0025380710659898475,0.08629441624365482,0.11928934010152284,0.13959390862944163,0.1319796954314721,0.14974619289340102,0.1598984771573604,0.15228426395939088,0.0532994923857868,0.005076142131979695,0.0,0.0,0.0,0.0,0.0,0.0,0.0,0.0,0.0,0.0,0.0,0.0,0.02030456852791878,0.1218274111675127,0.12690355329949238,0.22081218274111675,0.34517766497461927,0.15736040609137056,0.007614213197969543,0.0,0.0,0.0,0.0,0.0,0.0,0.0,0.0,0.0,0.0,0.0,0.0,0.0,0.0,0.0,0.0,0.01015228426395939,0.02030456852791878,0.050761421319796954,0.07360406091370558,0.09644670050761421,0.06091370558375635,0.07360406091370558,0.10913705583756345,0.12690355329949238,0.15736040609137056,0.13451776649746192,0.08629441624365482,0.0,0.0,0.0,0.0,0.0,0.0,0.0,0.0,0.0,0.0,0.0,0.0,0.0,0.02030456852791878,0.030456852791878174,0.08375634517766498,0.10152284263959391,0.15736040609137056,0.3756345177664975,0.23096446700507614,0.0,0.0,0.0,0.0,0.0,0.0,0.0,0.0,0.0,0.0,0.0,0.0,0.0,0.0,0.007614213197969543,0.01015228426395939,0.025380710659898477,0.1598984771573604,0.4796954314720812,0.3147208121827411,0.0025380710659898475,0.0,0.0,0.0,0.0,0.0,0.0,0.0,0.0,0.0,0.0,0.0,0.0,0.0,0.0,0.0,0.027918781725888325,0.15736040609137056,0.46954314720812185,0.3426395939086294,0.0025380710659898475,0.0,0.0,NAT
0.9394904458598726,0.04777070063694268,0.006369426751592357,0.0,0.0,0.0,0.0,0.0,0.0,0.0,0.0,0.0,0.0,0.0,0.0,0.0,0.0,0.0,0.0,0.006369426751592357,0.7896103896103897,0.16623376623376623,0.007792207792207792,0.0,0.0,0.0,0.0,0.0,0.0,0.0,0.0,0.0,0.0,0.0,0.0,0.0,0.0,0.0,0.012987012987012988,0.023376623376623377,0.5516372795969773,0.28463476070528965,0.08060453400503778,0.03526448362720403,0.010075566750629723,0.007556675062972292,0.0,0.0,0.005037783375314861,0.0,0.0,0.0,0.0,0.0,0.0,0.0,0.0,0.0,0.012594458438287154,0.012594458438287154,0.20351758793969849,0.11055276381909548,0.05025125628140704,0.04773869346733668,0.032663316582914576,0.03015075376884422,0.022613065326633167,0.017587939698492462,0.02512562814070352,0.03015075376884422,0.03768844221105527,0.02512562814070352,0.007537688442211055,0.005025125628140704,0.002512562814070352,0.01256281407035176,0.020100502512562814,0.01507537688442211,0.04271356783919598,0.2613065326633166,0.06532663316582915,0.01507537688442211,0.002512562814070352,0.005025125628140704,0.005025125628140704,0.0,0.002512562814070352,0.0,0.005025125628140704,0.002512562814070352,0.005025125628140704,0.010050251256281407,0.007537688442211055,0.005025125628140704,0.01256281407035176,0.02763819095477387,0.05025125628140704,0.03768844221105527,0.0829145728643216,0.6582914572864321,0.0,0.0,0.0,0.0,0.0,0.0,0.002512562814070352,0.005025125628140704,0.0,0.0,0.010050251256281407,0.03015075376884422,0.02512562814070352,0.035175879396984924,0.04020100502512563,0.08040201005025126,0.07035175879396985,0.09547738693467336,0.11809045226130653,0.48743718592964824,0.05778894472361809,0.23115577889447236,0.14824120603015076,0.1457286432160804,0.1407035175879397,0.06030150753768844,0.09045226130653267,0.04522613065326633,0.035175879396984924,0.01256281407035176,0.01507537688442211,0.0,0.0,0.0,0.0,0.0,0.0,0.0,0.0,0.017587939698492462,0.40703517587939697,0.271356783919598,0.16080402010050251,0.07035175879396985,0.06030150753768844,0.01256281407035176,0.002512562814070352,0.0,0.0,0.0,0.0,0.005025125628140704,0.0,0.0,0.0,0.0,0.0,0.0,0.0,0.010050251256281407,0.4547738693467337,0.2236180904522613,0.11557788944723618,0.08793969849246232,0.04773869346733668,0.02763819095477387,0.010050251256281407,0.010050251256281407,0.010050251256281407,0.002512562814070352,0.0,0.0,0.0,0.0,0.002512562814070352,0.0,0.0,0.0,0.0,0.007537688442211055,0.25879396984924624,0.1934673366834171,0.1708542713567839,0.11306532663316583,0.09045226130653267,0.0728643216080402,0.04773869346733668,0.017587939698492462,0.017587939698492462,0.017587939698492462,0.0,0.0,0.0,0.0,0.0,0.0,0.0,0.0,0.0,0.0,0.0,0.01256281407035176,0.010050251256281407,0.007537688442211055,0.01507537688442211,0.01507537688442211,0.020100502512562814,0.017587939698492462,0.017587939698492462,0.01256281407035176,0.03015075376884422,0.02763819095477387,0.02512562814070352,0.03015075376884422,0.04773869346733668,0.0678391959798995,0.08542713567839195,0.10552763819095477,0.15577889447236182,0.2964824120603015,0.0,0.05025125628140704,0.05778894472361809,0.06532663316582915,0.08793969849246232,0.11055276381909548,0.13819095477386933,0.07788944723618091,0.09547738693467336,0.08040201005025126,0.10050251256281408,0.0829145728643216,0.04020100502512563,0.0,0.0,0.0,0.0,0.0,0.005025125628140704,0.007537688442211055,0.0,0.022613065326633167,0.022613065326633167,0.005025125628140704,0.01256281407035176,0.02512562814070352,0.01507537688442211,0.04522613065326633,0.09296482412060302,0.08793969849246232,0.06030150753768844,0.07537688442211055,0.09296482412060302,0.06030150753768844,0.06030150753768844,0.08793969849246232,0.07788944723618091,0.09045226130653267,0.052763819095477386,0.01256281407035176,0.0,0.0,0.0,0.0,0.0,0.0,0.0,0.0,0.0,0.0,0.0,0.0,0.0,0.0,0.0,0.01256281407035176,0.035175879396984924,0.1658291457286432,0.3969849246231156,0.38944723618090454,0.0,0.0,0.0,0.0,0.0,0.0,0.0,0.0,0.0,0.0,0.0,0.0,0.0,0.0,0.0,0.007537688442211055,0.04020100502512563,0.16331658291457288,0.40954773869346733,0.3793969849246231,0.0,0.0,0.0,0.0,0.0,0.0,0.0,0.0,0.0,0.0,0.0,0.0,0.0,0.0,0.0,0.0,0.007537688442211055,0.09547738693467336,0.5251256281407035,0.37185929648241206,0.975,0.0,0.0,0.0,0.0,0.0,0.0,0.0,0.0,0.0,0.0,0.0,0.0,0.0,0.0,0.0,0.0,0.0,0.0,0.025,0.95,0.0,0.025,0.0,0.0,0.0,0.0,0.0,0.0,0.0,0.0,0.0,0.0,0.0,0.0,0.0,0.0,0.025,0.0,0.0,0.95,0.0,0.0,0.0,0.0,0.0,0.025,0.0,0.0,0.0,0.0,0.0,0.025,0.0,0.0,0.0,0.0,0.0,0.0,0.0,0.9,0.025,0.025,0.0,0.0,0.025,0.0,0.0,0.0,0.025,0.0,0.0,0.0,0.0,0.0,0.0,0.0,0.0,0.0,0.0,0.9,0.025,0.025,0.0,0.0,0.025,0.0,0.0,0.025,0.0,0.0,0.0,0.0,0.0,0.0,0.0,0.0,0.0,0.0,0.0,0.9,0.025,0.025,0.0,0.025,0.0,0.0,0.025,0.0,0.0,0.0,0.0,0.0,0.0,0.0,0.0,0.0,0.0,0.0,0.0,0.925,0.025,0.0,0.025,0.0,0.0,0.0,0.0,0.0,0.0,0.0,0.025,0.0,0.0,0.0,0.0,0.0,0.0,0.0,0.0,0.875,0.05,0.025,0.0,0.0,0.0,0.05,0.0,0.0,0.0,0.0,0.0,0.0,0.0,0.0,0.0,0.0,0.0,0.0,0.0,0.9,0.0,0.05,0.025,0.0,0.0,0.0,0.0,0.0,0.025,0.0,0.0,0.0,0.0,0.0,0.0,0.0,0.0,0.0,0.0,0.875,0.05,0.025,0.0,0.025,0.0,0.0,0.025,0.0,0.0,0.0,0.0,0.0,0.0,0.0,0.0,0.0,0.0,0.0,0.0,0.875,0.05,0.025,0.025,0.0,0.0,0.0,0.025,0.0,0.0,0.0,0.0,0.0,0.0,0.0,0.0,0.0,0.0,0.0,0.0,0.925,0.025,0.0,0.025,0.0,0.0,0.0,0.0,0.0,0.025,0.0,0.0,0.0,0.0,0.0,0.0,0.0,0.0,0.0,0.0,0.875,0.05,0.025,0.025,0.0,0.0,0.0,0.0,0.025,0.0,0.0,0.0,0.0,0.0,0.0,0.0,0.0,0.0,0.0,0.0,0.875,0.05,0.025,0.025,0.0,0.0,0.0,0.0,0.025,0.0,0.0,0.0,0.0,0.0,0.0,0.0,0.0,0.0,0.0,0.0,0.875,0.05,0.025,0.025,0.0,0.0,0.0,0.0,0.025,0.0,0.0,0.0,0.0,0.0,0.0,0.0,0.0,0.0,0.0,0.0,0.875,0.05,0.025,0.025,0.0,0.0,0.0,0.0,0.025,0.0,0.0,0.0,0.0,0.0,0.0,0.0,0.0,0.0,0.0,0.0,0.8248407643312102,0.1624203821656051,0.006369426751592357,0.0,0.006369426751592357,0.0,0.0,0.0,0.0,0.0,0.0,0.0,0.0,0.0,0.0,0.0,0.0,0.0,0.0,0.0,0.5584415584415584,0.4,0.005194805194805195,0.0,0.01818181818181818,0.005194805194805195,0.012987012987012988,0.0,0.0,0.0,0.0,0.0,0.0,0.0,0.0,0.0,0.0,0.0,0.0,0.0,0.30730478589420657,0.5188916876574308,0.12342569269521411,0.02518891687657431,0.007556675062972292,0.005037783375314861,0.007556675062972292,0.005037783375314861,0.0,0.0,0.0,0.0,0.0,0.0,0.0,0.0,0.0,0.0,0.0,0.0,0.09045226130653267,0.2236180904522613,0.09296482412060302,0.0728643216080402,0.022613065326633167,0.05025125628140704,0.04020100502512563,0.05527638190954774,0.005025125628140704,0.01507537688442211,0.010050251256281407,0.01507537688442211,0.020100502512562814,0.017587939698492462,0.022613065326633167,0.05527638190954774,0.13316582914572864,0.05778894472361809,0.0,0.0,0.03015075376884422,0.052763819095477386,0.005025125628140704,0.005025125628140704,0.0,0.005025125628140704,0.005025125628140704,0.0,0.017587939698492462,0.032663316582914576,0.020100502512562814,0.01256281407035176,0.02763819095477387,0.04271356783919598,0.08793969849246232,0.10301507537688442,0.44472361809045224,0.10804020100502512,0.0,0.0,0.0,0.0,0.0,0.0,0.0,0.007537688442211055,0.010050251256281407,0.007537688442211055,0.01507537688442211,0.03768844221105527,0.09547738693467336,0.07788944723618091,0.15829145728643215,0.13819095477386933,0.13316582914572864,0.1708542713567839,0.135678391959799,0.01256281407035176,0.0,0.0,0.010050251256281407,0.2562814070351759,0.33668341708542715,0.25879396984924624,0.07788944723618091,0.05025125628140704,0.005025125628140704,0.0,0.0,0.005025125628140704,0.0,0.0,0.0,0.0,0.0,0.0,0.0,0.0,0.0,0.0,0.09045226130653267,0.6080402010050251,0.2562814070351759,0.03015075376884422,0.0,0.0,0.0,0.0,0.0,0.002512562814070352,0.002512562814070352,0.002512562814070352,0.007537688442211055,0.0,0.0,0.0,0.0,0.0,0.0,0.0,0.06281407035175879,0.6206030150753769,0.1934673366834171,0.11055276381909548,0.002512562814070352,0.0,0.002512562814070352,0.0,0.0,0.005025125628140704,0.002512562814070352,0.0,0.0,0.0,0.0,0.0,0.0,0.0,0.0,0.0,0.04020100502512563,0.42462311557788945,0.23618090452261306,0.2236180904522613,0.07537688442211055,0.0,0.0,0.0,0.0,0.0,0.0,0.0,0.0,0.0,0.0,0.0,0.0,0.0,0.0,0.0,0.0,0.010050251256281407,0.017587939698492462,0.04271356783919598,0.03768844221105527,0.04522613065326633,0.05025125628140704,0.04773869346733668,0.052763819095477386,0.0728643216080402,0.0829145728643216,0.12060301507537688,0.15326633165829145,0.13316582914572864,0.10552763819095477,0.02763819095477387,0.0,0.0,0.0,0.0,0.0,0.03015075376884422,0.09045226130653267,0.1884422110552764,0.32663316582914576,0.32160804020100503,0.035175879396984924,0.0,0.0,0.005025125628140704,0.002512562814070352,0.0,0.0,0.0,0.0,0.0,0.0,0.0,0.0,0.0,0.0,0.02512562814070352,0.020100502512562814,0.022613065326633167,0.0678391959798995,0.12562814070351758,0.17839195979899497,0.17336683417085427,0.15577889447236182,0.16080402010050251,0.07035175879396985,0.0,0.0,0.0,0.0,0.0,0.0,0.0,0.0,0.0,0.0,0.0,0.0,0.0,0.0,0.0,0.0,0.0,0.0,0.0,0.0,0.007537688442211055,0.03015075376884422,0.06532663316582915,0.1658291457286432,0.44974874371859297,0.2814070351758794,0.0,0.0,0.0,0.0,0.0,0.0,0.0,0.0,0.0,0.0,0.0,0.0,0.0,0.0,0.0,0.002512562814070352,0.04522613065326633,0.17587939698492464,0.47738693467336685,0.2964824120603015,0.002512562814070352,0.0,0.0,0.0,0.0,0.0,0.0,0.0,0.0,0.0,0.0,0.0,0.0,0.0,0.0,0.0,0.022613065326633167,0.0829145728643216,0.5025125628140703,0.3844221105527638,0.007537688442211055,0.0,0.0,NAT
0.9388379204892966,0.06116207951070336,0.0,0.0,0.0,0.0,0.0,0.0,0.0,0.0,0.0,0.0,0.0,0.0,0.0,0.0,0.0,0.0,0.0,0.0,0.8082901554404145,0.12435233160621761,0.038860103626943004,0.0,0.0,0.0,0.0,0.0,0.0,0.0,0.0,0.0,0.0,0.0,0.0,0.0,0.0,0.0,0.015544041450777202,0.012953367875647668,0.5288220551378446,0.18796992481203006,0.06516290726817042,0.03258145363408521,0.015037593984962405,0.007518796992481203,0.002506265664160401,0.0,0.0,0.002506265664160401,0.0,0.002506265664160401,0.007518796992481203,0.0,0.002506265664160401,0.002506265664160401,0.007518796992481203,0.020050125313283207,0.020050125313283207,0.09523809523809523,0.205,0.1175,0.0275,0.025,0.02,0.01,0.005,0.005,0.0025,0.0075,0.005,0.0,0.0075,0.0025,0.015,0.0175,0.0325,0.0275,0.0625,0.405,0.00997506234413965,0.012468827930174564,0.004987531172069825,0.0024937655860349127,0.0024937655860349127,0.004987531172069825,0.007481296758104738,0.0024937655860349127,0.014962593516209476,0.004987531172069825,0.004987531172069825,0.012468827930174564,0.004987531172069825,0.004987531172069825,0.017456359102244388,0.02743142144638404,0.02493765586034913,0.07481296758104738,0.06982543640897755,0.6907730673316709,0.0024937655860349127,0.0,0.0024937655860349127,0.0,0.0,0.0,0.0,0.0,0.0024937655860349127,0.00997506234413965,0.0,0.02493765586034913,0.02493765586034913,0.032418952618453865,0.0399002493765586,0.05236907730673317,0.09226932668329177,0.10972568578553615,0.14214463840399003,0.46384039900249374,0.1546134663341646,0.2169576059850374,0.12967581047381546,0.09476309226932668,0.059850374064837904,0.04987531172069826,0.05486284289276808,0.03740648379052369,0.03740648379052369,0.03740648379052369,0.032418952618453865,0.014962593516209476,0.00997506234413965,0.012468827930174564,0.0,0.0024937655860349127,0.0024937655860349127,0.0024937655860349127,0.0024937655860349127,0.04738154613466334,0.3640897755610973,0.27680798004987534,0.1371571072319202,0.10723192019950124,0.06234413965087282,0.02493765586034913,0.014962593516209476,0.0,0.0,0.0,0.0,0.0,0.0,0.0,0.0,0.0,0.0,0.0,0.012468827930174564,0.0,0.14962593516209477,0.2942643391521197,0.16209476309226933,0.09476309226932668,0.10723192019950124,0.08977556109725686,0.04488778054862843,0.04488778054862843,0.007481296758104738,0.0,0.0,0.0,0.0,0.0,0.0,0.0,0.0,0.0,0.0,0.004987531172069825,0.1571072319201995,0.3192019950124688,0.16458852867830423,0.10473815461346633,0.06234413965087282,0.04987531172069826,0.032418952618453865,0.05486284289276808,0.05236907730673317,0.0,0.0,0.0,0.0,0.0,0.0,0.0,0.0,0.0,0.0,0.0024937655860349127,0.017456359102244388,0.12468827930174564,0.16957605985037408,0.1396508728179551,0.09226932668329177,0.07481296758104738,0.0773067331670823,0.059850374064837904,0.07231920199501247,0.04488778054862843,0.02493765586034913,0.04738154613466334,0.029925187032418952,0.017456359102244388,0.007481296758104738,0.0,0.0,0.0,0.0,0.0,0.0,0.0,0.0,0.0,0.0,0.0024937655860349127,0.0024937655860349127,0.004987531172069825,0.0024937655860349127,0.012468827930174564,0.034912718204488775,0.0399002493765586,0.057356608478802994,0.0399002493765586,0.06483790523690773,0.06982543640897755,0.06483790523690773,0.12468827930174564,0.22693266832917705,0.2518703241895262,0.0,0.0024937655860349127,0.0024937655860349127,0.022443890274314215,0.06483790523690773,0.18204488778054864,0.20947630922693267,0.11471321695760599,0.15211970074812967,0.1172069825436409,0.059850374064837904,0.04488778054862843,0.022443890274314215,0.004987531172069825,0.0,0.0,0.0,0.0,0.0,0.0,0.0,0.0,0.0,0.0,0.0,0.0,0.0,0.0,0.0,0.0,0.0,0.0,0.0,0.0024937655860349127,0.0024937655860349127,0.0199501246882793,0.07231920199501247,0.1770573566084788,0.34663341645885287,0.3790523690773067,0.0,0.0,0.0,0.0,0.0,0.0,0.0,0.0,0.0,0.0,0.0,0.0,0.0,0.0,0.0,0.0,0.02493765586034913,0.1172069825436409,0.456359102244389,0.4014962593516209,0.0,0.0,0.0,0.0,0.0,0.0,0.0,0.0,0.0,0.0,0.0,0.0,0.0,0.0,0.0,0.004987531172069825,0.014962593516209476,0.13216957605985039,0.4763092269326683,0.371571072319202,0.975,0.0,0.0,0.0,0.0,0.0,0.0,0.0,0.0,0.0,0.0,0.0,0.0,0.0,0.0,0.0,0.0,0.0,0.0,0.025,0.95,0.0,0.025,0.0,0.0,0.0,0.0,0.0,0.0,0.0,0.0,0.0,0.0,0.0,0.0,0.0,0.0,0.025,0.0,0.0,0.9,0.025,0.0,0.025,0.0,0.025,0.0,0.025,0.0,0.0,0.0,0.0,0.0,0.0,0.0,0.0,0.0,0.0,0.0,0.0,0.9,0.025,0.025,0.0,0.0,0.025,0.0,0.0,0.025,0.0,0.0,0.0,0.0,0.0,0.0,0.0,0.0,0.0,0.0,0.0,0.9,0.025,0.025,0.0,0.025,0.0,0.0,0.025,0.0,0.0,0.0,0.0,0.0,0.0,0.0,0.0,0.0,0.0,0.0,0.0,0.875,0.05,0.025,0.0,0.025,0.0,0.0,0.025,0.0,0.0,0.0,0.0,0.0,0.0,0.0,0.0,0.0,0.0,0.0,0.0,0.925,0.025,0.025,0.0,0.0,0.0,0.0,0.0,0.0,0.0,0.0,0.0,0.025,0.0,0.0,0.0,0.0,0.0,0.0,0.0,0.925,0.025,0.0,0.025,0.0,0.0,0.0,0.0,0.0,0.0,0.0,0.0,0.025,0.0,0.0,0.0,0.0,0.0,0.0,0.0,0.9,0.05,0.0,0.025,0.0,0.0,0.0,0.0,0.0,0.0,0.025,0.0,0.0,0.0,0.0,0.0,0.0,0.0,0.0,0.0,0.9,0.05,0.0,0.025,0.0,0.0,0.0,0.0,0.0,0.0,0.025,0.0,0.0,0.0,0.0,0.0,0.0,0.0,0.0,0.0,0.875,0.05,0.025,0.025,0.0,0.0,0.0,0.025,0.0,0.0,0.0,0.0,0.0,0.0,0.0,0.0,0.0,0.0,0.0,0.0,0.875,0.05,0.025,0.025,0.0,0.0,0.0,0.0,0.025,0.0,0.0,0.0,0.0,0.0,0.0,0.0,0.0,0.0,0.0,0.0,0.875,0.05,0.025,0.025,0.0,0.0,0.0,0.0,0.025,0.0,0.0,0.0,0.0,0.0,0.0,0.0,0.0,0.0,0.0,0.0,0.875,0.05,0.025,0.025,0.0,0.0,0.0,0.0,0.025,0.0,0.0,0.0,0.0,0.0,0.0,0.0,0.0,0.0,0.0,0.0,0.875,0.05,0.025,0.025,0.0,0.0,0.0,0.0,0.025,0.0,0.0,0.0,0.0,0.0,0.0,0.0,0.0,0.0,0.0,0.0,0.875,0.05,0.025,0.025,0.0,0.0,0.0,0.0,0.025,0.0,0.0,0.0,0.0,0.0,0.0,0.0,0.0,0.0,0.0,0.0,0.7981651376146789,0.2018348623853211,0.0,0.0,0.0,0.0,0.0,0.0,0.0,0.0,0.0,0.0,0.0,0.0,0.0,0.0,0.0,0.0,0.0,0.0,0.5803108808290155,0.3756476683937824,0.015544041450777202,0.0,0.007772020725388601,0.0,0.015544041450777202,0.0,0.0051813471502590676,0.0,0.0,0.0,0.0,0.0,0.0,0.0,0.0,0.0,0.0,0.0,0.2731829573934837,0.44862155388471175,0.09774436090225563,0.017543859649122806,0.002506265664160401,0.002506265664160401,0.007518796992481203,0.002506265664160401,0.015037593984962405,0.005012531328320802,0.010025062656641603,0.02756892230576441,0.015037593984962405,0.020050125313283207,0.02756892230576441,0.02756892230576441,0.0,0.0,0.0,0.0,0.1125,0.215,0.0425,0.0325,0.0075,0.01,0.0075,0.015,0.0075,0.015,0.0125,0.01,0.0275,0.0575,0.04,0.0875,0.22,0.08,0.0,0.0,0.007481296758104738,0.014962593516209476,0.00997506234413965,0.0024937655860349127,0.004987531172069825,0.02743142144638404,0.007481296758104738,0.0024937655860349127,0.007481296758104738,0.004987531172069825,0.012468827930174564,0.02493765586034913,0.02493765586034913,0.06234413965087282,0.09725685785536159,0.12468827930174564,0.4513715710723192,0.11221945137157108,0.0,0.0,0.0024937655860349127,0.0024937655860349127,0.0,0.0,0.0,0.0024937655860349127,0.004987531172069825,0.017456359102244388,0.022443890274314215,0.04987531172069826,0.059850374064837904,0.08478802992518704,0.12219451371571072,0.12219451371571072,0.17206982543640897,0.1596009975062344,0.14463840399002495,0.032418952618453865,0.0,0.0,0.02743142144638404,0.3566084788029925,0.18453865336658354,0.14713216957605985,0.08728179551122195,0.10224438902743142,0.05236907730673317,0.0024937655860349127,0.012468827930174564,0.0024937655860349127,0.0,0.012468827930174564,0.0,0.004987531172069825,0.007481296758104738,0.0,0.0,0.0,0.0,0.0,0.09476309226932668,0.5586034912718204,0.2144638403990025,0.1172069825436409,0.0024937655860349127,0.0,0.0,0.012468827930174564,0.0,0.0,0.0,0.0,0.0,0.0,0.0,0.0,0.0,0.0,0.0,0.0,0.029925187032418952,0.40648379052369077,0.26932668329177056,0.24438902743142144,0.034912718204488775,0.00997506234413965,0.004987531172069825,0.0,0.0,0.0,0.0,0.0,0.0,0.0,0.0,0.0,0.0,0.0,0.0,0.0,0.022443890274314215,0.4314214463840399,0.29925187032418954,0.24189526184538654,0.0024937655860349127,0.0024937655860349127,0.0,0.0,0.0,0.0,0.0,0.0,0.0,0.0,0.0,0.0,0.0,0.0,0.0,0.0,0.004987531172069825,0.1172069825436409,0.29177057356608477,0.23690773067331672,0.10224438902743142,0.13216957605985039,0.09975062344139651,0.014962593516209476,0.0,0.0,0.0,0.0,0.0,0.0,0.0,0.0,0.0,0.0,0.0,0.0,0.0,0.0,0.0,0.0,0.004987531172069825,0.004987531172069825,0.04488778054862843,0.029925187032418952,0.08728179551122195,0.12967581047381546,0.14713216957605985,0.12468827930174564,0.08977556109725686,0.08229426433915212,0.10473815461346633,0.12468827930174564,0.02493765586034913,0.0,0.0,0.0,0.0,0.0024937655860349127,0.0024937655860349127,0.07231920199501247,0.39650872817955113,0.46384039900249374,0.06234413965087282,0.0,0.0,0.0,0.0,0.0,0.0,0.0,0.0,0.0,0.0,0.0,0.0,0.0,0.0,0.0,0.0,0.0,0.0,0.0,0.0,0.0,0.0,0.0,0.0024937655860349127,0.017456359102244388,0.032418952618453865,0.07481296758104738,0.2518703241895262,0.4513715710723192,0.16458852867830423,0.004987531172069825,0.0,0.0,0.0,0.0,0.0,0.0,0.0,0.0,0.0,0.0,0.0,0.0,0.0,0.0,0.0,0.0199501246882793,0.11471321695760599,0.4713216957605985,0.38403990024937656,0.00997506234413965,0.0,0.0,0.0,0.0,0.0,0.0,0.0,0.0,0.0,0.0,0.0,0.0,0.0,0.0024937655860349127,0.0,0.02743142144638404,0.12967581047381546,0.5211970074812967,0.3117206982543641,0.007481296758104738,0.0,0.0,NAT
0.9598765432098766,0.037037037037037035,0.0,0.0,0.0,0.0,0.0,0.0,0.0,0.0,0.0,0.0,0.0,0.0,0.0,0.0,0.0,0.0,0.0,0.0030864197530864196,0.8277634961439588,0.13110539845758354,0.015424164524421594,0.002570694087403599,0.0,0.0,0.0,0.0,0.0,0.0,0.0,0.0,0.0,0.0,0.0,0.0,0.0,0.0,0.005141388174807198,0.017994858611825194,0.5452261306532663,0.16834170854271358,0.05778894472361809,0.035175879396984924,0.005025125628140704,0.007537688442211055,0.002512562814070352,0.0,0.005025125628140704,0.020100502512562814,0.020100502512562814,0.020100502512562814,0.007537688442211055,0.010050251256281407,0.002512562814070352,0.0,0.0,0.010050251256281407,0.007537688442211055,0.07537688442211055,0.21052631578947367,0.13283208020050125,0.05764411027568922,0.03258145363408521,0.015037593984962405,0.002506265664160401,0.005012531328320802,0.002506265664160401,0.002506265664160401,0.0,0.005012531328320802,0.0,0.005012531328320802,0.007518796992481203,0.012531328320802004,0.015037593984962405,0.022556390977443608,0.020050125313283207,0.03007518796992481,0.42105263157894735,0.05263157894736842,0.022556390977443608,0.007518796992481203,0.002506265664160401,0.005012531328320802,0.0,0.002506265664160401,0.0,0.002506265664160401,0.0,0.005012531328320802,0.0,0.007518796992481203,0.005012531328320802,0.012531328320802004,0.02506265664160401,0.040100250626566414,0.07268170426065163,0.07518796992481203,0.6616541353383458,0.015037593984962405,0.012531328320802004,0.005012531328320802,0.005012531328320802,0.0,0.0,0.002506265664160401,0.015037593984962405,0.007518796992481203,0.015037593984962405,0.015037593984962405,0.022556390977443608,0.022556390977443608,0.03258145363408521,0.05012531328320802,0.03508771929824561,0.05764411027568922,0.10025062656641603,0.11779448621553884,0.46867167919799496,0.15538847117794485,0.14536340852130325,0.11027568922305764,0.040100250626566414,0.045112781954887216,0.042606516290726815,0.06015037593984962,0.05513784461152882,0.045112781954887216,0.06015037593984962,0.06516290726817042,0.08020050125313283,0.02756892230576441,0.02506265664160401,0.022556390977443608,0.010025062656641603,0.002506265664160401,0.007518796992481203,0.0,0.0,0.49373433583959897,0.21804511278195488,0.12030075187969924,0.07518796992481203,0.05012531328320802,0.005012531328320802,0.0,0.0,0.0,0.0,0.0,0.0,0.0,0.0,0.0,0.0,0.0,0.0,0.010025062656641603,0.02756892230576441,0.18796992481203006,0.2706766917293233,0.12531328320802004,0.07769423558897243,0.05263157894736842,0.05764411027568922,0.05263157894736842,0.047619047619047616,0.02506265664160401,0.03508771929824561,0.022556390977443608,0.022556390977443608,0.0,0.012531328320802004,0.005012531328320802,0.0,0.0,0.0,0.0,0.005012531328320802,0.09273182957393483,0.22305764411027568,0.20551378446115287,0.17293233082706766,0.14786967418546365,0.09523809523809523,0.06015037593984962,0.002506265664160401,0.0,0.0,0.0,0.0,0.0,0.0,0.0,0.0,0.0,0.0,0.0,0.0,0.015037593984962405,0.05012531328320802,0.11528822055137844,0.17794486215538846,0.21804511278195488,0.14786967418546365,0.12030075187969924,0.05764411027568922,0.05513784461152882,0.022556390977443608,0.020050125313283207,0.0,0.0,0.0,0.0,0.0,0.0,0.0,0.0,0.0,0.005012531328320802,0.06015037593984962,0.10776942355889724,0.13784461152882205,0.19298245614035087,0.13032581453634084,0.11528822055137844,0.05263157894736842,0.07268170426065163,0.03258145363408521,0.045112781954887216,0.017543859649122806,0.015037593984962405,0.007518796992481203,0.002506265664160401,0.0,0.0,0.0,0.0,0.005012531328320802,0.0,0.0,0.0,0.0,0.0,0.0,0.0,0.0,0.002506265664160401,0.020050125313283207,0.015037593984962405,0.03258145363408521,0.040100250626566414,0.03759398496240601,0.05263157894736842,0.06516290726817042,0.08771929824561403,0.13032581453634084,0.23057644110275688,0.2857142857142857,0.0,0.0,0.0,0.0,0.0,0.0,0.0,0.002506265664160401,0.0,0.0,0.002506265664160401,0.002506265664160401,0.007518796992481203,0.0,0.012531328320802004,0.020050125313283207,0.05012531328320802,0.18546365914786966,0.3659147869674185,0.3508771929824561,0.0,0.0,0.0,0.0,0.0,0.0,0.0,0.0,0.0,0.0,0.0,0.002506265664160401,0.002506265664160401,0.005012531328320802,0.017543859649122806,0.02756892230576441,0.05263157894736842,0.12531328320802004,0.3634085213032581,0.40350877192982454,0.0,0.0,0.0,0.0,0.0,0.0,0.0,0.0,0.0,0.0,0.0,0.0,0.0,0.0,0.0,0.002506265664160401,0.010025062656641603,0.08270676691729323,0.5137844611528822,0.39097744360902253,0.975,0.0,0.0,0.0,0.0,0.0,0.0,0.0,0.0,0.0,0.0,0.0,0.0,0.0,0.0,0.0,0.0,0.0,0.0,0.025,0.95,0.0,0.0,0.025,0.0,0.0,0.0,0.0,0.0,0.0,0.0,0.0,0.0,0.0,0.0,0.0,0.025,0.0,0.0,0.0,0.9,0.025,0.0,0.025,0.0,0.025,0.0,0.0,0.025,0.0,0.0,0.0,0.0,0.0,0.0,0.0,0.0,0.0,0.0,0.0,0.9,0.025,0.025,0.0,0.0,0.025,0.0,0.0,0.025,0.0,0.0,0.0,0.0,0.0,0.0,0.0,0.0,0.0,0.0,0.0,0.9,0.025,0.025,0.0,0.025,0.0,0.0,0.025,0.0,0.0,0.0,0.0,0.0,0.0,0.0,0.0,0.0,0.0,0.0,0.0,0.9,0.025,0.025,0.0,0.025,0.0,0.0,0.025,0.0,0.0,0.0,0.0,0.0,0.0,0.0,0.0,0.0,0.0,0.0,0.0,0.9,0.025,0.025,0.0,0.025,0.0,0.0,0.025,0.0,0.0,0.0,0.0,0.0,0.0,0.0,0.0,0.0,0.0,0.0,0.0,0.925,0.025,0.0,0.0,0.025,0.0,0.0,0.0,0.0,0.0,0.0,0.0,0.025,0.0,0.0,0.0,0.0,0.0,0.0,0.0,0.9,0.05,0.0,0.025,0.0,0.0,0.0,0.0,0.0,0.025,0.0,0.0,0.0,0.0,0.0,0.0,0.0,0.0,0.0,0.0,0.875,0.05,0.025,0.0,0.025,0.0,0.0,0.025,0.0,0.0,0.0,0.0,0.0,0.0,0.0,0.0,0.0,0.0,0.0,0.0,0.875,0.05,0.025,0.025,0.0,0.0,0.0,0.025,0.0,0.0,0.0,0.0,0.0,0.0,0.0,0.0,0.0,0.0,0.0,0.0,0.9,0.025,0.05,0.0,0.0,0.0,0.0,0.0,0.0,0.025,0.0,0.0,0.0,0.0,0.0,0.0,0.0,0.0,0.0,0.0,0.875,0.05,0.025,0.025,0.0,0.0,0.0,0.0,0.025,0.0,0.0,0.0,0.0,0.0,0.0,0.0,0.0,0.0,0.0,0.0,0.875,0.05,0.025,0.025,0.0,0.0,0.0,0.0,0.025,0.0,0.0,0.0,0.0,0.0,0.0,0.0,0.0,0.0,0.0,0.0,0.875,0.05,0.025,0.025,0.0,0.0,0.0,0.0,0.025,0.0,0.0,0.0,0.0,0.0,0.0,0.0,0.0,0.0,0.0,0.0,0.875,0.05,0.025,0.025,0.0,0.0,0.0,0.0,0.025,0.0,0.0,0.0,0.0,0.0,0.0,0.0,0.0,0.0,0.0,0.0,0.8271604938271605,0.1697530864197531,0.0,0.0,0.0030864197530864196,0.0,0.0,0.0,0.0,0.0,0.0,0.0,0.0,0.0,0.0,0.0,0.0,0.0,0.0,0.0,0.6195372750642674,0.34704370179948585,0.010282776349614395,0.0,0.012853470437017995,0.005141388174807198,0.002570694087403599,0.002570694087403599,0.0,0.0,0.0,0.0,0.0,0.0,0.0,0.0,0.0,0.0,0.0,0.0,0.30402010050251255,0.40954773869346733,0.09296482412060302,0.01507537688442211,0.002512562814070352,0.002512562814070352,0.03015075376884422,0.04020100502512563,0.017587939698492462,0.010050251256281407,0.007537688442211055,0.01507537688442211,0.005025125628140704,0.005025125628140704,0.010050251256281407,0.017587939698492462,0.010050251256281407,0.005025125628140704,0.0,0.0,0.12030075187969924,0.24060150375939848,0.07518796992481203,0.017543859649122806,0.012531328320802004,0.0,0.0,0.007518796992481203,0.002506265664160401,0.007518796992481203,0.010025062656641603,0.015037593984962405,0.020050125313283207,0.03007518796992481,0.042606516290726815,0.08020050125313283,0.23057644110275688,0.08771929824561403,0.0,0.0,0.03258145363408521,0.040100250626566414,0.017543859649122806,0.005012531328320802,0.0,0.0,0.0,0.010025062656641603,0.002506265664160401,0.002506265664160401,0.012531328320802004,0.002506265664160401,0.03007518796992481,0.047619047619047616,0.10025062656641603,0.15538847117794485,0.42606516290726815,0.11528822055137844,0.0,0.0,0.007518796992481203,0.020050125313283207,0.007518796992481203,0.002506265664160401,0.012531328320802004,0.007518796992481203,0.03007518796992481,0.02506265664160401,0.03007518796992481,0.07268170426065163,0.10526315789473684,0.09774436090225563,0.09523809523809523,0.09022556390977443,0.11027568922305764,0.07769423558897243,0.15789473684210525,0.05012531328320802,0.0,0.0,0.03258145363408521,0.2731829573934837,0.13784461152882205,0.11278195488721804,0.08771929824561403,0.15288220551378445,0.14786967418546365,0.05012531328320802,0.005012531328320802,0.0,0.0,0.0,0.0,0.0,0.0,0.0,0.0,0.0,0.0,0.0,0.07017543859649122,0.6115288220551378,0.24310776942355888,0.03759398496240601,0.012531328320802004,0.005012531328320802,0.0,0.007518796992481203,0.0,0.005012531328320802,0.002506265664160401,0.005012531328320802,0.0,0.0,0.0,0.0,0.0,0.0,0.0,0.0,0.03759398496240601,0.42355889724310775,0.17794486215538846,0.16791979949874686,0.05263157894736842,0.08270676691729323,0.05263157894736842,0.005012531328320802,0.0,0.0,0.0,0.0,0.0,0.0,0.0,0.0,0.0,0.0,0.0,0.0,0.02756892230576441,0.2581453634085213,0.37593984962406013,0.3333333333333333,0.005012531328320802,0.0,0.0,0.0,0.0,0.0,0.0,0.0,0.0,0.0,0.0,0.0,0.0,0.0,0.0,0.0,0.0,0.05513784461152882,0.17042606516290726,0.6015037593984962,0.16290726817042606,0.010025062656641603,0.0,0.0,0.0,0.0,0.0,0.0,0.0,0.0,0.0,0.0,0.0,0.0,0.0,0.0,0.0,0.042606516290726815,0.16791979949874686,0.48370927318295737,0.24310776942355888,0.045112781954887216,0.012531328320802004,0.002506265664160401,0.002506265664160401,0.0,0.0,0.0,0.0,0.0,0.0,0.0,0.0,0.0,0.0,0.0,0.0,0.0,0.0,0.0,0.0,0.0,0.010025062656641603,0.015037593984962405,0.07017543859649122,0.11779448621553884,0.07518796992481203,0.06516290726817042,0.09022556390977443,0.13283208020050125,0.14285714285714285,0.22807017543859648,0.05263157894736842,0.0,0.0,0.0,0.0,0.0,0.0,0.0,0.0,0.0,0.005012531328320802,0.002506265664160401,0.012531328320802004,0.042606516290726815,0.02756892230576441,0.03258145363408521,0.05263157894736842,0.07268170426065163,0.16040100250626566,0.40852130325814534,0.18295739348370926,0.0,0.0,0.0,0.0,0.0,0.0,0.0,0.0,0.0,0.0,0.0,0.0,0.007518796992481203,0.03258145363408521,0.05012531328320802,0.06516290726817042,0.09273182957393483,0.14536340852130325,0.39598997493734334,0.20802005012531327,0.002506265664160401,0.0,0.0,0.0,0.0,0.0,0.0,0.0,0.0,0.0,0.0,0.0,0.0,0.0,0.0,0.0,0.010025062656641603,0.08020050125313283,0.46115288220551376,0.43859649122807015,0.010025062656641603,0.0,0.0,NAT
0.9109311740890689,0.06072874493927125,0.004048582995951417,0.0,0.0,0.0,0.0,0.0,0.0,0.0,0.0,0.0,0.0,0.0,0.0,0.0,0.0,0.0,0.012145748987854251,0.012145748987854251,0.8738738738738738,0.11711711711711711,0.0,0.0,0.0,0.0,0.0,0.0,0.0,0.0,0.0,0.0,0.0,0.0,0.0,0.0,0.0,0.0,0.0,0.009009009009009009,0.7070422535211267,0.2140845070422535,0.03380281690140845,0.016901408450704224,0.0,0.0,0.0,0.0,0.0,0.0,0.0,0.0,0.0,0.0,0.0,0.0,0.0,0.0,0.008450704225352112,0.01971830985915493,0.26740947075208915,0.1615598885793872,0.04178272980501393,0.04178272980501393,0.03899721448467967,0.011142061281337047,0.022284122562674095,0.0,0.002785515320334262,0.0,0.002785515320334262,0.002785515320334262,0.005571030640668524,0.013927576601671309,0.011142061281337047,0.011142061281337047,0.019498607242339833,0.027855153203342618,0.04735376044568245,0.27019498607242337,0.07520891364902507,0.025069637883008356,0.002785515320334262,0.011142061281337047,0.0,0.002785515320334262,0.002785515320334262,0.0,0.0,0.002785515320334262,0.013927576601671309,0.019498607242339833,0.013927576601671309,0.019498607242339833,0.011142061281337047,0.022284122562674095,0.052924791086350974,0.0584958217270195,0.0807799442896936,0.584958217270195,0.011142061281337047,0.0,0.0,0.0,0.0,0.0,0.0,0.0,0.005571030640668524,0.002785515320334262,0.0,0.011142061281337047,0.013927576601671309,0.011142061281337047,0.016713091922005572,0.0584958217270195,0.052924791086350974,0.07799442896935933,0.11977715877437325,0.6183844011142061,0.002785515320334262,0.002785515320334262,0.002785515320334262,0.005571030640668524,0.011142061281337047,0.011142061281337047,0.016713091922005572,0.016713091922005572,0.025069637883008356,0.019498607242339833,0.033426183844011144,0.025069637883008356,0.03899721448467967,0.06685236768802229,0.055710306406685235,0.06963788300835655,0.0807799442896936,0.10027855153203342,0.12534818941504178,0.28969359331476324,0.18662952646239556,0.1894150417827298,0.17548746518105848,0.13370473537604458,0.12534818941504178,0.0947075208913649,0.036211699164345405,0.011142061281337047,0.005571030640668524,0.016713091922005572,0.0,0.0,0.0,0.0,0.0,0.0,0.0,0.0,0.0,0.025069637883008356,0.20055710306406685,0.21727019498607242,0.17827298050139276,0.13370473537604458,0.12256267409470752,0.07799442896935933,0.036211699164345405,0.016713091922005572,0.008356545961002786,0.0,0.002785515320334262,0.0,0.0,0.0,0.0,0.0,0.0,0.0,0.0,0.005571030640668524,0.14484679665738162,0.2200557103064067,0.1532033426183844,0.07799442896935933,0.08913649025069638,0.03899721448467967,0.07242339832869081,0.04456824512534819,0.06406685236768803,0.025069637883008356,0.03064066852367688,0.033426183844011144,0.005571030640668524,0.0,0.0,0.0,0.0,0.0,0.0,0.0,0.08356545961002786,0.15041782729805014,0.16434540389972144,0.08913649025069638,0.14206128133704735,0.11977715877437325,0.11420612813370473,0.055710306406685235,0.022284122562674095,0.03064066852367688,0.019498607242339833,0.002785515320334262,0.0,0.0,0.0,0.0,0.0,0.0,0.0,0.005571030640668524,0.0,0.0,0.04456824512534819,0.03899721448467967,0.07799442896935933,0.0947075208913649,0.08913649025069638,0.07799442896935933,0.05013927576601671,0.07520891364902507,0.04735376044568245,0.07520891364902507,0.05013927576601671,0.06685236768802229,0.04456824512534819,0.04178272980501393,0.03899721448467967,0.022284122562674095,0.03899721448467967,0.025069637883008356,0.0,0.005571030640668524,0.05013927576601671,0.033426183844011144,0.08356545961002786,0.03899721448467967,0.04178272980501393,0.04178272980501393,0.05013927576601671,0.06406685236768803,0.04456824512534819,0.09192200557103064,0.04735376044568245,0.06685236768802229,0.025069637883008356,0.033426183844011144,0.07242339832869081,0.08635097493036212,0.07242339832869081,0.05013927576601671,0.0,0.0,0.0,0.0,0.0,0.0,0.0,0.0,0.0,0.0,0.0,0.011142061281337047,0.03064066852367688,0.09749303621169916,0.19220055710306408,0.181058495821727,0.0947075208913649,0.0807799442896936,0.08356545961002786,0.22841225626740946,0.0,0.0,0.0,0.0,0.0,0.0,0.0,0.0,0.0,0.0,0.0,0.0,0.0,0.0,0.008356545961002786,0.019498607242339833,0.04178272980501393,0.17827298050139276,0.3732590529247911,0.3788300835654596,0.0,0.0,0.0,0.0,0.0,0.0,0.0,0.0,0.0,0.0,0.0,0.0,0.0,0.0,0.0,0.0,0.013927576601671309,0.1309192200557103,0.43454038997214484,0.4206128133704735,0.975,0.0,0.0,0.0,0.0,0.0,0.0,0.0,0.0,0.0,0.0,0.0,0.0,0.0,0.0,0.0,0.0,0.0,0.0,0.025,0.975,0.0,0.0,0.0,0.0,0.0,0.0,0.0,0.0,0.0,0.0,0.0,0.0,0.0,0.0,0.0,0.0,0.0,0.0,0.025,0.95,0.0,0.0,0.0,0.0,0.025,0.0,0.0,0.0,0.0,0.0,0.0,0.0,0.0,0.025,0.0,0.0,0.0,0.0,0.0,0.9,0.025,0.025,0.0,0.0,0.025,0.0,0.0,0.025,0.0,0.0,0.0,0.0,0.0,0.0,0.0,0.0,0.0,0.0,0.0,0.9,0.025,0.025,0.0,0.025,0.0,0.0,0.0,0.025,0.0,0.0,0.0,0.0,0.0,0.0,0.0,0.0,0.0,0.0,0.0,0.9,0.025,0.025,0.0,0.025,0.0,0.0,0.025,0.0,0.0,0.0,0.0,0.0,0.0,0.0,0.0,0.0,0.0,0.0,0.0,0.875,0.05,0.025,0.0,0.025,0.0,0.025,0.0,0.0,0.0,0.0,0.0,0.0,0.0,0.0,0.0,0.0,0.0,0.0,0.0,0.925,0.05,0.0,0.0,0.0,0.0,0.0,0.0,0.0,0.0,0.0,0.0,0.0,0.0,0.025,0.0,0.0,0.0,0.0,0.0,0.9,0.05,0.0,0.025,0.0,0.0,0.0,0.0,0.0,0.0,0.025,0.0,0.0,0.0,0.0,0.0,0.0,0.0,0.0,0.0,0.9,0.025,0.025,0.025,0.0,0.0,0.0,0.025,0.0,0.0,0.0,0.0,0.0,0.0,0.0,0.0,0.0,0.0,0.0,0.0,0.9,0.05,0.025,0.0,0.0,0.0,0.0,0.0,0.0,0.0,0.025,0.0,0.0,0.0,0.0,0.0,0.0,0.0,0.0,0.0,0.9,0.025,0.025,0.025,0.0,0.0,0.0,0.0,0.025,0.0,0.0,0.0,0.0,0.0,0.0,0.0,0.0,0.0,0.0,0.0,0.9,0.025,0.025,0.025,0.0,0.0,0.0,0.0,0.025,0.0,0.0,0.0,0.0,0.0,0.0,0.0,0.0,0.0,0.0,0.0,0.875,0.05,0.025,0.025,0.0,0.0,0.0,0.0,0.025,0.0,0.0,0.0,0.0,0.0,0.0,0.0,0.0,0.0,0.0,0.0,0.875,0.05,0.025,0.025,0.0,0.0,0.0,0.0,0.025,0.0,0.0,0.0,0.0,0.0,0.0,0.0,0.0,0.0,0.0,0.0,0.875,0.05,0.025,0.025,0.0,0.0,0.0,0.0,0.025,0.0,0.0,0.0,0.0,0.0,0.0,0.0,0.0,0.0,0.0,0.0,0.7854251012145749,0.1902834008097166,0.0,0.0,0.012145748987854251,0.0,0.012145748987854251,0.0,0.0,0.0,0.0,0.0,0.0,0.0,0.0,0.0,0.0,0.0,0.0,0.0,0.6816816816816816,0.30930930930930933,0.0,0.0,0.009009009009009009,0.0,0.0,0.0,0.0,0.0,0.0,0.0,0.0,0.0,0.0,0.0,0.0,0.0,0.0,0.0,0.4197183098591549,0.5183098591549296,0.03380281690140845,0.0,0.014084507042253521,0.0,0.0028169014084507044,0.005633802816901409,0.005633802816901409,0.0,0.0,0.0,0.0,0.0,0.0,0.0,0.0,0.0,0.0,0.0,0.1615598885793872,0.2646239554317549,0.0807799442896936,0.055710306406685235,0.036211699164345405,0.005571030640668524,0.005571030640668524,0.016713091922005572,0.011142061281337047,0.013927576601671309,0.013927576601671309,0.019498607242339833,0.008356545961002786,0.027855153203342618,0.04178272980501393,0.06685236768802229,0.14484679665738162,0.025069637883008356,0.0,0.0,0.036211699164345405,0.06685236768802229,0.011142061281337047,0.0,0.005571030640668524,0.002785515320334262,0.013927576601671309,0.0,0.022284122562674095,0.025069637883008356,0.03064066852367688,0.019498607242339833,0.027855153203342618,0.06128133704735376,0.06963788300835655,0.11142061281337047,0.38997214484679665,0.10584958217270195,0.0,0.0,0.008356545961002786,0.002785515320334262,0.0,0.0,0.0,0.002785515320334262,0.005571030640668524,0.002785515320334262,0.008356545961002786,0.019498607242339833,0.027855153203342618,0.036211699164345405,0.04735376044568245,0.116991643454039,0.1532033426183844,0.18384401114206128,0.30362116991643456,0.0807799442896936,0.0,0.0,0.002785515320334262,0.002785515320334262,0.002785515320334262,0.036211699164345405,0.013927576601671309,0.019498607242339833,0.05013927576601671,0.06963788300835655,0.09749303621169916,0.10863509749303621,0.12256267409470752,0.1532033426183844,0.11420612813370473,0.09749303621169916,0.07799442896935933,0.022284122562674095,0.008356545961002786,0.0,0.0,0.0,0.04456824512534819,0.30919220055710306,0.2924791086350975,0.3008356545961003,0.027855153203342618,0.008356545961002786,0.013927576601671309,0.002785515320334262,0.0,0.0,0.0,0.0,0.0,0.0,0.0,0.0,0.0,0.0,0.0,0.0,0.027855153203342618,0.3788300835654596,0.28969359331476324,0.28690807799442897,0.011142061281337047,0.005571030640668524,0.0,0.0,0.0,0.0,0.0,0.0,0.0,0.0,0.0,0.0,0.0,0.0,0.0,0.0,0.04735376044568245,0.2924791086350975,0.2618384401114206,0.16434540389972144,0.12813370473537605,0.10584958217270195,0.0,0.0,0.0,0.0,0.0,0.0,0.0,0.0,0.0,0.0,0.0,0.0,0.0,0.0,0.002785515320334262,0.21727019498607242,0.23119777158774374,0.37047353760445684,0.11142061281337047,0.06406685236768803,0.002785515320334262,0.0,0.0,0.0,0.0,0.0,0.0,0.0,0.0,0.0,0.0,0.0,0.0,0.0,0.0,0.0,0.052924791086350974,0.1392757660167131,0.13649025069637882,0.20612813370473537,0.27019498607242337,0.17548746518105848,0.019498607242339833,0.0,0.0,0.0,0.0,0.0,0.0,0.0,0.0,0.0,0.0,0.0,0.0,0.002785515320334262,0.07799442896935933,0.11420612813370473,0.06963788300835655,0.0947075208913649,0.181058495821727,0.12256267409470752,0.1309192200557103,0.13370473537604458,0.06685236768802229,0.005571030640668524,0.0,0.0,0.0,0.0,0.0,0.0,0.0,0.0,0.0,0.0,0.0,0.0,0.0,0.0,0.0,0.0,0.011142061281337047,0.03899721448467967,0.14484679665738162,0.35097493036211697,0.3426183844011142,0.11142061281337047,0.0,0.0,0.0,0.0,0.0,0.0,0.0,0.0,0.0,0.0,0.0,0.0,0.0,0.0,0.0,0.0,0.0,0.0,0.025069637883008356,0.0807799442896936,0.21727019498607242,0.42618384401114207,0.2479108635097493,0.002785515320334262,0.0,0.0,0.0,0.0,0.0,0.0,0.0,0.0,0.0,0.0,0.0,0.0,0.0,0.0,0.0,0.019498607242339833,0.12534818941504178,0.5013927576601671,0.35097493036211697,0.002785515320334262,0.0,0.0,L4
0.9154929577464789,0.0676056338028169,0.005633802816901409,0.0,0.0,0.0,0.0,0.0,0.0,0.0,0.0,0.0,0.0,0.0,0.0,0.0,0.005633802816901409,0.0,0.0,0.005633802816901409,0.7297297297297297,0.17936117936117937,0.051597051597051594,0.009828009828009828,0.002457002457002457,0.0,0.0,0.0,0.0,0.0,0.0,0.0,0.0,0.0,0.0,0.0,0.0,0.002457002457002457,0.007371007371007371,0.0171990171990172,0.3317422434367542,0.13365155131264916,0.0405727923627685,0.011933174224343675,0.016706443914081145,0.00477326968973747,0.00954653937947494,0.0,0.00477326968973747,0.00477326968973747,0.00477326968973747,0.00954653937947494,0.00477326968973747,0.016706443914081145,0.026252983293556086,0.011933174224343675,0.01909307875894988,0.01909307875894988,0.059665871121718374,0.26968973747016706,0.11190476190476191,0.02857142857142857,0.0,0.002380952380952381,0.0,0.0,0.0,0.0,0.009523809523809525,0.002380952380952381,0.002380952380952381,0.009523809523809525,0.011904761904761904,0.011904761904761904,0.016666666666666666,0.02619047619047619,0.04285714285714286,0.05952380952380952,0.05,0.6142857142857143,0.016666666666666666,0.004761904761904762,0.0,0.0,0.0,0.0,0.0,0.0,0.0,0.002380952380952381,0.004761904761904762,0.0,0.011904761904761904,0.014285714285714285,0.014285714285714285,0.04285714285714286,0.047619047619047616,0.09047619047619047,0.10952380952380952,0.6404761904761904,0.04285714285714286,0.05,0.047619047619047616,0.04523809523809524,0.08095238095238096,0.030952380952380953,0.047619047619047616,0.06666666666666667,0.05476190476190476,0.07380952380952381,0.05,0.0761904761904762,0.04047619047619048,0.05476190476190476,0.02142857142857143,0.030952380952380953,0.04047619047619048,0.047619047619047616,0.06428571428571428,0.03333333333333333,0.15,0.1880952380952381,0.11190476190476191,0.09761904761904762,0.11904761904761904,0.08333333333333333,0.09761904761904762,0.02857142857142857,0.047619047619047616,0.01904761904761905,0.02142857142857143,0.007142857142857143,0.004761904761904762,0.007142857142857143,0.007142857142857143,0.002380952380952381,0.0,0.0,0.0,0.007142857142857143,0.319047619047619,0.26904761904761904,0.10476190476190476,0.07142857142857142,0.06904761904761905,0.02619047619047619,0.06190476190476191,0.016666666666666666,0.02142857142857143,0.01904761904761905,0.009523809523809525,0.0,0.0,0.0,0.0,0.0,0.0,0.0,0.004761904761904762,0.007142857142857143,0.24523809523809523,0.35,0.18333333333333332,0.08571428571428572,0.09761904761904762,0.03571428571428571,0.002380952380952381,0.0,0.0,0.0,0.0,0.0,0.0,0.0,0.0,0.0,0.0,0.0,0.0,0.0,0.1880952380952381,0.24047619047619048,0.12380952380952381,0.09047619047619047,0.06428571428571428,0.05476190476190476,0.030952380952380953,0.03571428571428571,0.01904761904761905,0.04523809523809524,0.02619047619047619,0.02857142857142857,0.03333333333333333,0.004761904761904762,0.009523809523809525,0.0,0.0,0.0,0.0,0.004761904761904762,0.0,0.0,0.0,0.002380952380952381,0.007142857142857143,0.004761904761904762,0.011904761904761904,0.016666666666666666,0.01904761904761905,0.02619047619047619,0.02142857142857143,0.03571428571428571,0.023809523809523808,0.05476190476190476,0.05476190476190476,0.05,0.0880952380952381,0.11666666666666667,0.16666666666666666,0.3,0.0,0.0,0.0,0.0,0.0,0.0,0.0,0.004761904761904762,0.002380952380952381,0.0,0.0,0.009523809523809525,0.011904761904761904,0.04047619047619048,0.02619047619047619,0.05952380952380952,0.08333333333333333,0.15,0.23095238095238096,0.38095238095238093,0.0,0.0,0.0,0.0,0.0,0.0,0.0,0.0,0.0,0.0,0.0,0.0,0.002380952380952381,0.004761904761904762,0.02142857142857143,0.02142857142857143,0.05,0.14523809523809525,0.37857142857142856,0.3761904761904762,0.0,0.0,0.0,0.0,0.0,0.0,0.0,0.0,0.0,0.0,0.0,0.0,0.002380952380952381,0.011904761904761904,0.007142857142857143,0.02857142857142857,0.06904761904761905,0.16428571428571428,0.35,0.36666666666666664,0.0,0.0,0.0,0.0,0.0,0.0,0.0,0.0,0.0,0.0,0.0,0.0,0.0,0.0,0.0,0.002380952380952381,0.009523809523809525,0.10952380952380952,0.4976190476190476,0.38095238095238093,0.0,0.0,0.0,0.0,0.0,0.0,0.0,0.0,0.0,0.0,0.0,0.0,0.0,0.0,0.0,0.0,0.011904761904761904,0.0761904761904762,0.5476190476190477,0.36428571428571427,0.925,0.0,0.0,0.0,0.025,0.0,0.0,0.025,0.025,0.0,0.0,0.0,0.0,0.0,0.0,0.0,0.0,0.0,0.0,0.0,0.95,0.0,0.0,0.0,0.025,0.0,0.0,0.0,0.0,0.0,0.0,0.0,0.0,0.025,0.0,0.0,0.0,0.0,0.0,0.0,0.9,0.025,0.025,0.0,0.0,0.025,0.0,0.0,0.025,0.0,0.0,0.0,0.0,0.0,0.0,0.0,0.0,0.0,0.0,0.0,0.9,0.025,0.025,0.0,0.025,0.0,0.0,0.0,0.025,0.0,0.0,0.0,0.0,0.0,0.0,0.0,0.0,0.0,0.0,0.0,0.9,0.025,0.025,0.0,0.025,0.0,0.0,0.025,0.0,0.0,0.0,0.0,0.0,0.0,0.0,0.0,0.0,0.0,0.0,0.0,0.9,0.05,0.0,0.0,0.025,0.0,0.0,0.0,0.025,0.0,0.0,0.0,0.0,0.0,0.0,0.0,0.0,0.0,0.0,0.0,0.9,0.05,0.0,0.025,0.0,0.0,0.0,0.0,0.0,0.0,0.025,0.0,0.0,0.0,0.0,0.0,0.0,0.0,0.0,0.0,0.925,0.025,0.0,0.025,0.0,0.0,0.0,0.0,0.0,0.0,0.0,0.025,0.0,0.0,0.0,0.0,0.0,0.0,0.0,0.0,0.9,0.025,0.025,0.0,0.025,0.0,0.0,0.025,0.0,0.0,0.0,0.0,0.0,0.0,0.0,0.0,0.0,0.0,0.0,0.0,0.9,0.025,0.025,0.025,0.0,0.0,0.0,0.0,0.0,0.025,0.0,0.0,0.0,0.0,0.0,0.0,0.0,0.0,0.0,0.0,0.875,0.05,0.025,0.025,0.0,0.0,0.0,0.0,0.025,0.0,0.0,0.0,0.0,0.0,0.0,0.0,0.0,0.0,0.0,0.0,0.875,0.05,0.025,0.025,0.0,0.0,0.0,0.0,0.025,0.0,0.0,0.0,0.0,0.0,0.0,0.0,0.0,0.0,0.0,0.0,0.875,0.05,0.025,0.025,0.0,0.0,0.0,0.0,0.025,0.0,0.0,0.0,0.0,0.0,0.0,0.0,0.0,0.0,0.0,0.0,0.875,0.05,0.025,0.025,0.0,0.0,0.0,0.0,0.025,0.0,0.0,0.0,0.0,0.0,0.0,0.0,0.0,0.0,0.0,0.0,0.875,0.05,0.025,0.025,0.0,0.0,0.0,0.0,0.025,0.0,0.0,0.0,0.0,0.0,0.0,0.0,0.0,0.0,0.0,0.0,0.875,0.05,0.025,0.025,0.0,0.0,0.0,0.0,0.025,0.0,0.0,0.0,0.0,0.0,0.0,0.0,0.0,0.0,0.0,0.0,0.7436619718309859,0.24507042253521127,0.0,0.0,0.0028169014084507044,0.0,0.0,0.0,0.008450704225352112,0.0,0.0,0.0,0.0,0.0,0.0,0.0,0.0,0.0,0.0,0.0,0.4742014742014742,0.4594594594594595,0.03931203931203931,0.0,0.012285012285012284,0.0,0.004914004914004914,0.0,0.0,0.0,0.0,0.0,0.002457002457002457,0.007371007371007371,0.0,0.0,0.0,0.0,0.0,0.0,0.18377088305489261,0.2840095465393795,0.05250596658711217,0.026252983293556086,0.002386634844868735,0.00477326968973747,0.00477326968973747,0.021479713603818614,0.011933174224343675,0.02386634844868735,0.02386634844868735,0.01909307875894988,0.016706443914081145,0.0405727923627685,0.050119331742243436,0.09307875894988067,0.11217183770883055,0.028639618138424822,0.0,0.0,0.06428571428571428,0.0761904761904762,0.002380952380952381,0.0,0.0,0.004761904761904762,0.007142857142857143,0.004761904761904762,0.004761904761904762,0.01904761904761905,0.023809523809523808,0.03571428571428571,0.02619047619047619,0.03571428571428571,0.07380952380952381,0.1357142857142857,0.3738095238095238,0.11190476190476191,0.0,0.0,0.016666666666666666,0.004761904761904762,0.0,0.0,0.0,0.0,0.0,0.002380952380952381,0.002380952380952381,0.009523809523809525,0.016666666666666666,0.023809523809523808,0.05238095238095238,0.11190476190476191,0.15,0.16666666666666666,0.3380952380952381,0.10476190476190476,0.0,0.0,0.01904761904761905,0.07142857142857142,0.09047619047619047,0.10952380952380952,0.07857142857142857,0.1738095238095238,0.10952380952380952,0.08095238095238096,0.07380952380952381,0.05952380952380952,0.06428571428571428,0.04047619047619048,0.01904761904761905,0.004761904761904762,0.002380952380952381,0.002380952380952381,0.0,0.0,0.0,0.0,0.03571428571428571,0.2761904761904762,0.22857142857142856,0.2833333333333333,0.0880952380952381,0.06666666666666667,0.014285714285714285,0.007142857142857143,0.0,0.0,0.0,0.0,0.0,0.0,0.0,0.0,0.0,0.0,0.0,0.0,0.04523809523809524,0.5333333333333333,0.20476190476190476,0.08571428571428572,0.0761904761904762,0.04285714285714286,0.0,0.004761904761904762,0.004761904761904762,0.002380952380952381,0.0,0.0,0.0,0.0,0.0,0.0,0.0,0.0,0.0,0.0,0.030952380952380953,0.5642857142857143,0.3380952380952381,0.06666666666666667,0.0,0.0,0.0,0.0,0.0,0.0,0.0,0.0,0.0,0.0,0.0,0.0,0.0,0.0,0.0,0.0,0.04285714285714286,0.3761904761904762,0.2261904761904762,0.12857142857142856,0.08571428571428572,0.08333333333333333,0.05238095238095238,0.0,0.004761904761904762,0.0,0.0,0.0,0.0,0.0,0.0,0.0,0.0,0.0,0.0,0.0,0.0,0.0,0.0,0.002380952380952381,0.014285714285714285,0.03333333333333333,0.07142857142857142,0.07380952380952381,0.09285714285714286,0.12380952380952381,0.06666666666666667,0.09047619047619047,0.13333333333333333,0.12142857142857143,0.12142857142857143,0.047619047619047616,0.007142857142857143,0.0,0.0,0.0,0.0,0.0,0.0,0.0,0.0,0.0,0.011904761904761904,0.004761904761904762,0.023809523809523808,0.03571428571428571,0.06904761904761905,0.11190476190476191,0.14523809523809525,0.14285714285714285,0.20714285714285716,0.18333333333333332,0.06190476190476191,0.002380952380952381,0.0,0.0,0.0,0.0,0.0,0.0,0.0,0.0,0.0,0.0,0.0,0.007142857142857143,0.009523809523809525,0.023809523809523808,0.10714285714285714,0.09761904761904762,0.2119047619047619,0.3547619047619048,0.1880952380952381,0.0,0.0,0.0,0.0,0.0,0.0,0.0,0.0,0.0,0.0,0.0,0.0,0.004761904761904762,0.009523809523809525,0.016666666666666666,0.0380952380952381,0.12142857142857143,0.2976190476190476,0.40714285714285714,0.10238095238095238,0.002380952380952381,0.0,0.0,0.0,0.0,0.0,0.0,0.0,0.0,0.0,0.0,0.0,0.0,0.0,0.0,0.0,0.004761904761904762,0.08333333333333333,0.47619047619047616,0.43333333333333335,0.002380952380952381,0.0,0.0,0.0,0.0,0.0,0.0,0.0,0.0,0.0,0.0,0.0,0.0,0.0,0.0,0.0,0.0,0.06190476190476191,0.5261904761904762,0.40714285714285714,0.004761904761904762,0.0,0.0,L4
0.9248704663212435,0.06217616580310881,0.0051813471502590676,0.0,0.0,0.0,0.0,0.0,0.0,0.0,0.0,0.0,0.0,0.0,0.0,0.0,0.0,0.0,0.0,0.007772020725388601,0.7172897196261683,0.205607476635514,0.02336448598130841,0.002336448598130841,0.002336448598130841,0.0,0.0,0.0,0.0,0.0,0.0,0.002336448598130841,0.0,0.0,0.0,0.002336448598130841,0.004672897196261682,0.007009345794392523,0.011682242990654205,0.02102803738317757,0.32723112128146453,0.18306636155606407,0.034324942791762014,0.02745995423340961,0.011441647597254004,0.004576659038901602,0.002288329519450801,0.0,0.0,0.004576659038901602,0.004576659038901602,0.002288329519450801,0.006864988558352402,0.009153318077803204,0.011441647597254004,0.011441647597254004,0.034324942791762014,0.038901601830663615,0.04576659038901602,0.2402745995423341,0.09360730593607305,0.03424657534246575,0.0091324200913242,0.0091324200913242,0.00684931506849315,0.01141552511415525,0.0,0.0045662100456621,0.01141552511415525,0.00684931506849315,0.0091324200913242,0.00684931506849315,0.0228310502283105,0.02054794520547945,0.01598173515981735,0.03881278538812785,0.0547945205479452,0.0639269406392694,0.0547945205479452,0.5251141552511416,0.00684931506849315,0.0,0.0,0.0,0.0,0.0,0.0,0.0,0.0045662100456621,0.00684931506849315,0.01141552511415525,0.00684931506849315,0.01598173515981735,0.01141552511415525,0.0228310502283105,0.045662100456621,0.045662100456621,0.1050228310502283,0.11187214611872145,0.6050228310502284,0.0091324200913242,0.0136986301369863,0.00684931506849315,0.0182648401826484,0.0182648401826484,0.0319634703196347,0.0319634703196347,0.0182648401826484,0.0365296803652968,0.02511415525114155,0.0319634703196347,0.0319634703196347,0.03424657534246575,0.03881278538812785,0.04794520547945205,0.05251141552511415,0.06621004566210045,0.07990867579908675,0.13013698630136986,0.2762557077625571,0.12557077625570776,0.24429223744292236,0.1917808219178082,0.12557077625570776,0.1050228310502283,0.06164383561643835,0.0410958904109589,0.04337899543378995,0.01598173515981735,0.01141552511415525,0.0091324200913242,0.0091324200913242,0.00228310502283105,0.0,0.0,0.0,0.0045662100456621,0.0,0.0,0.0091324200913242,0.4429223744292237,0.3264840182648402,0.1278538812785388,0.06621004566210045,0.03424657534246575,0.00228310502283105,0.0,0.0,0.0,0.0,0.0,0.0,0.0,0.0,0.0,0.0,0.0,0.0,0.0,0.0,0.1735159817351598,0.15296803652968036,0.19406392694063926,0.1415525114155251,0.10273972602739725,0.0684931506849315,0.11187214611872145,0.0273972602739726,0.0136986301369863,0.00684931506849315,0.00228310502283105,0.0,0.0,0.0,0.0,0.0,0.0,0.0,0.0,0.0045662100456621,0.0045662100456621,0.0228310502283105,0.02054794520547945,0.01141552511415525,0.0410958904109589,0.0273972602739726,0.0319634703196347,0.02968036529680365,0.0639269406392694,0.0821917808219178,0.07990867579908675,0.0776255707762557,0.07077625570776255,0.06164383561643835,0.07077625570776255,0.05251141552511415,0.07990867579908675,0.0684931506849315,0.0593607305936073,0.04337899543378995,0.0,0.0045662100456621,0.01141552511415525,0.0228310502283105,0.04794520547945205,0.0593607305936073,0.1232876712328767,0.0684931506849315,0.08447488584474885,0.091324200913242,0.06621004566210045,0.0547945205479452,0.0730593607305936,0.06621004566210045,0.04337899543378995,0.04794520547945205,0.02054794520547945,0.0365296803652968,0.02054794520547945,0.05707762557077625,0.0,0.0,0.0,0.0,0.0,0.0,0.0,0.0,0.0,0.0,0.0,0.0,0.00228310502283105,0.0,0.0136986301369863,0.02968036529680365,0.0821917808219178,0.16666666666666666,0.3059360730593607,0.3995433789954338,0.0,0.0,0.0,0.0,0.0,0.0,0.0,0.0,0.0,0.0,0.0,0.0,0.0,0.0,0.00228310502283105,0.0136986301369863,0.0502283105022831,0.14383561643835616,0.3858447488584475,0.4041095890410959,0.0,0.0,0.0,0.0,0.0,0.0,0.0,0.0,0.0,0.0,0.0,0.0,0.0,0.0,0.0,0.0045662100456621,0.02511415525114155,0.14840182648401826,0.4406392694063927,0.3812785388127854,0.0,0.0,0.0,0.0,0.0,0.0,0.0,0.0,0.0,0.0,0.0,0.0,0.0,0.0,0.0,0.0,0.0091324200913242,0.1050228310502283,0.4726027397260274,0.4132420091324201,0.0,0.0,0.0,0.0,0.0,0.0,0.0,0.0,0.0,0.0,0.0,0.0,0.0,0.0,0.0,0.0,0.0045662100456621,0.091324200913242,0.5365296803652968,0.3675799086757991,0.975,0.0,0.0,0.0,0.0,0.0,0.0,0.0,0.0,0.0,0.0,0.0,0.0,0.0,0.0,0.0,0.0,0.0,0.0,0.025,0.9,0.05,0.025,0.0,0.0,0.0,0.0,0.0,0.0,0.0,0.0,0.0,0.025,0.0,0.0,0.0,0.0,0.0,0.0,0.0,0.9,0.05,0.0,0.0,0.025,0.0,0.0,0.0,0.0,0.0,0.025,0.0,0.0,0.0,0.0,0.0,0.0,0.0,0.0,0.0,0.9,0.025,0.025,0.0,0.025,0.0,0.0,0.0,0.025,0.0,0.0,0.0,0.0,0.0,0.0,0.0,0.0,0.0,0.0,0.0,0.9,0.025,0.025,0.0,0.025,0.0,0.0,0.025,0.0,0.0,0.0,0.0,0.0,0.0,0.0,0.0,0.0,0.0,0.0,0.0,0.9,0.025,0.025,0.0,0.025,0.0,0.0,0.025,0.0,0.0,0.0,0.0,0.0,0.0,0.0,0.0,0.0,0.0,0.0,0.0,0.9,0.025,0.0,0.025,0.025,0.0,0.0,0.025,0.0,0.0,0.0,0.0,0.0,0.0,0.0,0.0,0.0,0.0,0.0,0.0,0.875,0.05,0.025,0.0,0.0,0.025,0.0,0.025,0.0,0.0,0.0,0.0,0.0,0.0,0.0,0.0,0.0,0.0,0.0,0.0,0.9,0.05,0.0,0.025,0.0,0.0,0.0,0.0,0.0,0.0,0.025,0.0,0.0,0.0,0.0,0.0,0.0,0.0,0.0,0.0,0.875,0.05,0.025,0.025,0.0,0.0,0.0,0.025,0.0,0.0,0.0,0.0,0.0,0.0,0.0,0.0,0.0,0.0,0.0,0.0,0.875,0.05,0.025,0.025,0.0,0.0,0.0,0.0,0.025,0.0,0.0,0.0,0.0,0.0,0.0,0.0,0.0,0.0,0.0,0.0,0.875,0.05,0.025,0.025,0.0,0.0,0.0,0.0,0.025,0.0,0.0,0.0,0.0,0.0,0.0,0.0,0.0,0.0,0.0,0.0,0.875,0.05,0.025,0.025,0.0,0.0,0.0,0.0,0.025,0.0,0.0,0.0,0.0,0.0,0.0,0.0,0.0,0.0,0.0,0.0,0.875,0.05,0.025,0.025,0.0,0.0,0.0,0.0,0.025,0.0,0.0,0.0,0.0,0.0,0.0,0.0,0.0,0.0,0.0,0.0,0.875,0.05,0.025,0.025,0.0,0.0,0.0,0.0,0.025,0.0,0.0,0.0,0.0,0.0,0.0,0.0,0.0,0.0,0.0,0.0,0.875,0.05,0.025,0.025,0.0,0.0,0.0,0.0,0.025,0.0,0.0,0.0,0.0,0.0,0.0,0.0,0.0,0.0,0.0,0.0,0.7875647668393783,0.20466321243523317,0.0,0.0,0.007772020725388601,0.0,0.0,0.0,0.0,0.0,0.0,0.0,0.0,0.0,0.0,0.0,0.0,0.0,0.0,0.0,0.4462616822429907,0.48598130841121495,0.016355140186915886,0.002336448598130841,0.007009345794392523,0.0,0.009345794392523364,0.0,0.0,0.002336448598130841,0.0,0.009345794392523364,0.018691588785046728,0.002336448598130841,0.0,0.0,0.0,0.0,0.0,0.0,0.17620137299771166,0.3295194508009153,0.06636155606407322,0.016018306636155607,0.0,0.009153318077803204,0.018306636155606407,0.002288329519450801,0.006864988558352402,0.02288329519450801,0.018306636155606407,0.032036613272311214,0.06636155606407322,0.038901601830663615,0.041189931350114416,0.034324942791762014,0.09382151029748284,0.02745995423340961,0.0,0.0,0.0547945205479452,0.06621004566210045,0.02968036529680365,0.00684931506849315,0.0091324200913242,0.01141552511415525,0.0182648401826484,0.0136986301369863,0.0136986301369863,0.0182648401826484,0.02511415525114155,0.05707762557077625,0.03424657534246575,0.03881278538812785,0.0547945205479452,0.1187214611872146,0.3356164383561644,0.09360730593607305,0.0,0.0,0.00684931506849315,0.0,0.0,0.0,0.0,0.0,0.00684931506849315,0.0182648401826484,0.01598173515981735,0.0182648401826484,0.0091324200913242,0.03881278538812785,0.07534246575342465,0.08904109589041095,0.1187214611872146,0.18036529680365296,0.3356164383561644,0.0867579908675799,0.0,0.0,0.00228310502283105,0.02054794520547945,0.0091324200913242,0.06621004566210045,0.07990867579908675,0.07534246575342465,0.08447488584474885,0.06164383561643835,0.05707762557077625,0.0502283105022831,0.07077625570776255,0.0958904109589041,0.0639269406392694,0.0730593607305936,0.07077625570776255,0.0639269406392694,0.04337899543378995,0.01141552511415525,0.0,0.0,0.01598173515981735,0.3310502283105023,0.3401826484018265,0.228310502283105,0.0273972602739726,0.01141552511415525,0.02054794520547945,0.01141552511415525,0.00684931506849315,0.00684931506849315,0.0,0.0,0.0,0.0,0.0,0.0,0.0,0.0,0.0,0.0,0.13013698630136986,0.639269406392694,0.21232876712328766,0.0182648401826484,0.0,0.0,0.0,0.0,0.0,0.0,0.0,0.0,0.0,0.0,0.0,0.0,0.0,0.0,0.0,0.0,0.0410958904109589,0.2694063926940639,0.3242009132420091,0.2899543378995434,0.05707762557077625,0.0182648401826484,0.0,0.0,0.0,0.0,0.0,0.0,0.0,0.0,0.0,0.0,0.0,0.0,0.0,0.0,0.00228310502283105,0.02054794520547945,0.05707762557077625,0.0410958904109589,0.0502283105022831,0.05251141552511415,0.1095890410958904,0.2009132420091324,0.23515981735159816,0.17123287671232876,0.05251141552511415,0.0045662100456621,0.00228310502283105,0.0,0.0,0.0,0.0,0.0,0.0,0.0,0.0,0.0,0.01598173515981735,0.0821917808219178,0.11643835616438356,0.20776255707762556,0.2762557077625571,0.2100456621004566,0.0867579908675799,0.0045662100456621,0.0,0.0,0.0,0.0,0.0,0.0,0.0,0.0,0.0,0.0,0.0,0.0,0.0,0.0,0.0,0.0,0.0,0.0,0.0,0.0,0.0091324200913242,0.0502283105022831,0.0867579908675799,0.13926940639269406,0.2648401826484018,0.3150684931506849,0.13470319634703196,0.0,0.0,0.0,0.0,0.0,0.0,0.0,0.0,0.0,0.0,0.0,0.0,0.0,0.0,0.00228310502283105,0.01141552511415525,0.0410958904109589,0.19863013698630136,0.4817351598173516,0.2557077625570776,0.0091324200913242,0.0,0.0,0.0,0.0,0.0,0.0,0.0,0.0,0.0,0.0,0.0,0.0,0.0,0.0,0.0,0.02511415525114155,0.1415525114155251,0.5091324200913242,0.3242009132420091,0.0,0.0,0.0,0.0,0.0,0.0,0.0,0.0,0.0,0.0,0.0,0.0,0.0,0.0,0.0,0.00228310502283105,0.01141552511415525,0.07077625570776255,0.4748858447488584,0.4337899543378995,0.00684931506849315,0.0,0.0,0.0,0.0,0.0,0.0,0.0,0.0,0.0,0.0,0.0,0.0,0.0,0.0,0.0,0.00228310502283105,0.0410958904109589,0.45662100456621,0.4863013698630137,0.0136986301369863,0.0,0.0,L4
0.8640776699029126,0.11893203883495146,0.0048543689320388345,0.0,0.0,0.0,0.0,0.0,0.0,0.0,0.0,0.0,0.0,0.0,0.0,0.0,0.0,0.0,0.0,0.012135922330097087,0.7096069868995634,0.2292576419213974,0.021834061135371178,0.002183406113537118,0.0,0.0,0.0,0.0,0.0,0.0,0.0,0.0,0.0,0.0,0.0,0.0,0.006550218340611353,0.0,0.0,0.03056768558951965,0.34623655913978496,0.13763440860215054,0.05591397849462366,0.03225806451612903,0.01935483870967742,0.015053763440860216,0.008602150537634409,0.0064516129032258064,0.0,0.002150537634408602,0.002150537634408602,0.002150537634408602,0.002150537634408602,0.004301075268817204,0.004301075268817204,0.008602150537634409,0.017204301075268817,0.012903225806451613,0.021505376344086023,0.3010752688172043,0.06451612903225806,0.02795698924731183,0.0,0.0,0.0,0.0,0.002150537634408602,0.0,0.0,0.0,0.002150537634408602,0.004301075268817204,0.008602150537634409,0.010752688172043012,0.01935483870967742,0.03655913978494624,0.053763440860215055,0.06666666666666667,0.043010752688172046,0.6602150537634408,0.0064516129032258064,0.012903225806451613,0.010752688172043012,0.0,0.0064516129032258064,0.004301075268817204,0.004301075268817204,0.002150537634408602,0.010752688172043012,0.0064516129032258064,0.0064516129032258064,0.015053763440860216,0.015053763440860216,0.030107526881720432,0.03225806451612903,0.05806451612903226,0.06236559139784946,0.07956989247311828,0.09462365591397849,0.5419354838709678,0.03870967741935484,0.008602150537634409,0.017204301075268817,0.025806451612903226,0.023655913978494623,0.017204301075268817,0.047311827956989246,0.017204301075268817,0.021505376344086023,0.030107526881720432,0.03870967741935484,0.03225806451612903,0.030107526881720432,0.03655913978494624,0.05161290322580645,0.053763440860215055,0.04946236559139785,0.06881720430107527,0.10967741935483871,0.2817204301075269,0.4129032258064516,0.2946236559139785,0.13978494623655913,0.07526881720430108,0.047311827956989246,0.012903225806451613,0.0,0.0,0.0,0.0,0.0,0.0,0.0,0.0,0.002150537634408602,0.0,0.0,0.0,0.004301075268817204,0.010752688172043012,0.4064516129032258,0.1935483870967742,0.05806451612903226,0.07741935483870968,0.08172043010752689,0.06236559139784946,0.05591397849462366,0.047311827956989246,0.012903225806451613,0.0,0.0,0.0,0.0,0.0,0.0,0.0,0.0,0.0,0.0,0.004301075268817204,0.30752688172043013,0.36129032258064514,0.1870967741935484,0.06451612903225806,0.04086021505376344,0.017204301075268817,0.015053763440860216,0.004301075268817204,0.0,0.0,0.0,0.0,0.0,0.0,0.0,0.0,0.0,0.0,0.0,0.002150537634408602,0.16989247311827957,0.20430107526881722,0.14408602150537633,0.060215053763440864,0.07096774193548387,0.05161290322580645,0.04946236559139785,0.02795698924731183,0.03225806451612903,0.030107526881720432,0.008602150537634409,0.02795698924731183,0.030107526881720432,0.03655913978494624,0.043010752688172046,0.008602150537634409,0.004301075268817204,0.0,0.0,0.0,0.09462365591397849,0.35268817204301073,0.2086021505376344,0.15053763440860216,0.12043010752688173,0.06881720430107527,0.004301075268817204,0.0,0.0,0.0,0.0,0.0,0.0,0.0,0.0,0.0,0.0,0.0,0.0,0.0,0.0,0.0,0.0,0.0,0.0,0.0,0.0,0.0,0.0,0.0,0.0,0.0,0.0,0.004301075268817204,0.012903225806451613,0.025806451612903226,0.04946236559139785,0.16989247311827957,0.3548387096774194,0.3827956989247312,0.0,0.0,0.0,0.0,0.0,0.0,0.0,0.0,0.0,0.0,0.0,0.0,0.0,0.0,0.002150537634408602,0.008602150537634409,0.04086021505376344,0.16129032258064516,0.3763440860215054,0.410752688172043,0.0,0.0,0.0,0.0,0.0,0.0,0.0,0.0,0.0,0.0,0.0,0.0,0.0,0.0,0.0,0.0064516129032258064,0.017204301075268817,0.12903225806451613,0.45806451612903226,0.38924731182795697,0.0,0.0,0.0,0.0,0.0,0.0,0.0,0.0,0.0,0.0,0.0,0.0,0.0,0.0,0.0,0.0,0.008602150537634409,0.07526881720430108,0.4881720430107527,0.42795698924731185,0.0,0.0,0.0,0.0,0.0,0.0,0.0,0.0,0.0,0.0,0.0,0.0,0.0,0.0,0.0,0.0,0.010752688172043012,0.1010752688172043,0.45806451612903226,0.43010752688172044,0.975,0.0,0.0,0.0,0.0,0.0,0.0,0.0,0.0,0.0,0.0,0.0,0.0,0.0,0.0,0.0,0.0,0.0,0.0,0.025,0.925,0.05,0.0,0.0,0.0,0.0,0.0,0.0,0.0,0.0,0.0,0.0,0.0,0.0,0.0,0.0,0.0,0.025,0.0,0.0,0.9,0.025,0.025,0.0,0.025,0.0,0.0,0.0,0.0,0.025,0.0,0.0,0.0,0.0,0.0,0.0,0.0,0.0,0.0,0.0,0.9,0.025,0.025,0.0,0.025,0.0,0.0,0.0,0.025,0.0,0.0,0.0,0.0,0.0,0.0,0.0,0.0,0.0,0.0,0.0,0.9,0.025,0.025,0.0,0.025,0.0,0.0,0.025,0.0,0.0,0.0,0.0,0.0,0.0,0.0,0.0,0.0,0.0,0.0,0.0,0.875,0.05,0.025,0.0,0.025,0.0,0.0,0.025,0.0,0.0,0.0,0.0,0.0,0.0,0.0,0.0,0.0,0.0,0.0,0.0,0.9,0.05,0.0,0.025,0.0,0.0,0.0,0.0,0.0,0.0,0.0,0.025,0.0,0.0,0.0,0.0,0.0,0.0,0.0,0.0,0.925,0.025,0.025,0.0,0.0,0.0,0.0,0.0,0.0,0.0,0.0,0.025,0.0,0.0,0.0,0.0,0.0,0.0,0.0,0.0,0.9,0.05,0.0,0.025,0.0,0.0,0.0,0.0,0.0,0.0,0.025,0.0,0.0,0.0,0.0,0.0,0.0,0.0,0.0,0.0,0.875,0.05,0.025,0.025,0.0,0.0,0.0,0.025,0.0,0.0,0.0,0.0,0.0,0.0,0.0,0.0,0.0,0.0,0.0,0.0,0.875,0.05,0.025,0.0,0.025,0.0,0.0,0.0,0.025,0.0,0.0,0.0,0.0,0.0,0.0,0.0,0.0,0.0,0.0,0.0,0.875,0.05,0.025,0.025,0.0,0.0,0.0,0.0,0.025,0.0,0.0,0.0,0.0,0.0,0.0,0.0,0.0,0.0,0.0,0.0,0.875,0.05,0.025,0.025,0.0,0.0,0.0,0.0,0.025,0.0,0.0,0.0,0.0,0.0,0.0,0.0,0.0,0.0,0.0,0.0,0.875,0.05,0.025,0.025,0.0,0.0,0.0,0.0,0.025,0.0,0.0,0.0,0.0,0.0,0.0,0.0,0.0,0.0,0.0,0.0,0.875,0.05,0.025,0.025,0.0,0.0,0.0,0.0,0.025,0.0,0.0,0.0,0.0,0.0,0.0,0.0,0.0,0.0,0.0,0.0,0.875,0.05,0.025,0.025,0.0,0.0,0.0,0.0,0.025,0.0,0.0,0.0,0.0,0.0,0.0,0.0,0.0,0.0,0.0,0.0,0.6674757281553398,0.32038834951456313,0.0,0.0,0.012135922330097087,0.0,0.0,0.0,0.0,0.0,0.0,0.0,0.0,0.0,0.0,0.0,0.0,0.0,0.0,0.0,0.4388646288209607,0.5087336244541485,0.015283842794759825,0.0,0.019650655021834062,0.006550218340611353,0.0,0.0,0.010917030567685589,0.0,0.0,0.0,0.0,0.0,0.0,0.0,0.0,0.0,0.0,0.0,0.1913978494623656,0.2924731182795699,0.07956989247311828,0.03870967741935484,0.02795698924731183,0.010752688172043012,0.0,0.0,0.008602150537634409,0.002150537634408602,0.002150537634408602,0.015053763440860216,0.01935483870967742,0.025806451612903226,0.03225806451612903,0.053763440860215055,0.15698924731182795,0.043010752688172046,0.0,0.0,0.02795698924731183,0.06451612903225806,0.0,0.0,0.0,0.004301075268817204,0.002150537634408602,0.004301075268817204,0.002150537634408602,0.0064516129032258064,0.01935483870967742,0.025806451612903226,0.053763440860215055,0.06666666666666667,0.07096774193548387,0.13118279569892474,0.3913978494623656,0.12903225806451613,0.0,0.0,0.002150537634408602,0.021505376344086023,0.0064516129032258064,0.010752688172043012,0.023655913978494623,0.010752688172043012,0.01935483870967742,0.012903225806451613,0.017204301075268817,0.060215053763440864,0.05161290322580645,0.047311827956989246,0.030107526881720432,0.08172043010752689,0.1032258064516129,0.16344086021505377,0.2645161290322581,0.07311827956989247,0.0,0.0,0.004301075268817204,0.04516129032258064,0.017204301075268817,0.06666666666666667,0.06451612903225806,0.043010752688172046,0.053763440860215055,0.08602150537634409,0.08172043010752689,0.07741935483870968,0.08817204301075268,0.06451612903225806,0.08602150537634409,0.07096774193548387,0.05806451612903226,0.047311827956989246,0.043010752688172046,0.002150537634408602,0.0,0.0,0.11182795698924732,0.6043010752688172,0.23870967741935484,0.02795698924731183,0.0,0.0064516129032258064,0.004301075268817204,0.0,0.0,0.002150537634408602,0.004301075268817204,0.0,0.0,0.0,0.0,0.0,0.0,0.0,0.0,0.0,0.04946236559139785,0.5483870967741935,0.13333333333333333,0.23655913978494625,0.02795698924731183,0.002150537634408602,0.002150537634408602,0.0,0.0,0.0,0.0,0.0,0.0,0.0,0.0,0.0,0.0,0.0,0.0,0.0,0.1053763440860215,0.5419354838709678,0.3161290322580645,0.034408602150537634,0.002150537634408602,0.0,0.0,0.0,0.0,0.0,0.0,0.0,0.0,0.0,0.0,0.0,0.0,0.0,0.0,0.0,0.015053763440860216,0.3419354838709677,0.2537634408602151,0.10752688172043011,0.09462365591397849,0.10752688172043011,0.07096774193548387,0.008602150537634409,0.0,0.0,0.0,0.0,0.0,0.0,0.0,0.0,0.0,0.0,0.0,0.0,0.002150537634408602,0.4064516129032258,0.4559139784946237,0.13548387096774195,0.0,0.0,0.0,0.0,0.0,0.0,0.0,0.0,0.0,0.0,0.0,0.0,0.0,0.0,0.0,0.0,0.0,0.0,0.0,0.0,0.0,0.0,0.0,0.0,0.004301075268817204,0.012903225806451613,0.03655913978494624,0.02795698924731183,0.060215053763440864,0.14193548387096774,0.24946236559139784,0.3419354838709677,0.12473118279569892,0.0,0.0,0.0,0.0,0.0,0.0,0.0,0.0,0.0,0.0,0.0,0.0,0.0,0.0,0.002150537634408602,0.004301075268817204,0.06236559139784946,0.2086021505376344,0.42795698924731185,0.2924731182795699,0.002150537634408602,0.0,0.0,0.0,0.0,0.0,0.0,0.0,0.0,0.0,0.0,0.0,0.0,0.0,0.002150537634408602,0.0064516129032258064,0.04946236559139785,0.17849462365591398,0.4838709677419355,0.2709677419354839,0.008602150537634409,0.0,0.0,0.0,0.0,0.0,0.0,0.0,0.0,0.0,0.0,0.0,0.0,0.0,0.0,0.0,0.0,0.060215053763440864,0.42795698924731185,0.5075268817204301,0.004301075268817204,0.0,0.0,0.0,0.0,0.0,0.0,0.0,0.0,0.0,0.0,0.0,0.0,0.0,0.0,0.0,0.004301075268817204,0.06451612903225806,0.43655913978494626,0.4817204301075269,0.012903225806451613,0.0,0.0,L4
0.8859857482185273,0.09501187648456057,0.0023752969121140144,0.0,0.0,0.0,0.0,0.0,0.0,0.0,0.0,0.0,0.0,0.0,0.0,0.0,0.0,0.0,0.007125890736342043,0.009501187648456057,0.6952789699570815,0.17167381974248927,0.04721030042918455,0.006437768240343348,0.012875536480686695,0.006437768240343348,0.004291845493562232,0.006437768240343348,0.004291845493562232,0.0,0.0,0.0,0.0,0.002145922746781116,0.0,0.0,0.0,0.0,0.027896995708154508,0.015021459227467811,0.25427350427350426,0.12393162393162394,0.06196581196581197,0.0405982905982906,0.03418803418803419,0.02564102564102564,0.023504273504273504,0.021367521367521368,0.010683760683760684,0.023504273504273504,0.014957264957264958,0.01282051282051282,0.00641025641025641,0.00641025641025641,0.004273504273504274,0.023504273504273504,0.017094017094017096,0.019230769230769232,0.053418803418803416,0.2222222222222222,0.027659574468085105,0.029787234042553193,0.006382978723404255,0.019148936170212766,0.010638297872340425,0.006382978723404255,0.006382978723404255,0.00851063829787234,0.002127659574468085,0.01276595744680851,0.006382978723404255,0.0,0.0,0.00851063829787234,0.014893617021276596,0.01702127659574468,0.06170212765957447,0.059574468085106386,0.06808510638297872,0.6340425531914894,0.002127659574468085,0.00425531914893617,0.002127659574468085,0.002127659574468085,0.0,0.00425531914893617,0.0,0.0,0.002127659574468085,0.006382978723404255,0.006382978723404255,0.00425531914893617,0.019148936170212766,0.01276595744680851,0.027659574468085105,0.0425531914893617,0.05319148936170213,0.10425531914893617,0.125531914893617,0.5808510638297872,0.04042553191489362,0.1148936170212766,0.15531914893617021,0.13404255319148936,0.10425531914893617,0.08297872340425531,0.0425531914893617,0.05531914893617021,0.0574468085106383,0.05531914893617021,0.029787234042553193,0.00851063829787234,0.00851063829787234,0.04042553191489362,0.02553191489361702,0.01276595744680851,0.01276595744680851,0.006382978723404255,0.0,0.01276595744680851,0.18085106382978725,0.24893617021276596,0.17446808510638298,0.12340425531914893,0.08085106382978724,0.0851063829787234,0.04042553191489362,0.023404255319148935,0.02553191489361702,0.006382978723404255,0.002127659574468085,0.0,0.0,0.0,0.0,0.0,0.0,0.0,0.00425531914893617,0.00425531914893617,0.20425531914893616,0.3553191489361702,0.1723404255319149,0.11063829787234042,0.059574468085106386,0.01702127659574468,0.027659574468085105,0.014893617021276596,0.02553191489361702,0.0,0.0,0.0,0.0,0.0,0.0,0.0,0.0,0.0,0.0,0.01276595744680851,0.01276595744680851,0.13404255319148936,0.13404255319148936,0.13404255319148936,0.15319148936170213,0.10851063829787234,0.13191489361702127,0.04468085106382979,0.05319148936170213,0.04042553191489362,0.019148936170212766,0.019148936170212766,0.00851063829787234,0.006382978723404255,0.0,0.0,0.0,0.0,0.0,0.0,0.0,0.0,0.002127659574468085,0.00851063829787234,0.02127659574468085,0.023404255319148935,0.02127659574468085,0.019148936170212766,0.02553191489361702,0.04042553191489362,0.04042553191489362,0.07234042553191489,0.07446808510638298,0.07021276595744681,0.09574468085106383,0.059574468085106386,0.06170212765957447,0.08936170212765958,0.07659574468085106,0.19787234042553192,0.0,0.03404255319148936,0.09361702127659574,0.0425531914893617,0.06170212765957447,0.03829787234042553,0.0425531914893617,0.05319148936170213,0.06808510638297872,0.07872340425531915,0.0574468085106383,0.07446808510638298,0.059574468085106386,0.059574468085106386,0.059574468085106386,0.04042553191489362,0.03829787234042553,0.031914893617021274,0.03829787234042553,0.027659574468085105,0.0,0.0,0.0,0.0,0.0,0.0,0.0,0.0,0.0,0.0,0.0,0.0,0.002127659574468085,0.00425531914893617,0.010638297872340425,0.036170212765957444,0.07234042553191489,0.13191489361702127,0.3404255319148936,0.4021276595744681,0.0,0.0,0.0,0.0,0.0,0.0,0.0,0.0,0.0,0.0,0.0,0.0,0.0,0.002127659574468085,0.00851063829787234,0.00851063829787234,0.03829787234042553,0.14893617021276595,0.425531914893617,0.3680851063829787,0.0,0.0,0.0,0.0,0.0,0.0,0.0,0.0,0.0,0.0,0.0,0.0,0.0,0.0,0.00425531914893617,0.00851063829787234,0.02553191489361702,0.10851063829787234,0.41702127659574467,0.43617021276595747,0.0,0.0,0.0,0.0,0.0,0.0,0.0,0.0,0.0,0.0,0.0,0.0,0.0,0.0,0.0,0.0,0.01276595744680851,0.0851063829787234,0.48723404255319147,0.4148936170212766,0.0,0.0,0.0,0.0,0.0,0.0,0.0,0.0,0.0,0.0,0.0,0.0,0.0,0.0,0.0,0.006382978723404255,0.00425531914893617,0.08297872340425531,0.4702127659574468,0.43617021276595747,0.975,0.0,0.0,0.0,0.0,0.0,0.0,0.0,0.0,0.0,0.0,0.0,0.0,0.0,0.0,0.0,0.0,0.0,0.0,0.025,0.95,0.0,0.0,0.0,0.0,0.025,0.0,0.0,0.0,0.0,0.0,0.0,0.025,0.0,0.0,0.0,0.0,0.0,0.0,0.0,0.9,0.025,0.025,0.0,0.0,0.025,0.0,0.0,0.0,0.025,0.0,0.0,0.0,0.0,0.0,0.0,0.0,0.0,0.0,0.0,0.9,0.025,0.025,0.0,0.0,0.025,0.0,0.0,0.025,0.0,0.0,0.0,0.0,0.0,0.0,0.0,0.0,0.0,0.0,0.0,0.875,0.05,0.025,0.0,0.025,0.0,0.0,0.025,0.0,0.0,0.0,0.0,0.0,0.0,0.0,0.0,0.0,0.0,0.0,0.0,0.9,0.05,0.0,0.025,0.0,0.0,0.0,0.0,0.0,0.0,0.025,0.0,0.0,0.0,0.0,0.0,0.0,0.0,0.0,0.0,0.925,0.025,0.0,0.0,0.025,0.0,0.0,0.0,0.0,0.0,0.025,0.0,0.0,0.0,0.0,0.0,0.0,0.0,0.0,0.0,0.925,0.05,0.0,0.0,0.0,0.0,0.0,0.0,0.0,0.0,0.0,0.0,0.0,0.0,0.025,0.0,0.0,0.0,0.0,0.0,0.875,0.05,0.025,0.025,0.0,0.0,0.0,0.025,0.0,0.0,0.0,0.0,0.0,0.0,0.0,0.0,0.0,0.0,0.0,0.0,0.875,0.05,0.025,0.025,0.0,0.0,0.0,0.025,0.0,0.0,0.0,0.0,0.0,0.0,0.0,0.0,0.0,0.0,0.0,0.0,0.9,0.025,0.025,0.025,0.0,0.0,0.0,0.0,0.025,0.0,0.0,0.0,0.0,0.0,0.0,0.0,0.0,0.0,0.0,0.0,0.875,0.05,0.025,0.025,0.0,0.0,0.0,0.0,0.025,0.0,0.0,0.0,0.0,0.0,0.0,0.0,0.0,0.0,0.0,0.0,0.875,0.05,0.025,0.025,0.0,0.0,0.0,0.0,0.025,0.0,0.0,0.0,0.0,0.0,0.0,0.0,0.0,0.0,0.0,0.0,0.875,0.05,0.025,0.025,0.0,0.0,0.0,0.0,0.025,0.0,0.0,0.0,0.0,0.0,0.0,0.0,0.0,0.0,0.0,0.0,0.875,0.05,0.025,0.025,0.0,0.0,0.0,0.0,0.025,0.0,0.0,0.0,0.0,0.0,0.0,0.0,0.0,0.0,0.0,0.0,0.9,0.025,0.025,0.025,0.0,0.0,0.0,0.0,0.0,0.025,0.0,0.0,0.0,0.0,0.0,0.0,0.0,0.0,0.0,0.0,0.7078384798099763,0.2755344418052256,0.0,0.0,0.009501187648456057,0.0,0.007125890736342043,0.0,0.0,0.0,0.0,0.0,0.0,0.0,0.0,0.0,0.0,0.0,0.0,0.0,0.4227467811158798,0.45278969957081544,0.045064377682403435,0.017167381974248927,0.015021459227467811,0.01072961373390558,0.008583690987124463,0.006437768240343348,0.004291845493562232,0.006437768240343348,0.008583690987124463,0.002145922746781116,0.0,0.0,0.0,0.0,0.0,0.0,0.0,0.0,0.14743589743589744,0.23504273504273504,0.09401709401709402,0.05128205128205128,0.038461538461538464,0.038461538461538464,0.03205128205128205,0.038461538461538464,0.010683760683760684,0.010683760683760684,0.01282051282051282,0.023504273504273504,0.008547008547008548,0.01282051282051282,0.04487179487179487,0.06196581196581197,0.11324786324786325,0.02564102564102564,0.0,0.0,0.01702127659574468,0.04042553191489362,0.02127659574468085,0.01702127659574468,0.01276595744680851,0.01702127659574468,0.01276595744680851,0.0,0.002127659574468085,0.002127659574468085,0.014893617021276596,0.02127659574468085,0.027659574468085105,0.06170212765957447,0.09574468085106383,0.11702127659574468,0.4021276595744681,0.11702127659574468,0.0,0.0,0.002127659574468085,0.006382978723404255,0.002127659574468085,0.002127659574468085,0.002127659574468085,0.002127659574468085,0.002127659574468085,0.002127659574468085,0.01276595744680851,0.029787234042553193,0.04042553191489362,0.04468085106382979,0.08085106382978724,0.125531914893617,0.1595744680851064,0.14042553191489363,0.274468085106383,0.07021276595744681,0.0,0.0,0.00425531914893617,0.1276595744680851,0.2702127659574468,0.24468085106382978,0.14468085106382977,0.08723404255319149,0.0574468085106383,0.029787234042553193,0.01702127659574468,0.006382978723404255,0.010638297872340425,0.0,0.0,0.0,0.0,0.0,0.0,0.0,0.0,0.0,0.04468085106382979,0.3829787234042553,0.29148936170212764,0.2297872340425532,0.0425531914893617,0.00425531914893617,0.0,0.0,0.002127659574468085,0.002127659574468085,0.0,0.0,0.0,0.0,0.0,0.0,0.0,0.0,0.0,0.0,0.04468085106382979,0.4851063829787234,0.33191489361702126,0.1,0.02553191489361702,0.01276595744680851,0.0,0.0,0.0,0.0,0.0,0.0,0.0,0.0,0.0,0.0,0.0,0.0,0.0,0.0,0.0,0.125531914893617,0.23617021276595745,0.3382978723404255,0.20212765957446807,0.08936170212765958,0.00851063829787234,0.0,0.0,0.0,0.0,0.0,0.0,0.0,0.0,0.0,0.0,0.0,0.0,0.0,0.0,0.0,0.006382978723404255,0.019148936170212766,0.04468085106382979,0.0851063829787234,0.15106382978723404,0.14680851063829786,0.13617021276595745,0.1148936170212766,0.10212765957446808,0.11063829787234042,0.06595744680851064,0.014893617021276596,0.002127659574468085,0.0,0.0,0.0,0.0,0.0,0.0,0.02127659574468085,0.12978723404255318,0.0851063829787234,0.09148936170212765,0.19361702127659575,0.19574468085106383,0.16808510638297872,0.08723404255319149,0.02553191489361702,0.002127659574468085,0.0,0.0,0.0,0.0,0.0,0.0,0.0,0.0,0.0,0.0,0.0,0.0,0.0,0.0,0.0,0.0,0.0,0.002127659574468085,0.002127659574468085,0.02127659574468085,0.03829787234042553,0.0851063829787234,0.09787234042553192,0.25957446808510637,0.37446808510638296,0.11914893617021277,0.0,0.0,0.0,0.0,0.0,0.0,0.0,0.0,0.0,0.0,0.0,0.0,0.0,0.002127659574468085,0.00851063829787234,0.01702127659574468,0.04893617021276596,0.15106382978723404,0.5042553191489362,0.26382978723404255,0.00425531914893617,0.0,0.0,0.0,0.0,0.0,0.0,0.0,0.0,0.0,0.0,0.0,0.0,0.0,0.0,0.00425531914893617,0.023404255319148935,0.1276595744680851,0.4276595744680851,0.40638297872340423,0.010638297872340425,0.0,0.0,0.0,0.0,0.0,0.0,0.0,0.0,0.0,0.0,0.0,0.0,0.0,0.0,0.0,0.00851063829787234,0.09787234042553192,0.43617021276595747,0.451063829787234,0.006382978723404255,0.0,0.0,0.0,0.0,0.0,0.0,0.0,0.0,0.0,0.0,0.0,0.0,0.0,0.0,0.0,0.006382978723404255,0.09574468085106383,0.46808510638297873,0.42127659574468085,0.00851063829787234,0.0,0.0,L24
0.8899297423887588,0.10070257611241218,0.0,0.0,0.0,0.0,0.0,0.0,0.0,0.0,0.0,0.0,0.0,0.0,0.0,0.0,0.0,0.0,0.0,0.00936768149882904,0.6373165618448637,0.2557651991614256,0.0440251572327044,0.014675052410901468,0.018867924528301886,0.0020964360587002098,0.0,0.0,0.0,0.0,0.0,0.0,0.0,0.0,0.0,0.0,0.0,0.0,0.0,0.027253668763102725,0.18503118503118504,0.07692307692307693,0.04365904365904366,0.012474012474012475,0.012474012474012475,0.014553014553014554,0.002079002079002079,0.0,0.006237006237006237,0.0,0.004158004158004158,0.002079002079002079,0.006237006237006237,0.018711018711018712,0.010395010395010396,0.014553014553014554,0.04158004158004158,0.02702702702702703,0.04158004158004158,0.4802494802494803,0.05405405405405406,0.008316008316008316,0.0,0.008316008316008316,0.004158004158004158,0.004158004158004158,0.004158004158004158,0.010395010395010396,0.002079002079002079,0.004158004158004158,0.002079002079002079,0.006237006237006237,0.008316008316008316,0.016632016632016633,0.016632016632016633,0.02286902286902287,0.037422037422037424,0.05405405405405406,0.06652806652806653,0.6694386694386695,0.008316008316008316,0.0,0.0,0.0,0.008316008316008316,0.0,0.002079002079002079,0.0,0.004158004158004158,0.002079002079002079,0.010395010395010396,0.010395010395010396,0.035343035343035345,0.037422037422037424,0.035343035343035345,0.05197505197505198,0.09147609147609148,0.08316008316008316,0.10810810810810811,0.5114345114345115,0.10187110187110188,0.1101871101871102,0.06860706860706861,0.056133056133056136,0.08316008316008316,0.033264033264033266,0.04573804573804574,0.04365904365904366,0.02494802494802495,0.031185031185031187,0.02702702702702703,0.014553014553014554,0.029106029106029108,0.02494802494802495,0.014553014553014554,0.02494802494802495,0.014553014553014554,0.02286902286902287,0.05197505197505198,0.17671517671517672,0.12474012474012475,0.2993762993762994,0.2182952182952183,0.12266112266112267,0.10187110187110188,0.06444906444906445,0.0395010395010395,0.016632016632016633,0.004158004158004158,0.0,0.0,0.0,0.0,0.0,0.0,0.0,0.0,0.0,0.0,0.008316008316008316,0.008316008316008316,0.09771309771309772,0.11642411642411643,0.12058212058212059,0.12681912681912683,0.0997920997920998,0.0997920997920998,0.07692307692307693,0.07068607068607069,0.06444906444906445,0.037422037422037424,0.04573804573804574,0.02079002079002079,0.008316008316008316,0.0,0.0,0.0,0.0,0.0,0.006237006237006237,0.012474012474012475,0.07484407484407485,0.09147609147609148,0.10187110187110188,0.13513513513513514,0.1101871101871102,0.12474012474012475,0.07484407484407485,0.07276507276507277,0.07692307692307693,0.05197505197505198,0.02079002079002079,0.02079002079002079,0.018711018711018712,0.012474012474012475,0.0,0.0,0.0,0.0,0.0,0.0,0.008316008316008316,0.02286902286902287,0.018711018711018712,0.02079002079002079,0.02286902286902287,0.05197505197505198,0.031185031185031187,0.035343035343035345,0.056133056133056136,0.06652806652806653,0.08316008316008316,0.079002079002079,0.07068607068607069,0.07692307692307693,0.05197505197505198,0.079002079002079,0.10602910602910603,0.07692307692307693,0.04158004158004158,0.02079002079002079,0.016632016632016633,0.002079002079002079,0.0,0.008316008316008316,0.010395010395010396,0.035343035343035345,0.0395010395010395,0.05197505197505198,0.060291060291060294,0.08108108108108109,0.14345114345114346,0.1288981288981289,0.10602910602910603,0.06444906444906445,0.09147609147609148,0.07484407484407485,0.05197505197505198,0.012474012474012475,0.0,0.0,0.0,0.0,0.0,0.0,0.002079002079002079,0.002079002079002079,0.004158004158004158,0.006237006237006237,0.018711018711018712,0.014553014553014554,0.012474012474012475,0.02286902286902287,0.016632016632016633,0.029106029106029108,0.02286902286902287,0.031185031185031187,0.12266112266112267,0.367983367983368,0.3264033264033264,0.0,0.0,0.0,0.0,0.0,0.0,0.0,0.0,0.0,0.0,0.002079002079002079,0.0,0.002079002079002079,0.004158004158004158,0.012474012474012475,0.02494802494802495,0.0395010395010395,0.14553014553014554,0.40332640332640335,0.3659043659043659,0.0,0.0,0.0,0.0,0.0,0.0,0.0,0.0,0.0,0.0,0.0,0.0,0.0,0.0,0.002079002079002079,0.006237006237006237,0.04365904365904366,0.10602910602910603,0.45322245322245325,0.3887733887733888,0.0,0.0,0.0,0.0,0.0,0.0,0.0,0.0,0.0,0.0,0.0,0.0,0.0,0.0,0.0,0.0,0.010395010395010396,0.08523908523908524,0.49272349272349275,0.41164241164241167,0.0,0.0,0.0,0.0,0.0,0.0,0.0,0.0,0.0,0.0,0.0,0.0,0.0,0.0,0.0,0.0,0.012474012474012475,0.09355509355509356,0.48232848232848236,0.41164241164241167,0.975,0.0,0.0,0.0,0.0,0.0,0.0,0.0,0.0,0.0,0.0,0.0,0.0,0.0,0.0,0.0,0.0,0.0,0.0,0.025,0.95,0.025,0.0,0.0,0.0,0.0,0.0,0.0,0.0,0.0,0.0,0.0,0.0,0.0,0.0,0.0,0.0,0.0,0.025,0.0,0.9,0.025,0.025,0.0,0.0,0.025,0.0,0.0,0.025,0.0,0.0,0.0,0.0,0.0,0.0,0.0,0.0,0.0,0.0,0.0,0.9,0.025,0.025,0.0,0.0,0.025,0.0,0.025,0.0,0.0,0.0,0.0,0.0,0.0,0.0,0.0,0.0,0.0,0.0,0.0,0.9,0.025,0.025,0.0,0.025,0.0,0.0,0.025,0.0,0.0,0.0,0.0,0.0,0.0,0.0,0.0,0.0,0.0,0.0,0.0,0.9,0.05,0.0,0.025,0.0,0.0,0.0,0.0,0.0,0.025,0.0,0.0,0.0,0.0,0.0,0.0,0.0,0.0,0.0,0.0,0.9,0.05,0.025,0.0,0.0,0.0,0.0,0.0,0.0,0.0,0.0,0.025,0.0,0.0,0.0,0.0,0.0,0.0,0.0,0.0,0.875,0.05,0.025,0.025,0.0,0.0,0.0,0.025,0.0,0.0,0.0,0.0,0.0,0.0,0.0,0.0,0.0,0.0,0.0,0.0,0.875,0.05,0.025,0.025,0.0,0.0,0.0,0.025,0.0,0.0,0.0,0.0,0.0,0.0,0.0,0.0,0.0,0.0,0.0,0.0,0.875,0.05,0.025,0.025,0.0,0.0,0.0,0.025,0.0,0.0,0.0,0.0,0.0,0.0,0.0,0.0,0.0,0.0,0.0,0.0,0.9,0.025,0.025,0.025,0.0,0.0,0.0,0.0,0.025,0.0,0.0,0.0,0.0,0.0,0.0,0.0,0.0,0.0,0.0,0.0,0.875,0.05,0.025,0.025,0.0,0.0,0.0,0.0,0.025,0.0,0.0,0.0,0.0,0.0,0.0,0.0,0.0,0.0,0.0,0.0,0.875,0.05,0.025,0.025,0.0,0.0,0.0,0.0,0.025,0.0,0.0,0.0,0.0,0.0,0.0,0.0,0.0,0.0,0.0,0.0,0.875,0.05,0.025,0.025,0.0,0.0,0.0,0.0,0.025,0.0,0.0,0.0,0.0,0.0,0.0,0.0,0.0,0.0,0.0,0.0,0.875,0.05,0.025,0.025,0.0,0.0,0.0,0.0,0.025,0.0,0.0,0.0,0.0,0.0,0.0,0.0,0.0,0.0,0.0,0.0,0.875,0.05,0.025,0.025,0.0,0.0,0.0,0.0,0.0,0.025,0.0,0.0,0.0,0.0,0.0,0.0,0.0,0.0,0.0,0.0,0.7142857142857143,0.27634660421545665,0.0,0.0,0.00936768149882904,0.0,0.0,0.0,0.0,0.0,0.0,0.0,0.0,0.0,0.0,0.0,0.0,0.0,0.0,0.0,0.38784067085953877,0.5115303983228512,0.05450733752620545,0.018867924528301886,0.016771488469601678,0.0,0.0,0.0,0.0,0.010482180293501049,0.0,0.0,0.0,0.0,0.0,0.0,0.0,0.0,0.0,0.0,0.10395010395010396,0.16424116424116425,0.04781704781704782,0.031185031185031187,0.004158004158004158,0.0,0.004158004158004158,0.004158004158004158,0.008316008316008316,0.014553014553014554,0.018711018711018712,0.0498960498960499,0.018711018711018712,0.031185031185031187,0.08108108108108109,0.08731808731808732,0.2702702702702703,0.060291060291060294,0.0,0.0,0.02286902286902287,0.0395010395010395,0.004158004158004158,0.010395010395010396,0.014553014553014554,0.006237006237006237,0.002079002079002079,0.002079002079002079,0.010395010395010396,0.018711018711018712,0.012474012474012475,0.012474012474012475,0.0498960498960499,0.056133056133056136,0.07276507276507277,0.10602910602910603,0.43243243243243246,0.12681912681912683,0.0,0.0,0.0,0.008316008316008316,0.002079002079002079,0.004158004158004158,0.004158004158004158,0.0,0.006237006237006237,0.018711018711018712,0.04781704781704782,0.062370062370062374,0.09147609147609148,0.09771309771309772,0.07692307692307693,0.11850311850311851,0.12058212058212059,0.11642411642411643,0.17671517671517672,0.04781704781704782,0.0,0.0,0.031185031185031187,0.18087318087318088,0.12474012474012475,0.10187110187110188,0.09563409563409564,0.0997920997920998,0.08523908523908524,0.07276507276507277,0.05405405405405406,0.02286902286902287,0.02286902286902287,0.02702702702702703,0.02079002079002079,0.014553014553014554,0.010395010395010396,0.014553014553014554,0.016632016632016633,0.004158004158004158,0.0,0.0,0.014553014553014554,0.3866943866943867,0.37422037422037424,0.1891891891891892,0.02702702702702703,0.004158004158004158,0.002079002079002079,0.002079002079002079,0.0,0.0,0.0,0.0,0.0,0.0,0.0,0.0,0.0,0.0,0.0,0.0,0.0,0.08523908523908524,0.21621621621621623,0.36382536382536385,0.18711018711018712,0.12474012474012475,0.012474012474012475,0.0,0.002079002079002079,0.0,0.002079002079002079,0.002079002079002079,0.004158004158004158,0.0,0.0,0.0,0.0,0.0,0.0,0.0,0.002079002079002079,0.07484407484407485,0.14345114345114346,0.25571725571725573,0.22661122661122662,0.2661122661122661,0.031185031185031187,0.0,0.0,0.0,0.0,0.0,0.0,0.0,0.0,0.0,0.0,0.0,0.0,0.0,0.0,0.008316008316008316,0.04365904365904366,0.062370062370062374,0.02702702702702703,0.08316008316008316,0.13305613305613306,0.1787941787941788,0.21621621621621623,0.19334719334719336,0.0498960498960499,0.004158004158004158,0.0,0.0,0.0,0.0,0.0,0.0,0.0,0.0,0.0,0.037422037422037424,0.002079002079002079,0.010395010395010396,0.033264033264033266,0.06860706860706861,0.0997920997920998,0.2203742203742204,0.25571725571725573,0.23284823284823286,0.0395010395010395,0.0,0.0,0.0,0.0,0.0,0.0,0.0,0.0,0.0,0.0,0.0,0.0,0.0,0.0,0.006237006237006237,0.010395010395010396,0.05197505197505198,0.060291060291060294,0.056133056133056136,0.04365904365904366,0.018711018711018712,0.016632016632016633,0.008316008316008316,0.0893970893970894,0.3804573804573805,0.25363825363825365,0.004158004158004158,0.0,0.0,0.0,0.0,0.0,0.0,0.0,0.0,0.0,0.0,0.002079002079002079,0.016632016632016633,0.04158004158004158,0.031185031185031187,0.07484407484407485,0.08108108108108109,0.11850311850311851,0.42203742203742206,0.20997920997921,0.002079002079002079,0.0,0.0,0.0,0.0,0.0,0.0,0.0,0.0,0.0,0.0,0.0,0.0,0.002079002079002079,0.006237006237006237,0.02079002079002079,0.033264033264033266,0.14137214137214138,0.42411642411642414,0.3700623700623701,0.002079002079002079,0.0,0.0,0.0,0.0,0.0,0.0,0.0,0.0,0.0,0.0,0.0,0.0,0.0,0.0,0.0,0.004158004158004158,0.06652806652806653,0.45322245322245325,0.47401247401247404,0.002079002079002079,0.0,0.0,0.0,0.0,0.0,0.0,0.0,0.0,0.0,0.0,0.0,0.0,0.0,0.0,0.0,0.004158004158004158,0.08523908523908524,0.4656964656964657,0.4282744282744283,0.016632016632016633,0.0,0.0,L24
0.9108910891089109,0.08168316831683169,0.0049504950495049506,0.0,0.0,0.0,0.0,0.0,0.0,0.0,0.0,0.0,0.0,0.0,0.0,0.0,0.0,0.0,0.0,0.0024752475247524753,0.6938325991189427,0.19162995594713655,0.05066079295154185,0.01762114537444934,0.004405286343612335,0.0,0.0,0.0,0.0,0.0,0.0,0.0,0.0,0.0,0.0022026431718061676,0.0,0.0,0.0,0.011013215859030838,0.028634361233480177,0.3,0.10869565217391304,0.04565217391304348,0.02608695652173913,0.015217391304347827,0.013043478260869565,0.013043478260869565,0.006521739130434782,0.002173913043478261,0.015217391304347827,0.008695652173913044,0.0,0.002173913043478261,0.004347826086956522,0.013043478260869565,0.008695652173913044,0.02826086956521739,0.02608695652173913,0.03260869565217391,0.33043478260869563,0.09307359307359307,0.05411255411255411,0.047619047619047616,0.012987012987012988,0.012987012987012988,0.006493506493506494,0.0021645021645021645,0.0021645021645021645,0.0,0.0,0.0021645021645021645,0.010822510822510822,0.0021645021645021645,0.015151515151515152,0.012987012987012988,0.025974025974025976,0.021645021645021644,0.05411255411255411,0.0735930735930736,0.5497835497835498,0.012987012987012988,0.006493506493506494,0.0021645021645021645,0.0,0.008658008658008658,0.017316017316017316,0.025974025974025976,0.02813852813852814,0.03463203463203463,0.015151515151515152,0.01948051948051948,0.030303030303030304,0.02813852813852814,0.032467532467532464,0.02813852813852814,0.03896103896103896,0.05194805194805195,0.09090909090909091,0.07575757575757576,0.4523809523809524,0.047619047619047616,0.1038961038961039,0.06926406926406926,0.09956709956709957,0.07575757575757576,0.06060606060606061,0.0735930735930736,0.04329004329004329,0.030303030303030304,0.04112554112554113,0.010822510822510822,0.023809523809523808,0.006493506493506494,0.015151515151515152,0.025974025974025976,0.023809523809523808,0.021645021645021644,0.025974025974025976,0.05844155844155844,0.14285714285714285,0.2619047619047619,0.37445887445887444,0.18181818181818182,0.0735930735930736,0.03463203463203463,0.021645021645021644,0.017316017316017316,0.010822510822510822,0.0021645021645021645,0.0,0.0,0.0,0.0,0.0,0.0,0.0,0.0,0.0,0.006493506493506494,0.015151515151515152,0.10606060606060606,0.17965367965367965,0.14502164502164502,0.13203463203463203,0.09090909090909091,0.07142857142857142,0.05194805194805195,0.049783549783549784,0.049783549783549784,0.06060606060606061,0.05844155844155844,0.0,0.0,0.0,0.0,0.0,0.0,0.0,0.0,0.004329004329004329,0.08658008658008658,0.21212121212121213,0.10822510822510822,0.11904761904761904,0.1645021645021645,0.11038961038961038,0.0670995670995671,0.03463203463203463,0.045454545454545456,0.025974025974025976,0.023809523809523808,0.0,0.0,0.0,0.0,0.0,0.0,0.0,0.0,0.0021645021645021645,0.05627705627705628,0.05844155844155844,0.02813852813852814,0.021645021645021644,0.025974025974025976,0.023809523809523808,0.045454545454545456,0.025974025974025976,0.047619047619047616,0.05844155844155844,0.05411255411255411,0.05627705627705628,0.047619047619047616,0.06060606060606061,0.03896103896103896,0.049783549783549784,0.047619047619047616,0.049783549783549784,0.08441558441558442,0.11904761904761904,0.06493506493506493,0.08658008658008658,0.06277056277056277,0.008658008658008658,0.0021645021645021645,0.0,0.0,0.0021645021645021645,0.006493506493506494,0.0021645021645021645,0.010822510822510822,0.008658008658008658,0.015151515151515152,0.010822510822510822,0.032467532467532464,0.05194805194805195,0.047619047619047616,0.13852813852813853,0.2012987012987013,0.24675324675324675,0.0,0.0,0.0,0.0,0.0,0.0,0.0,0.008658008658008658,0.004329004329004329,0.010822510822510822,0.006493506493506494,0.010822510822510822,0.02813852813852814,0.01948051948051948,0.03896103896103896,0.049783549783549784,0.07575757575757576,0.16017316017316016,0.24458874458874458,0.341991341991342,0.0,0.0,0.0,0.0,0.0,0.0,0.0,0.006493506493506494,0.006493506493506494,0.008658008658008658,0.0021645021645021645,0.017316017316017316,0.02813852813852814,0.01948051948051948,0.017316017316017316,0.032467532467532464,0.049783549783549784,0.14935064935064934,0.3181818181818182,0.34415584415584416,0.0,0.0,0.0,0.0,0.0,0.0,0.0,0.0,0.0,0.0,0.0,0.004329004329004329,0.008658008658008658,0.015151515151515152,0.017316017316017316,0.02813852813852814,0.045454545454545456,0.1038961038961039,0.36363636363636365,0.4134199134199134,0.0,0.0,0.0,0.0,0.0,0.0,0.0,0.0,0.0,0.0,0.0,0.0,0.0,0.0,0.0,0.012987012987012988,0.030303030303030304,0.10822510822510822,0.4805194805194805,0.36796536796536794,0.0,0.0,0.0,0.0,0.0,0.0,0.0,0.0,0.0,0.0,0.0,0.0,0.0,0.0,0.0,0.0,0.017316017316017316,0.12337662337662338,0.42424242424242425,0.43506493506493504,0.975,0.0,0.0,0.0,0.0,0.0,0.0,0.0,0.0,0.0,0.0,0.0,0.0,0.0,0.0,0.0,0.0,0.0,0.0,0.025,0.95,0.0,0.0,0.0,0.025,0.0,0.0,0.0,0.0,0.0,0.0,0.0,0.0,0.0,0.025,0.0,0.0,0.0,0.0,0.0,0.9,0.025,0.025,0.0,0.0,0.025,0.0,0.0,0.0,0.025,0.0,0.0,0.0,0.0,0.0,0.0,0.0,0.0,0.0,0.0,0.9,0.025,0.025,0.0,0.0,0.025,0.0,0.0,0.025,0.0,0.0,0.0,0.0,0.0,0.0,0.0,0.0,0.0,0.0,0.0,0.9,0.025,0.025,0.0,0.025,0.0,0.0,0.025,0.0,0.0,0.0,0.0,0.0,0.0,0.0,0.0,0.0,0.0,0.0,0.0,0.9,0.025,0.025,0.0,0.025,0.0,0.0,0.0,0.025,0.0,0.0,0.0,0.0,0.0,0.0,0.0,0.0,0.0,0.0,0.0,0.95,0.0,0.0,0.0,0.025,0.0,0.0,0.0,0.0,0.0,0.0,0.0,0.0,0.025,0.0,0.0,0.0,0.0,0.0,0.0,0.9,0.05,0.0,0.025,0.0,0.0,0.0,0.0,0.0,0.025,0.0,0.0,0.0,0.0,0.0,0.0,0.0,0.0,0.0,0.0,0.9,0.025,0.025,0.025,0.0,0.0,0.0,0.0,0.0,0.025,0.0,0.0,0.0,0.0,0.0,0.0,0.0,0.0,0.0,0.0,0.875,0.05,0.025,0.025,0.0,0.0,0.0,0.0,0.025,0.0,0.0,0.0,0.0,0.0,0.0,0.0,0.0,0.0,0.0,0.0,0.875,0.05,0.025,0.025,0.0,0.0,0.0,0.025,0.0,0.0,0.0,0.0,0.0,0.0,0.0,0.0,0.0,0.0,0.0,0.0,0.875,0.05,0.025,0.025,0.0,0.0,0.0,0.0,0.025,0.0,0.0,0.0,0.0,0.0,0.0,0.0,0.0,0.0,0.0,0.0,0.875,0.05,0.025,0.025,0.0,0.0,0.0,0.0,0.025,0.0,0.0,0.0,0.0,0.0,0.0,0.0,0.0,0.0,0.0,0.0,0.875,0.05,0.025,0.025,0.0,0.0,0.0,0.0,0.025,0.0,0.0,0.0,0.0,0.0,0.0,0.0,0.0,0.0,0.0,0.0,0.875,0.05,0.025,0.025,0.0,0.0,0.0,0.0,0.025,0.0,0.0,0.0,0.0,0.0,0.0,0.0,0.0,0.0,0.0,0.0,0.875,0.05,0.025,0.025,0.0,0.0,0.0,0.0,0.025,0.0,0.0,0.0,0.0,0.0,0.0,0.0,0.0,0.0,0.0,0.0,0.7252475247524752,0.2722772277227723,0.0,0.0,0.0024752475247524753,0.0,0.0,0.0,0.0,0.0,0.0,0.0,0.0,0.0,0.0,0.0,0.0,0.0,0.0,0.0,0.42731277533039647,0.460352422907489,0.06828193832599119,0.0022026431718061676,0.011013215859030838,0.0022026431718061676,0.006607929515418502,0.004405286343612335,0.0,0.011013215859030838,0.006607929515418502,0.0,0.0,0.0,0.0,0.0,0.0,0.0,0.0,0.0,0.13478260869565217,0.27608695652173915,0.06739130434782609,0.02826086956521739,0.01956521739130435,0.008695652173913044,0.01956521739130435,0.006521739130434782,0.0,0.004347826086956522,0.02608695652173913,0.013043478260869565,0.02608695652173913,0.03260869565217391,0.043478260869565216,0.05652173913043478,0.1826086956521739,0.05434782608695652,0.0,0.0,0.047619047619047616,0.1038961038961039,0.06277056277056277,0.010822510822510822,0.0021645021645021645,0.0021645021645021645,0.008658008658008658,0.008658008658008658,0.015151515151515152,0.012987012987012988,0.012987012987012988,0.015151515151515152,0.032467532467532464,0.03463203463203463,0.07142857142857142,0.09523809523809523,0.36363636363636365,0.09956709956709957,0.0,0.0,0.006493506493506494,0.012987012987012988,0.004329004329004329,0.006493506493506494,0.032467532467532464,0.0670995670995671,0.03896103896103896,0.045454545454545456,0.0367965367965368,0.0367965367965368,0.05411255411255411,0.05411255411255411,0.045454545454545456,0.09090909090909091,0.08658008658008658,0.11471861471861472,0.23160173160173161,0.03463203463203463,0.0,0.0,0.010822510822510822,0.14285714285714285,0.1341991341991342,0.19696969696969696,0.1038961038961039,0.07575757575757576,0.03463203463203463,0.025974025974025976,0.025974025974025976,0.015151515151515152,0.015151515151515152,0.03896103896103896,0.03896103896103896,0.045454545454545456,0.045454545454545456,0.0367965367965368,0.010822510822510822,0.0021645021645021645,0.0,0.0,0.05411255411255411,0.5670995670995671,0.2857142857142857,0.06926406926406926,0.0021645021645021645,0.0,0.01948051948051948,0.0021645021645021645,0.0,0.0,0.0,0.0,0.0,0.0,0.0,0.0,0.0,0.0,0.0,0.0,0.017316017316017316,0.2510822510822511,0.2683982683982684,0.2662337662337662,0.1645021645021645,0.032467532467532464,0.0,0.0,0.0,0.0,0.0,0.0,0.0,0.0,0.0,0.0,0.0,0.0,0.0,0.0,0.006493506493506494,0.26406926406926406,0.19913419913419914,0.37662337662337664,0.13636363636363635,0.015151515151515152,0.0021645021645021645,0.0,0.0,0.0,0.0,0.0,0.0,0.0,0.0,0.0,0.0,0.0,0.0,0.0,0.004329004329004329,0.11471861471861472,0.05844155844155844,0.032467532467532464,0.047619047619047616,0.0670995670995671,0.09956709956709957,0.14285714285714285,0.18831168831168832,0.13852813852813853,0.07575757575757576,0.025974025974025976,0.004329004329004329,0.0,0.0,0.0,0.0,0.0,0.0,0.0,0.0021645021645021645,0.15151515151515152,0.06926406926406926,0.010822510822510822,0.030303030303030304,0.006493506493506494,0.004329004329004329,0.006493506493506494,0.004329004329004329,0.015151515151515152,0.047619047619047616,0.07792207792207792,0.08658008658008658,0.10606060606060606,0.15151515151515152,0.18614718614718614,0.04329004329004329,0.0,0.0,0.0,0.0,0.0,0.0,0.0,0.0,0.0021645021645021645,0.012987012987012988,0.021645021645021644,0.06060606060606061,0.06060606060606061,0.05411255411255411,0.05194805194805195,0.07792207792207792,0.12121212121212122,0.21212121212121213,0.22510822510822512,0.09956709956709957,0.0,0.0,0.0,0.0,0.0,0.0,0.0,0.004329004329004329,0.004329004329004329,0.010822510822510822,0.025974025974025976,0.017316017316017316,0.05844155844155844,0.06060606060606061,0.05194805194805195,0.045454545454545456,0.03463203463203463,0.10173160173160173,0.354978354978355,0.22943722943722944,0.0,0.0,0.0,0.0,0.0,0.0,0.0,0.0,0.0,0.0,0.0,0.0,0.015151515151515152,0.021645021645021644,0.032467532467532464,0.10822510822510822,0.08441558441558442,0.07575757575757576,0.40476190476190477,0.2510822510822511,0.006493506493506494,0.0,0.0,0.0,0.0,0.0,0.0,0.0,0.0,0.0,0.0,0.0,0.0,0.0,0.0,0.0,0.04329004329004329,0.1471861471861472,0.4329004329004329,0.37012987012987014,0.006493506493506494,0.0,0.0,0.0,0.0,0.0,0.0,0.0,0.0,0.0,0.0,0.0,0.0,0.0,0.0,0.0,0.006493506493506494,0.11688311688311688,0.48917748917748916,0.3852813852813853,0.0021645021645021645,0.0,0.0,L24
0.8976190476190476,0.0880952380952381,0.002380952380952381,0.0,0.0,0.0,0.0,0.0,0.0,0.0,0.0,0.0,0.0,0.0,0.0,0.0,0.0,0.0,0.004761904761904762,0.007142857142857143,0.630901287553648,0.20386266094420602,0.0407725321888412,0.015021459227467811,0.006437768240343348,0.0,0.0,0.0,0.0,0.0,0.0,0.0,0.0,0.004291845493562232,0.002145922746781116,0.0,0.012875536480686695,0.004291845493562232,0.006437768240343348,0.07296137339055794,0.31063829787234043,0.10212765957446808,0.02553191489361702,0.014893617021276596,0.027659574468085105,0.00425531914893617,0.029787234042553193,0.014893617021276596,0.014893617021276596,0.01702127659574468,0.031914893617021274,0.036170212765957444,0.01276595744680851,0.01276595744680851,0.014893617021276596,0.019148936170212766,0.023404255319148935,0.02553191489361702,0.031914893617021274,0.2297872340425532,0.0425531914893617,0.019148936170212766,0.00851063829787234,0.006382978723404255,0.0,0.002127659574468085,0.002127659574468085,0.00851063829787234,0.010638297872340425,0.01276595744680851,0.010638297872340425,0.006382978723404255,0.00851063829787234,0.010638297872340425,0.027659574468085105,0.04468085106382979,0.04680851063829787,0.05531914893617021,0.07446808510638298,0.6021276595744681,0.006382978723404255,0.002127659574468085,0.0,0.0,0.0,0.002127659574468085,0.002127659574468085,0.002127659574468085,0.00851063829787234,0.00851063829787234,0.01276595744680851,0.02127659574468085,0.029787234042553193,0.027659574468085105,0.0574468085106383,0.07234042553191489,0.07872340425531915,0.08936170212765958,0.1148936170212766,0.46382978723404256,0.07659574468085106,0.2404255319148936,0.16170212765957448,0.07021276595744681,0.06170212765957447,0.03404255319148936,0.027659574468085105,0.02553191489361702,0.00851063829787234,0.01702127659574468,0.006382978723404255,0.014893617021276596,0.02127659574468085,0.01702127659574468,0.031914893617021274,0.027659574468085105,0.02553191489361702,0.04893617021276596,0.04042553191489362,0.0425531914893617,0.14042553191489363,0.26170212765957446,0.16595744680851063,0.1425531914893617,0.07234042553191489,0.06808510638297872,0.059574468085106386,0.03829787234042553,0.010638297872340425,0.01702127659574468,0.00425531914893617,0.0,0.0,0.0,0.0,0.0,0.0,0.0,0.00851063829787234,0.010638297872340425,0.1829787234042553,0.29148936170212764,0.19787234042553192,0.10425531914893617,0.11702127659574468,0.04680851063829787,0.04468085106382979,0.002127659574468085,0.006382978723404255,0.0,0.0,0.0,0.0,0.0,0.0,0.0,0.0,0.0,0.0,0.006382978723404255,0.05106382978723404,0.07872340425531915,0.0851063829787234,0.08297872340425531,0.125531914893617,0.12340425531914893,0.11702127659574468,0.0574468085106383,0.09148936170212765,0.10212765957446808,0.04680851063829787,0.029787234042553193,0.006382978723404255,0.002127659574468085,0.0,0.0,0.0,0.0,0.0,0.0,0.03829787234042553,0.07659574468085106,0.03404255319148936,0.02553191489361702,0.023404255319148935,0.01702127659574468,0.00851063829787234,0.01276595744680851,0.006382978723404255,0.006382978723404255,0.029787234042553193,0.027659574468085105,0.04893617021276596,0.06595744680851064,0.06382978723404255,0.07872340425531915,0.08085106382978724,0.06595744680851064,0.08297872340425531,0.20638297872340425,0.002127659574468085,0.00851063829787234,0.00425531914893617,0.01702127659574468,0.014893617021276596,0.010638297872340425,0.029787234042553193,0.031914893617021274,0.01276595744680851,0.01702127659574468,0.02127659574468085,0.019148936170212766,0.01702127659574468,0.029787234042553193,0.02553191489361702,0.023404255319148935,0.05531914893617021,0.11063829787234042,0.225531914893617,0.32340425531914896,0.0,0.0,0.0,0.0,0.0,0.006382978723404255,0.01276595744680851,0.010638297872340425,0.014893617021276596,0.00425531914893617,0.010638297872340425,0.01702127659574468,0.00425531914893617,0.014893617021276596,0.02127659574468085,0.03829787234042553,0.06808510638297872,0.16382978723404254,0.2680851063829787,0.3446808510638298,0.0,0.0,0.0,0.0,0.0,0.0,0.0,0.002127659574468085,0.0,0.0,0.002127659574468085,0.00851063829787234,0.00851063829787234,0.01702127659574468,0.014893617021276596,0.014893617021276596,0.05319148936170213,0.12978723404255318,0.35319148936170214,0.39574468085106385,0.0,0.0,0.0,0.0,0.0,0.0,0.0,0.0,0.0,0.0,0.0,0.0,0.0,0.0,0.0,0.002127659574468085,0.00851063829787234,0.10638297872340426,0.5234042553191489,0.3595744680851064,0.0,0.0,0.0,0.0,0.0,0.0,0.0,0.0,0.0,0.0,0.0,0.0,0.002127659574468085,0.0,0.0,0.0,0.023404255319148935,0.15319148936170213,0.42340425531914894,0.39787234042553193,0.0,0.0,0.0,0.0,0.0,0.0,0.0,0.0,0.0,0.0,0.0,0.0,0.0,0.0,0.0,0.0,0.00851063829787234,0.07872340425531915,0.5170212765957447,0.39574468085106385,0.95,0.0,0.0,0.0,0.0,0.0,0.025,0.0,0.0,0.0,0.0,0.0,0.0,0.025,0.0,0.0,0.0,0.0,0.0,0.0,0.925,0.025,0.0,0.0,0.025,0.0,0.0,0.0,0.0,0.0,0.0,0.0,0.0,0.025,0.0,0.0,0.0,0.0,0.0,0.0,0.9,0.025,0.025,0.0,0.025,0.0,0.0,0.0,0.0,0.025,0.0,0.0,0.0,0.0,0.0,0.0,0.0,0.0,0.0,0.0,0.9,0.025,0.025,0.0,0.025,0.0,0.0,0.0,0.025,0.0,0.0,0.0,0.0,0.0,0.0,0.0,0.0,0.0,0.0,0.0,0.9,0.025,0.025,0.0,0.025,0.0,0.0,0.025,0.0,0.0,0.0,0.0,0.0,0.0,0.0,0.0,0.0,0.0,0.0,0.0,0.9,0.05,0.0,0.0,0.025,0.0,0.0,0.0,0.0,0.0,0.025,0.0,0.0,0.0,0.0,0.0,0.0,0.0,0.0,0.0,0.925,0.025,0.0,0.0,0.025,0.0,0.0,0.0,0.0,0.0,0.025,0.0,0.0,0.0,0.0,0.0,0.0,0.0,0.0,0.0,0.925,0.025,0.025,0.0,0.0,0.0,0.0,0.0,0.0,0.0,0.0,0.0,0.025,0.0,0.0,0.0,0.0,0.0,0.0,0.0,0.875,0.05,0.025,0.025,0.0,0.0,0.0,0.025,0.0,0.0,0.0,0.0,0.0,0.0,0.0,0.0,0.0,0.0,0.0,0.0,0.9,0.025,0.025,0.025,0.0,0.0,0.0,0.025,0.0,0.0,0.0,0.0,0.0,0.0,0.0,0.0,0.0,0.0,0.0,0.0,0.875,0.05,0.025,0.025,0.0,0.0,0.0,0.0,0.025,0.0,0.0,0.0,0.0,0.0,0.0,0.0,0.0,0.0,0.0,0.0,0.875,0.05,0.025,0.025,0.0,0.0,0.0,0.0,0.025,0.0,0.0,0.0,0.0,0.0,0.0,0.0,0.0,0.0,0.0,0.0,0.875,0.05,0.025,0.025,0.0,0.0,0.0,0.0,0.025,0.0,0.0,0.0,0.0,0.0,0.0,0.0,0.0,0.0,0.0,0.0,0.875,0.05,0.025,0.025,0.0,0.0,0.0,0.0,0.025,0.0,0.0,0.0,0.0,0.0,0.0,0.0,0.0,0.0,0.0,0.0,0.875,0.05,0.025,0.025,0.0,0.0,0.0,0.0,0.025,0.0,0.0,0.0,0.0,0.0,0.0,0.0,0.0,0.0,0.0,0.0,0.875,0.05,0.025,0.025,0.0,0.0,0.0,0.0,0.025,0.0,0.0,0.0,0.0,0.0,0.0,0.0,0.0,0.0,0.0,0.0,0.6833333333333333,0.3047619047619048,0.0,0.0,0.007142857142857143,0.0,0.004761904761904762,0.0,0.0,0.0,0.0,0.0,0.0,0.0,0.0,0.0,0.0,0.0,0.0,0.0,0.41201716738197425,0.4206008583690987,0.06223175965665236,0.002145922746781116,0.02145922746781116,0.002145922746781116,0.0,0.0,0.015021459227467811,0.015021459227467811,0.012875536480686695,0.01072961373390558,0.006437768240343348,0.012875536480686695,0.006437768240343348,0.0,0.0,0.0,0.0,0.0,0.16170212765957448,0.24680851063829787,0.0425531914893617,0.029787234042553193,0.04893617021276596,0.019148936170212766,0.04468085106382979,0.059574468085106386,0.01702127659574468,0.014893617021276596,0.014893617021276596,0.023404255319148935,0.029787234042553193,0.01702127659574468,0.03404255319148936,0.036170212765957444,0.11914893617021277,0.04042553191489362,0.0,0.0,0.02127659574468085,0.04468085106382979,0.00851063829787234,0.00425531914893617,0.00425531914893617,0.019148936170212766,0.023404255319148935,0.01702127659574468,0.01276595744680851,0.014893617021276596,0.023404255319148935,0.031914893617021274,0.0425531914893617,0.04468085106382979,0.07872340425531915,0.1127659574468085,0.37659574468085105,0.11914893617021277,0.0,0.0,0.002127659574468085,0.006382978723404255,0.0,0.0,0.00425531914893617,0.006382978723404255,0.014893617021276596,0.02127659574468085,0.03829787234042553,0.06595744680851064,0.07872340425531915,0.10638297872340426,0.12978723404255318,0.10425531914893617,0.11914893617021277,0.1148936170212766,0.14468085106382977,0.0425531914893617,0.0,0.0,0.01276595744680851,0.30638297872340425,0.2276595744680851,0.11702127659574468,0.04893617021276596,0.0425531914893617,0.02127659574468085,0.01702127659574468,0.02553191489361702,0.031914893617021274,0.06170212765957447,0.04468085106382979,0.02127659574468085,0.010638297872340425,0.00425531914893617,0.006382978723404255,0.0,0.0,0.0,0.0,0.01702127659574468,0.37446808510638296,0.2936170212765957,0.24893617021276596,0.04680851063829787,0.0,0.00425531914893617,0.002127659574468085,0.01276595744680851,0.0,0.0,0.0,0.0,0.0,0.0,0.0,0.0,0.0,0.0,0.0,0.01702127659574468,0.4276595744680851,0.33191489361702126,0.2127659574468085,0.00425531914893617,0.006382978723404255,0.0,0.0,0.0,0.0,0.0,0.0,0.0,0.0,0.0,0.0,0.0,0.0,0.0,0.0,0.002127659574468085,0.11914893617021277,0.13617021276595745,0.22340425531914893,0.2702127659574468,0.2404255319148936,0.00851063829787234,0.0,0.0,0.0,0.0,0.0,0.0,0.0,0.0,0.0,0.0,0.0,0.0,0.0,0.00425531914893617,0.1,0.09148936170212765,0.029787234042553193,0.03829787234042553,0.00851063829787234,0.00851063829787234,0.03829787234042553,0.07659574468085106,0.10638297872340426,0.16382978723404254,0.15319148936170213,0.12978723404255318,0.03404255319148936,0.01702127659574468,0.0,0.0,0.0,0.0,0.0,0.002127659574468085,0.006382978723404255,0.019148936170212766,0.023404255319148935,0.05106382978723404,0.09148936170212765,0.0574468085106383,0.02127659574468085,0.01276595744680851,0.02127659574468085,0.02553191489361702,0.036170212765957444,0.07659574468085106,0.08723404255319149,0.19361702127659575,0.2170212765957447,0.0574468085106383,0.0,0.0,0.0,0.0,0.0,0.0,0.002127659574468085,0.006382978723404255,0.031914893617021274,0.031914893617021274,0.05106382978723404,0.05106382978723404,0.06595744680851064,0.027659574468085105,0.019148936170212766,0.0574468085106383,0.06170212765957447,0.19361702127659575,0.25957446808510637,0.14042553191489363,0.0,0.0,0.0,0.0,0.0,0.0,0.0,0.0,0.0,0.002127659574468085,0.00425531914893617,0.019148936170212766,0.03829787234042553,0.027659574468085105,0.06595744680851064,0.07659574468085106,0.0425531914893617,0.07021276595744681,0.35106382978723405,0.2978723404255319,0.00425531914893617,0.0,0.0,0.0,0.0,0.0,0.0,0.0,0.0,0.0,0.0,0.0,0.0,0.0,0.0,0.002127659574468085,0.029787234042553193,0.10212765957446808,0.4574468085106383,0.40425531914893614,0.00425531914893617,0.0,0.0,0.0,0.0,0.0,0.0,0.0,0.0,0.0,0.0,0.0,0.0,0.002127659574468085,0.0,0.006382978723404255,0.023404255319148935,0.16382978723404254,0.4553191489361702,0.3425531914893617,0.006382978723404255,0.0,0.0,0.0,0.0,0.0,0.0,0.0,0.0,0.0,0.0,0.0,0.0,0.0,0.0,0.0,0.00425531914893617,0.04468085106382979,0.5382978723404256,0.4,0.01276595744680851,0.0,0.0,L24
