@RELATION B12345-S04568distEntropy
@ATTRIBUTE f1 REAL
@ATTRIBUTE f2 REAL
@ATTRIBUTE f3 REAL
@ATTRIBUTE f4 REAL
@ATTRIBUTE f5 REAL
@ATTRIBUTE f6 REAL
@ATTRIBUTE f7 REAL
@ATTRIBUTE f8 REAL
@ATTRIBUTE f9 REAL
@ATTRIBUTE f10 REAL
@ATTRIBUTE f11 REAL
@ATTRIBUTE f12 REAL
@ATTRIBUTE f13 REAL
@ATTRIBUTE f14 REAL
@ATTRIBUTE f15 REAL
@ATTRIBUTE f16 REAL
@ATTRIBUTE f17 REAL
@ATTRIBUTE f18 REAL
@ATTRIBUTE f19 REAL
@ATTRIBUTE f20 REAL
@ATTRIBUTE f21 REAL
@ATTRIBUTE f22 REAL
@ATTRIBUTE f23 REAL
@ATTRIBUTE f24 REAL
@ATTRIBUTE f25 REAL
@ATTRIBUTE f26 REAL
@ATTRIBUTE f27 REAL
@ATTRIBUTE f28 REAL
@ATTRIBUTE f29 REAL
@ATTRIBUTE f30 REAL
@ATTRIBUTE f31 REAL
@ATTRIBUTE f32 REAL
@ATTRIBUTE f33 REAL
@ATTRIBUTE f34 REAL
@ATTRIBUTE f35 REAL
@ATTRIBUTE f36 REAL
@ATTRIBUTE f37 REAL
@ATTRIBUTE f38 REAL
@ATTRIBUTE f39 REAL
@ATTRIBUTE f40 REAL
@ATTRIBUTE f41 REAL
@ATTRIBUTE f42 REAL
@ATTRIBUTE f43 REAL
@ATTRIBUTE f44 REAL
@ATTRIBUTE f45 REAL
@ATTRIBUTE f46 REAL
@ATTRIBUTE f47 REAL
@ATTRIBUTE f48 REAL
@ATTRIBUTE f49 REAL
@ATTRIBUTE f50 REAL
@ATTRIBUTE f51 REAL
@ATTRIBUTE f52 REAL
@ATTRIBUTE f53 REAL
@ATTRIBUTE f54 REAL
@ATTRIBUTE f55 REAL
@ATTRIBUTE f56 REAL
@ATTRIBUTE f57 REAL
@ATTRIBUTE f58 REAL
@ATTRIBUTE f59 REAL
@ATTRIBUTE f60 REAL
@ATTRIBUTE f61 REAL
@ATTRIBUTE f62 REAL
@ATTRIBUTE f63 REAL
@ATTRIBUTE f64 REAL
@ATTRIBUTE f65 REAL
@ATTRIBUTE f66 REAL
@ATTRIBUTE f67 REAL
@ATTRIBUTE f68 REAL
@ATTRIBUTE f69 REAL
@ATTRIBUTE f70 REAL
@ATTRIBUTE f71 REAL
@ATTRIBUTE f72 REAL
@ATTRIBUTE f73 REAL
@ATTRIBUTE f74 REAL
@ATTRIBUTE f75 REAL
@ATTRIBUTE f76 REAL
@ATTRIBUTE f77 REAL
@ATTRIBUTE f78 REAL
@ATTRIBUTE f79 REAL
@ATTRIBUTE f80 REAL
@ATTRIBUTE f81 REAL
@ATTRIBUTE f82 REAL
@ATTRIBUTE f83 REAL
@ATTRIBUTE f84 REAL
@ATTRIBUTE f85 REAL
@ATTRIBUTE f86 REAL
@ATTRIBUTE f87 REAL
@ATTRIBUTE f88 REAL
@ATTRIBUTE f89 REAL
@ATTRIBUTE f90 REAL
@ATTRIBUTE f91 REAL
@ATTRIBUTE f92 REAL
@ATTRIBUTE f93 REAL
@ATTRIBUTE f94 REAL
@ATTRIBUTE f95 REAL
@ATTRIBUTE f96 REAL
@ATTRIBUTE f97 REAL
@ATTRIBUTE f98 REAL
@ATTRIBUTE f99 REAL
@ATTRIBUTE f100 REAL
@ATTRIBUTE f101 REAL
@ATTRIBUTE f102 REAL
@ATTRIBUTE f103 REAL
@ATTRIBUTE f104 REAL
@ATTRIBUTE f105 REAL
@ATTRIBUTE f106 REAL
@ATTRIBUTE f107 REAL
@ATTRIBUTE f108 REAL
@ATTRIBUTE f109 REAL
@ATTRIBUTE f110 REAL
@ATTRIBUTE f111 REAL
@ATTRIBUTE f112 REAL
@ATTRIBUTE f113 REAL
@ATTRIBUTE f114 REAL
@ATTRIBUTE f115 REAL
@ATTRIBUTE f116 REAL
@ATTRIBUTE f117 REAL
@ATTRIBUTE f118 REAL
@ATTRIBUTE f119 REAL
@ATTRIBUTE f120 REAL
@ATTRIBUTE f121 REAL
@ATTRIBUTE f122 REAL
@ATTRIBUTE f123 REAL
@ATTRIBUTE f124 REAL
@ATTRIBUTE f125 REAL
@ATTRIBUTE f126 REAL
@ATTRIBUTE f127 REAL
@ATTRIBUTE f128 REAL
@ATTRIBUTE f129 REAL
@ATTRIBUTE f130 REAL
@ATTRIBUTE f131 REAL
@ATTRIBUTE f132 REAL
@ATTRIBUTE f133 REAL
@ATTRIBUTE f134 REAL
@ATTRIBUTE f135 REAL
@ATTRIBUTE f136 REAL
@ATTRIBUTE f137 REAL
@ATTRIBUTE f138 REAL
@ATTRIBUTE f139 REAL
@ATTRIBUTE f140 REAL
@ATTRIBUTE f141 REAL
@ATTRIBUTE f142 REAL
@ATTRIBUTE f143 REAL
@ATTRIBUTE f144 REAL
@ATTRIBUTE f145 REAL
@ATTRIBUTE f146 REAL
@ATTRIBUTE f147 REAL
@ATTRIBUTE f148 REAL
@ATTRIBUTE f149 REAL
@ATTRIBUTE f150 REAL
@ATTRIBUTE f151 REAL
@ATTRIBUTE f152 REAL
@ATTRIBUTE f153 REAL
@ATTRIBUTE f154 REAL
@ATTRIBUTE f155 REAL
@ATTRIBUTE f156 REAL
@ATTRIBUTE f157 REAL
@ATTRIBUTE f158 REAL
@ATTRIBUTE f159 REAL
@ATTRIBUTE f160 REAL
@ATTRIBUTE f161 REAL
@ATTRIBUTE f162 REAL
@ATTRIBUTE f163 REAL
@ATTRIBUTE f164 REAL
@ATTRIBUTE f165 REAL
@ATTRIBUTE f166 REAL
@ATTRIBUTE f167 REAL
@ATTRIBUTE f168 REAL
@ATTRIBUTE f169 REAL
@ATTRIBUTE f170 REAL
@ATTRIBUTE f171 REAL
@ATTRIBUTE f172 REAL
@ATTRIBUTE f173 REAL
@ATTRIBUTE f174 REAL
@ATTRIBUTE f175 REAL
@ATTRIBUTE f176 REAL
@ATTRIBUTE f177 REAL
@ATTRIBUTE f178 REAL
@ATTRIBUTE f179 REAL
@ATTRIBUTE f180 REAL
@ATTRIBUTE f181 REAL
@ATTRIBUTE f182 REAL
@ATTRIBUTE f183 REAL
@ATTRIBUTE f184 REAL
@ATTRIBUTE f185 REAL
@ATTRIBUTE f186 REAL
@ATTRIBUTE f187 REAL
@ATTRIBUTE f188 REAL
@ATTRIBUTE f189 REAL
@ATTRIBUTE f190 REAL
@ATTRIBUTE f191 REAL
@ATTRIBUTE f192 REAL
@ATTRIBUTE f193 REAL
@ATTRIBUTE f194 REAL
@ATTRIBUTE f195 REAL
@ATTRIBUTE f196 REAL
@ATTRIBUTE f197 REAL
@ATTRIBUTE f198 REAL
@ATTRIBUTE f199 REAL
@ATTRIBUTE f200 REAL
@ATTRIBUTE f201 REAL
@ATTRIBUTE f202 REAL
@ATTRIBUTE f203 REAL
@ATTRIBUTE f204 REAL
@ATTRIBUTE f205 REAL
@ATTRIBUTE f206 REAL
@ATTRIBUTE f207 REAL
@ATTRIBUTE f208 REAL
@ATTRIBUTE f209 REAL
@ATTRIBUTE f210 REAL
@ATTRIBUTE f211 REAL
@ATTRIBUTE f212 REAL
@ATTRIBUTE f213 REAL
@ATTRIBUTE f214 REAL
@ATTRIBUTE f215 REAL
@ATTRIBUTE f216 REAL
@ATTRIBUTE f217 REAL
@ATTRIBUTE f218 REAL
@ATTRIBUTE f219 REAL
@ATTRIBUTE f220 REAL
@ATTRIBUTE f221 REAL
@ATTRIBUTE f222 REAL
@ATTRIBUTE f223 REAL
@ATTRIBUTE f224 REAL
@ATTRIBUTE f225 REAL
@ATTRIBUTE f226 REAL
@ATTRIBUTE f227 REAL
@ATTRIBUTE f228 REAL
@ATTRIBUTE f229 REAL
@ATTRIBUTE f230 REAL
@ATTRIBUTE f231 REAL
@ATTRIBUTE f232 REAL
@ATTRIBUTE f233 REAL
@ATTRIBUTE f234 REAL
@ATTRIBUTE f235 REAL
@ATTRIBUTE f236 REAL
@ATTRIBUTE f237 REAL
@ATTRIBUTE f238 REAL
@ATTRIBUTE f239 REAL
@ATTRIBUTE f240 REAL
@ATTRIBUTE f241 REAL
@ATTRIBUTE f242 REAL
@ATTRIBUTE f243 REAL
@ATTRIBUTE f244 REAL
@ATTRIBUTE f245 REAL
@ATTRIBUTE f246 REAL
@ATTRIBUTE f247 REAL
@ATTRIBUTE f248 REAL
@ATTRIBUTE f249 REAL
@ATTRIBUTE f250 REAL
@ATTRIBUTE f251 REAL
@ATTRIBUTE f252 REAL
@ATTRIBUTE f253 REAL
@ATTRIBUTE f254 REAL
@ATTRIBUTE f255 REAL
@ATTRIBUTE f256 REAL
@ATTRIBUTE f257 REAL
@ATTRIBUTE f258 REAL
@ATTRIBUTE f259 REAL
@ATTRIBUTE f260 REAL
@ATTRIBUTE f261 REAL
@ATTRIBUTE f262 REAL
@ATTRIBUTE f263 REAL
@ATTRIBUTE f264 REAL
@ATTRIBUTE f265 REAL
@ATTRIBUTE f266 REAL
@ATTRIBUTE f267 REAL
@ATTRIBUTE f268 REAL
@ATTRIBUTE f269 REAL
@ATTRIBUTE f270 REAL
@ATTRIBUTE f271 REAL
@ATTRIBUTE f272 REAL
@ATTRIBUTE f273 REAL
@ATTRIBUTE f274 REAL
@ATTRIBUTE f275 REAL
@ATTRIBUTE f276 REAL
@ATTRIBUTE f277 REAL
@ATTRIBUTE f278 REAL
@ATTRIBUTE f279 REAL
@ATTRIBUTE f280 REAL
@ATTRIBUTE f281 REAL
@ATTRIBUTE f282 REAL
@ATTRIBUTE f283 REAL
@ATTRIBUTE f284 REAL
@ATTRIBUTE f285 REAL
@ATTRIBUTE f286 REAL
@ATTRIBUTE f287 REAL
@ATTRIBUTE f288 REAL
@ATTRIBUTE f289 REAL
@ATTRIBUTE f290 REAL
@ATTRIBUTE f291 REAL
@ATTRIBUTE f292 REAL
@ATTRIBUTE f293 REAL
@ATTRIBUTE f294 REAL
@ATTRIBUTE f295 REAL
@ATTRIBUTE f296 REAL
@ATTRIBUTE f297 REAL
@ATTRIBUTE f298 REAL
@ATTRIBUTE f299 REAL
@ATTRIBUTE f300 REAL
@ATTRIBUTE f301 REAL
@ATTRIBUTE f302 REAL
@ATTRIBUTE f303 REAL
@ATTRIBUTE f304 REAL
@ATTRIBUTE f305 REAL
@ATTRIBUTE f306 REAL
@ATTRIBUTE f307 REAL
@ATTRIBUTE f308 REAL
@ATTRIBUTE f309 REAL
@ATTRIBUTE f310 REAL
@ATTRIBUTE f311 REAL
@ATTRIBUTE f312 REAL
@ATTRIBUTE f313 REAL
@ATTRIBUTE f314 REAL
@ATTRIBUTE f315 REAL
@ATTRIBUTE f316 REAL
@ATTRIBUTE f317 REAL
@ATTRIBUTE f318 REAL
@ATTRIBUTE f319 REAL
@ATTRIBUTE f320 REAL
@ATTRIBUTE class {NAT,L4,L24}
@DATA
0.9714285714285714,0.022222222222222223,0.0,0.0,0.0,0.0,0.0,0.0,0.0,0.0,0.0,0.0,0.0,0.0,0.0,0.0,0.0,0.0,0.0,0.006349206349206349,0.8324468085106383,0.125,0.005319148936170213,0.0,0.0,0.0,0.0,0.0,0.0,0.0,0.0,0.0,0.0,0.0,0.0,0.0,0.005319148936170213,0.0,0.013297872340425532,0.018617021276595744,0.5892857142857143,0.21428571428571427,0.04591836734693878,0.017857142857142856,0.01020408163265306,0.00510204081632653,0.01020408163265306,0.01020408163265306,0.00510204081632653,0.002551020408163265,0.002551020408163265,0.00510204081632653,0.0,0.0,0.0,0.0,0.01020408163265306,0.0,0.02295918367346939,0.04846938775510204,0.19035532994923857,0.10152284263959391,0.03299492385786802,0.005076142131979695,0.017766497461928935,0.02030456852791878,0.025380710659898477,0.02284263959390863,0.007614213197969543,0.015228426395939087,0.01015228426395939,0.007614213197969543,0.017766497461928935,0.012690355329949238,0.015228426395939087,0.025380710659898477,0.04060913705583756,0.04314720812182741,0.02030456852791878,0.3680203045685279,0.048223350253807105,0.03553299492385787,0.005076142131979695,0.0,0.0,0.0,0.0,0.0,0.0,0.0,0.0025380710659898475,0.0,0.0025380710659898475,0.007614213197969543,0.017766497461928935,0.03553299492385787,0.048223350253807105,0.07106598984771574,0.07106598984771574,0.6548223350253807,0.012690355329949238,0.0025380710659898475,0.0025380710659898475,0.0025380710659898475,0.0,0.0,0.005076142131979695,0.0025380710659898475,0.0,0.01015228426395939,0.01015228426395939,0.02284263959390863,0.025380710659898477,0.04060913705583756,0.07106598984771574,0.0583756345177665,0.07614213197969544,0.09898477157360407,0.1598984771573604,0.39847715736040606,0.0532994923857868,0.17766497461928935,0.10913705583756345,0.10406091370558376,0.08629441624365482,0.07360406091370558,0.09137055837563451,0.027918781725888325,0.027918781725888325,0.03807106598984772,0.03807106598984772,0.03807106598984772,0.027918781725888325,0.025380710659898477,0.015228426395939087,0.015228426395939087,0.0025380710659898475,0.0025380710659898475,0.015228426395939087,0.030456852791878174,0.2182741116751269,0.31218274111675126,0.1548223350253807,0.0583756345177665,0.04568527918781726,0.04568527918781726,0.030456852791878174,0.03807106598984772,0.007614213197969543,0.02284263959390863,0.007614213197969543,0.0,0.005076142131979695,0.0025380710659898475,0.015228426395939087,0.007614213197969543,0.005076142131979695,0.0,0.007614213197969543,0.015228426395939087,0.11421319796954314,0.14213197969543148,0.25380710659898476,0.1649746192893401,0.1598984771573604,0.08629441624365482,0.048223350253807105,0.015228426395939087,0.01015228426395939,0.0,0.0,0.0,0.0,0.0,0.0,0.0,0.0,0.0,0.0,0.005076142131979695,0.19543147208121828,0.17766497461928935,0.18274111675126903,0.12944162436548223,0.11928934010152284,0.07868020304568528,0.050761421319796954,0.030456852791878174,0.015228426395939087,0.015228426395939087,0.0,0.0,0.0,0.0,0.0,0.0,0.0,0.0,0.0,0.005076142131979695,0.04060913705583756,0.04568527918781726,0.08629441624365482,0.04060913705583756,0.06091370558375635,0.08629441624365482,0.0583756345177665,0.05583756345177665,0.03807106598984772,0.07106598984771574,0.07106598984771574,0.07868020304568528,0.06345177664974619,0.06852791878172589,0.04314720812182741,0.04314720812182741,0.03299492385786802,0.015228426395939087,0.0,0.0,0.0,0.005076142131979695,0.01015228426395939,0.048223350253807105,0.050761421319796954,0.0583756345177665,0.10406091370558376,0.1116751269035533,0.13705583756345177,0.116751269035533,0.09137055837563451,0.050761421319796954,0.06091370558375635,0.08375634517766498,0.0532994923857868,0.015228426395939087,0.0025380710659898475,0.0,0.0,0.0,0.0,0.0,0.0,0.0,0.0,0.0025380710659898475,0.0025380710659898475,0.0,0.005076142131979695,0.007614213197969543,0.01015228426395939,0.017766497461928935,0.015228426395939087,0.03299492385786802,0.04568527918781726,0.06852791878172589,0.05583756345177665,0.1446700507614213,0.2512690355329949,0.3401015228426396,0.0,0.0,0.0,0.0,0.0,0.0,0.0,0.0,0.0,0.0,0.0,0.0,0.0025380710659898475,0.005076142131979695,0.015228426395939087,0.015228426395939087,0.048223350253807105,0.1446700507614213,0.3730964467005076,0.39593908629441626,0.0,0.0,0.0,0.0,0.0,0.0,0.0,0.0,0.0,0.0,0.0,0.0,0.0,0.0025380710659898475,0.0025380710659898475,0.007614213197969543,0.025380710659898477,0.13705583756345177,0.4416243654822335,0.383248730964467,0.0,0.0,0.0,0.0,0.0,0.0,0.0,0.0,0.0,0.0,0.0,0.0,0.0,0.0,0.0,0.0,0.015228426395939087,0.1065989847715736,0.44416243654822335,0.434010152284264,NAT
0.9394904458598726,0.04777070063694268,0.006369426751592357,0.0,0.0,0.0,0.0,0.0,0.0,0.0,0.0,0.0,0.0,0.0,0.0,0.0,0.0,0.0,0.0,0.006369426751592357,0.7896103896103897,0.16623376623376623,0.007792207792207792,0.0,0.0,0.0,0.0,0.0,0.0,0.0,0.0,0.0,0.0,0.0,0.0,0.0,0.0,0.0,0.012987012987012988,0.023376623376623377,0.5516372795969773,0.28463476070528965,0.08060453400503778,0.03526448362720403,0.010075566750629723,0.007556675062972292,0.0,0.0,0.005037783375314861,0.0,0.0,0.0,0.0,0.0,0.0,0.0,0.0,0.0,0.012594458438287154,0.012594458438287154,0.20351758793969849,0.11055276381909548,0.05025125628140704,0.04773869346733668,0.032663316582914576,0.03015075376884422,0.022613065326633167,0.017587939698492462,0.02512562814070352,0.03015075376884422,0.03768844221105527,0.02512562814070352,0.007537688442211055,0.005025125628140704,0.002512562814070352,0.01256281407035176,0.020100502512562814,0.01507537688442211,0.04271356783919598,0.2613065326633166,0.06532663316582915,0.01507537688442211,0.002512562814070352,0.005025125628140704,0.005025125628140704,0.0,0.002512562814070352,0.0,0.005025125628140704,0.002512562814070352,0.005025125628140704,0.010050251256281407,0.007537688442211055,0.005025125628140704,0.01256281407035176,0.02763819095477387,0.05025125628140704,0.03768844221105527,0.0829145728643216,0.6582914572864321,0.0,0.0,0.0,0.0,0.0,0.0,0.002512562814070352,0.005025125628140704,0.0,0.0,0.010050251256281407,0.03015075376884422,0.02512562814070352,0.035175879396984924,0.04020100502512563,0.08040201005025126,0.07035175879396985,0.09547738693467336,0.11809045226130653,0.48743718592964824,0.05778894472361809,0.23115577889447236,0.14824120603015076,0.1457286432160804,0.1407035175879397,0.06030150753768844,0.09045226130653267,0.04522613065326633,0.035175879396984924,0.01256281407035176,0.01507537688442211,0.0,0.0,0.0,0.0,0.0,0.0,0.0,0.0,0.017587939698492462,0.40703517587939697,0.271356783919598,0.16080402010050251,0.07035175879396985,0.06030150753768844,0.01256281407035176,0.002512562814070352,0.0,0.0,0.0,0.0,0.005025125628140704,0.0,0.0,0.0,0.0,0.0,0.0,0.0,0.010050251256281407,0.4547738693467337,0.2236180904522613,0.11557788944723618,0.08793969849246232,0.04773869346733668,0.02763819095477387,0.010050251256281407,0.010050251256281407,0.010050251256281407,0.002512562814070352,0.0,0.0,0.0,0.0,0.002512562814070352,0.0,0.0,0.0,0.0,0.007537688442211055,0.25879396984924624,0.1934673366834171,0.1708542713567839,0.11306532663316583,0.09045226130653267,0.0728643216080402,0.04773869346733668,0.017587939698492462,0.017587939698492462,0.017587939698492462,0.0,0.0,0.0,0.0,0.0,0.0,0.0,0.0,0.0,0.0,0.0,0.01256281407035176,0.010050251256281407,0.007537688442211055,0.01507537688442211,0.01507537688442211,0.020100502512562814,0.017587939698492462,0.017587939698492462,0.01256281407035176,0.03015075376884422,0.02763819095477387,0.02512562814070352,0.03015075376884422,0.04773869346733668,0.0678391959798995,0.08542713567839195,0.10552763819095477,0.15577889447236182,0.2964824120603015,0.0,0.05025125628140704,0.05778894472361809,0.06532663316582915,0.08793969849246232,0.11055276381909548,0.13819095477386933,0.07788944723618091,0.09547738693467336,0.08040201005025126,0.10050251256281408,0.0829145728643216,0.04020100502512563,0.0,0.0,0.0,0.0,0.0,0.005025125628140704,0.007537688442211055,0.0,0.022613065326633167,0.022613065326633167,0.005025125628140704,0.01256281407035176,0.02512562814070352,0.01507537688442211,0.04522613065326633,0.09296482412060302,0.08793969849246232,0.06030150753768844,0.07537688442211055,0.09296482412060302,0.06030150753768844,0.06030150753768844,0.08793969849246232,0.07788944723618091,0.09045226130653267,0.052763819095477386,0.01256281407035176,0.0,0.0,0.0,0.0,0.0,0.0,0.0,0.0,0.0,0.0,0.0,0.0,0.0,0.0,0.0,0.01256281407035176,0.035175879396984924,0.1658291457286432,0.3969849246231156,0.38944723618090454,0.0,0.0,0.0,0.0,0.0,0.0,0.0,0.0,0.0,0.0,0.0,0.0,0.0,0.0,0.0,0.007537688442211055,0.04020100502512563,0.16331658291457288,0.40954773869346733,0.3793969849246231,0.0,0.0,0.0,0.0,0.0,0.0,0.0,0.0,0.0,0.0,0.0,0.0,0.0,0.0,0.0,0.0,0.007537688442211055,0.09547738693467336,0.5251256281407035,0.37185929648241206,NAT
0.9388379204892966,0.06116207951070336,0.0,0.0,0.0,0.0,0.0,0.0,0.0,0.0,0.0,0.0,0.0,0.0,0.0,0.0,0.0,0.0,0.0,0.0,0.8082901554404145,0.12435233160621761,0.038860103626943004,0.0,0.0,0.0,0.0,0.0,0.0,0.0,0.0,0.0,0.0,0.0,0.0,0.0,0.0,0.0,0.015544041450777202,0.012953367875647668,0.5288220551378446,0.18796992481203006,0.06516290726817042,0.03258145363408521,0.015037593984962405,0.007518796992481203,0.002506265664160401,0.0,0.0,0.002506265664160401,0.0,0.002506265664160401,0.007518796992481203,0.0,0.002506265664160401,0.002506265664160401,0.007518796992481203,0.020050125313283207,0.020050125313283207,0.09523809523809523,0.205,0.1175,0.0275,0.025,0.02,0.01,0.005,0.005,0.0025,0.0075,0.005,0.0,0.0075,0.0025,0.015,0.0175,0.0325,0.0275,0.0625,0.405,0.00997506234413965,0.012468827930174564,0.004987531172069825,0.0024937655860349127,0.0024937655860349127,0.004987531172069825,0.007481296758104738,0.0024937655860349127,0.014962593516209476,0.004987531172069825,0.004987531172069825,0.012468827930174564,0.004987531172069825,0.004987531172069825,0.017456359102244388,0.02743142144638404,0.02493765586034913,0.07481296758104738,0.06982543640897755,0.6907730673316709,0.0024937655860349127,0.0,0.0024937655860349127,0.0,0.0,0.0,0.0,0.0,0.0024937655860349127,0.00997506234413965,0.0,0.02493765586034913,0.02493765586034913,0.032418952618453865,0.0399002493765586,0.05236907730673317,0.09226932668329177,0.10972568578553615,0.14214463840399003,0.46384039900249374,0.1546134663341646,0.2169576059850374,0.12967581047381546,0.09476309226932668,0.059850374064837904,0.04987531172069826,0.05486284289276808,0.03740648379052369,0.03740648379052369,0.03740648379052369,0.032418952618453865,0.014962593516209476,0.00997506234413965,0.012468827930174564,0.0,0.0024937655860349127,0.0024937655860349127,0.0024937655860349127,0.0024937655860349127,0.04738154613466334,0.3640897755610973,0.27680798004987534,0.1371571072319202,0.10723192019950124,0.06234413965087282,0.02493765586034913,0.014962593516209476,0.0,0.0,0.0,0.0,0.0,0.0,0.0,0.0,0.0,0.0,0.0,0.012468827930174564,0.0,0.14962593516209477,0.2942643391521197,0.16209476309226933,0.09476309226932668,0.10723192019950124,0.08977556109725686,0.04488778054862843,0.04488778054862843,0.007481296758104738,0.0,0.0,0.0,0.0,0.0,0.0,0.0,0.0,0.0,0.0,0.004987531172069825,0.1571072319201995,0.3192019950124688,0.16458852867830423,0.10473815461346633,0.06234413965087282,0.04987531172069826,0.032418952618453865,0.05486284289276808,0.05236907730673317,0.0,0.0,0.0,0.0,0.0,0.0,0.0,0.0,0.0,0.0,0.0024937655860349127,0.017456359102244388,0.12468827930174564,0.16957605985037408,0.1396508728179551,0.09226932668329177,0.07481296758104738,0.0773067331670823,0.059850374064837904,0.07231920199501247,0.04488778054862843,0.02493765586034913,0.04738154613466334,0.029925187032418952,0.017456359102244388,0.007481296758104738,0.0,0.0,0.0,0.0,0.0,0.0,0.0,0.0,0.0,0.0,0.0024937655860349127,0.0024937655860349127,0.004987531172069825,0.0024937655860349127,0.012468827930174564,0.034912718204488775,0.0399002493765586,0.057356608478802994,0.0399002493765586,0.06483790523690773,0.06982543640897755,0.06483790523690773,0.12468827930174564,0.22693266832917705,0.2518703241895262,0.0,0.0024937655860349127,0.0024937655860349127,0.022443890274314215,0.06483790523690773,0.18204488778054864,0.20947630922693267,0.11471321695760599,0.15211970074812967,0.1172069825436409,0.059850374064837904,0.04488778054862843,0.022443890274314215,0.004987531172069825,0.0,0.0,0.0,0.0,0.0,0.0,0.0,0.0,0.0,0.0,0.0,0.0,0.0,0.0,0.0,0.0,0.0,0.0,0.0,0.0024937655860349127,0.0024937655860349127,0.0199501246882793,0.07231920199501247,0.1770573566084788,0.34663341645885287,0.3790523690773067,0.0,0.0,0.0,0.0,0.0,0.0,0.0,0.0,0.0,0.0,0.0,0.0,0.0,0.0,0.0,0.0,0.02493765586034913,0.1172069825436409,0.456359102244389,0.4014962593516209,0.0,0.0,0.0,0.0,0.0,0.0,0.0,0.0,0.0,0.0,0.0,0.0,0.0,0.0,0.0,0.004987531172069825,0.014962593516209476,0.13216957605985039,0.4763092269326683,0.371571072319202,NAT
0.9598765432098766,0.037037037037037035,0.0,0.0,0.0,0.0,0.0,0.0,0.0,0.0,0.0,0.0,0.0,0.0,0.0,0.0,0.0,0.0,0.0,0.0030864197530864196,0.8277634961439588,0.13110539845758354,0.015424164524421594,0.002570694087403599,0.0,0.0,0.0,0.0,0.0,0.0,0.0,0.0,0.0,0.0,0.0,0.0,0.0,0.0,0.005141388174807198,0.017994858611825194,0.5452261306532663,0.16834170854271358,0.05778894472361809,0.035175879396984924,0.005025125628140704,0.007537688442211055,0.002512562814070352,0.0,0.005025125628140704,0.020100502512562814,0.020100502512562814,0.020100502512562814,0.007537688442211055,0.010050251256281407,0.002512562814070352,0.0,0.0,0.010050251256281407,0.007537688442211055,0.07537688442211055,0.21052631578947367,0.13283208020050125,0.05764411027568922,0.03258145363408521,0.015037593984962405,0.002506265664160401,0.005012531328320802,0.002506265664160401,0.002506265664160401,0.0,0.005012531328320802,0.0,0.005012531328320802,0.007518796992481203,0.012531328320802004,0.015037593984962405,0.022556390977443608,0.020050125313283207,0.03007518796992481,0.42105263157894735,0.05263157894736842,0.022556390977443608,0.007518796992481203,0.002506265664160401,0.005012531328320802,0.0,0.002506265664160401,0.0,0.002506265664160401,0.0,0.005012531328320802,0.0,0.007518796992481203,0.005012531328320802,0.012531328320802004,0.02506265664160401,0.040100250626566414,0.07268170426065163,0.07518796992481203,0.6616541353383458,0.015037593984962405,0.012531328320802004,0.005012531328320802,0.005012531328320802,0.0,0.0,0.002506265664160401,0.015037593984962405,0.007518796992481203,0.015037593984962405,0.015037593984962405,0.022556390977443608,0.022556390977443608,0.03258145363408521,0.05012531328320802,0.03508771929824561,0.05764411027568922,0.10025062656641603,0.11779448621553884,0.46867167919799496,0.15538847117794485,0.14536340852130325,0.11027568922305764,0.040100250626566414,0.045112781954887216,0.042606516290726815,0.06015037593984962,0.05513784461152882,0.045112781954887216,0.06015037593984962,0.06516290726817042,0.08020050125313283,0.02756892230576441,0.02506265664160401,0.022556390977443608,0.010025062656641603,0.002506265664160401,0.007518796992481203,0.0,0.0,0.49373433583959897,0.21804511278195488,0.12030075187969924,0.07518796992481203,0.05012531328320802,0.005012531328320802,0.0,0.0,0.0,0.0,0.0,0.0,0.0,0.0,0.0,0.0,0.0,0.0,0.010025062656641603,0.02756892230576441,0.18796992481203006,0.2706766917293233,0.12531328320802004,0.07769423558897243,0.05263157894736842,0.05764411027568922,0.05263157894736842,0.047619047619047616,0.02506265664160401,0.03508771929824561,0.022556390977443608,0.022556390977443608,0.0,0.012531328320802004,0.005012531328320802,0.0,0.0,0.0,0.0,0.005012531328320802,0.09273182957393483,0.22305764411027568,0.20551378446115287,0.17293233082706766,0.14786967418546365,0.09523809523809523,0.06015037593984962,0.002506265664160401,0.0,0.0,0.0,0.0,0.0,0.0,0.0,0.0,0.0,0.0,0.0,0.0,0.015037593984962405,0.05012531328320802,0.11528822055137844,0.17794486215538846,0.21804511278195488,0.14786967418546365,0.12030075187969924,0.05764411027568922,0.05513784461152882,0.022556390977443608,0.020050125313283207,0.0,0.0,0.0,0.0,0.0,0.0,0.0,0.0,0.0,0.005012531328320802,0.06015037593984962,0.10776942355889724,0.13784461152882205,0.19298245614035087,0.13032581453634084,0.11528822055137844,0.05263157894736842,0.07268170426065163,0.03258145363408521,0.045112781954887216,0.017543859649122806,0.015037593984962405,0.007518796992481203,0.002506265664160401,0.0,0.0,0.0,0.0,0.005012531328320802,0.0,0.0,0.0,0.0,0.0,0.0,0.0,0.0,0.002506265664160401,0.020050125313283207,0.015037593984962405,0.03258145363408521,0.040100250626566414,0.03759398496240601,0.05263157894736842,0.06516290726817042,0.08771929824561403,0.13032581453634084,0.23057644110275688,0.2857142857142857,0.0,0.0,0.0,0.0,0.0,0.0,0.0,0.002506265664160401,0.0,0.0,0.002506265664160401,0.002506265664160401,0.007518796992481203,0.0,0.012531328320802004,0.020050125313283207,0.05012531328320802,0.18546365914786966,0.3659147869674185,0.3508771929824561,0.0,0.0,0.0,0.0,0.0,0.0,0.0,0.0,0.0,0.0,0.0,0.002506265664160401,0.002506265664160401,0.005012531328320802,0.017543859649122806,0.02756892230576441,0.05263157894736842,0.12531328320802004,0.3634085213032581,0.40350877192982454,0.0,0.0,0.0,0.0,0.0,0.0,0.0,0.0,0.0,0.0,0.0,0.0,0.0,0.0,0.0,0.002506265664160401,0.010025062656641603,0.08270676691729323,0.5137844611528822,0.39097744360902253,NAT
0.9109311740890689,0.06072874493927125,0.004048582995951417,0.0,0.0,0.0,0.0,0.0,0.0,0.0,0.0,0.0,0.0,0.0,0.0,0.0,0.0,0.0,0.012145748987854251,0.012145748987854251,0.8738738738738738,0.11711711711711711,0.0,0.0,0.0,0.0,0.0,0.0,0.0,0.0,0.0,0.0,0.0,0.0,0.0,0.0,0.0,0.0,0.0,0.009009009009009009,0.7070422535211267,0.2140845070422535,0.03380281690140845,0.016901408450704224,0.0,0.0,0.0,0.0,0.0,0.0,0.0,0.0,0.0,0.0,0.0,0.0,0.0,0.0,0.008450704225352112,0.01971830985915493,0.26740947075208915,0.1615598885793872,0.04178272980501393,0.04178272980501393,0.03899721448467967,0.011142061281337047,0.022284122562674095,0.0,0.002785515320334262,0.0,0.002785515320334262,0.002785515320334262,0.005571030640668524,0.013927576601671309,0.011142061281337047,0.011142061281337047,0.019498607242339833,0.027855153203342618,0.04735376044568245,0.27019498607242337,0.07520891364902507,0.025069637883008356,0.002785515320334262,0.011142061281337047,0.0,0.002785515320334262,0.002785515320334262,0.0,0.0,0.002785515320334262,0.013927576601671309,0.019498607242339833,0.013927576601671309,0.019498607242339833,0.011142061281337047,0.022284122562674095,0.052924791086350974,0.0584958217270195,0.0807799442896936,0.584958217270195,0.011142061281337047,0.0,0.0,0.0,0.0,0.0,0.0,0.0,0.005571030640668524,0.002785515320334262,0.0,0.011142061281337047,0.013927576601671309,0.011142061281337047,0.016713091922005572,0.0584958217270195,0.052924791086350974,0.07799442896935933,0.11977715877437325,0.6183844011142061,0.002785515320334262,0.002785515320334262,0.002785515320334262,0.005571030640668524,0.011142061281337047,0.011142061281337047,0.016713091922005572,0.016713091922005572,0.025069637883008356,0.019498607242339833,0.033426183844011144,0.025069637883008356,0.03899721448467967,0.06685236768802229,0.055710306406685235,0.06963788300835655,0.0807799442896936,0.10027855153203342,0.12534818941504178,0.28969359331476324,0.18662952646239556,0.1894150417827298,0.17548746518105848,0.13370473537604458,0.12534818941504178,0.0947075208913649,0.036211699164345405,0.011142061281337047,0.005571030640668524,0.016713091922005572,0.0,0.0,0.0,0.0,0.0,0.0,0.0,0.0,0.0,0.025069637883008356,0.20055710306406685,0.21727019498607242,0.17827298050139276,0.13370473537604458,0.12256267409470752,0.07799442896935933,0.036211699164345405,0.016713091922005572,0.008356545961002786,0.0,0.002785515320334262,0.0,0.0,0.0,0.0,0.0,0.0,0.0,0.0,0.005571030640668524,0.14484679665738162,0.2200557103064067,0.1532033426183844,0.07799442896935933,0.08913649025069638,0.03899721448467967,0.07242339832869081,0.04456824512534819,0.06406685236768803,0.025069637883008356,0.03064066852367688,0.033426183844011144,0.005571030640668524,0.0,0.0,0.0,0.0,0.0,0.0,0.0,0.08356545961002786,0.15041782729805014,0.16434540389972144,0.08913649025069638,0.14206128133704735,0.11977715877437325,0.11420612813370473,0.055710306406685235,0.022284122562674095,0.03064066852367688,0.019498607242339833,0.002785515320334262,0.0,0.0,0.0,0.0,0.0,0.0,0.0,0.005571030640668524,0.0,0.0,0.04456824512534819,0.03899721448467967,0.07799442896935933,0.0947075208913649,0.08913649025069638,0.07799442896935933,0.05013927576601671,0.07520891364902507,0.04735376044568245,0.07520891364902507,0.05013927576601671,0.06685236768802229,0.04456824512534819,0.04178272980501393,0.03899721448467967,0.022284122562674095,0.03899721448467967,0.025069637883008356,0.0,0.005571030640668524,0.05013927576601671,0.033426183844011144,0.08356545961002786,0.03899721448467967,0.04178272980501393,0.04178272980501393,0.05013927576601671,0.06406685236768803,0.04456824512534819,0.09192200557103064,0.04735376044568245,0.06685236768802229,0.025069637883008356,0.033426183844011144,0.07242339832869081,0.08635097493036212,0.07242339832869081,0.05013927576601671,0.0,0.0,0.0,0.0,0.0,0.0,0.0,0.0,0.0,0.0,0.0,0.011142061281337047,0.03064066852367688,0.09749303621169916,0.19220055710306408,0.181058495821727,0.0947075208913649,0.0807799442896936,0.08356545961002786,0.22841225626740946,0.0,0.0,0.0,0.0,0.0,0.0,0.0,0.0,0.0,0.0,0.0,0.0,0.0,0.0,0.008356545961002786,0.019498607242339833,0.04178272980501393,0.17827298050139276,0.3732590529247911,0.3788300835654596,0.0,0.0,0.0,0.0,0.0,0.0,0.0,0.0,0.0,0.0,0.0,0.0,0.0,0.0,0.0,0.0,0.013927576601671309,0.1309192200557103,0.43454038997214484,0.4206128133704735,L4
0.9154929577464789,0.0676056338028169,0.005633802816901409,0.0,0.0,0.0,0.0,0.0,0.0,0.0,0.0,0.0,0.0,0.0,0.0,0.0,0.005633802816901409,0.0,0.0,0.005633802816901409,0.7297297297297297,0.17936117936117937,0.051597051597051594,0.009828009828009828,0.002457002457002457,0.0,0.0,0.0,0.0,0.0,0.0,0.0,0.0,0.0,0.0,0.0,0.0,0.002457002457002457,0.007371007371007371,0.0171990171990172,0.3317422434367542,0.13365155131264916,0.0405727923627685,0.011933174224343675,0.016706443914081145,0.00477326968973747,0.00954653937947494,0.0,0.00477326968973747,0.00477326968973747,0.00477326968973747,0.00954653937947494,0.00477326968973747,0.016706443914081145,0.026252983293556086,0.011933174224343675,0.01909307875894988,0.01909307875894988,0.059665871121718374,0.26968973747016706,0.11190476190476191,0.02857142857142857,0.0,0.002380952380952381,0.0,0.0,0.0,0.0,0.009523809523809525,0.002380952380952381,0.002380952380952381,0.009523809523809525,0.011904761904761904,0.011904761904761904,0.016666666666666666,0.02619047619047619,0.04285714285714286,0.05952380952380952,0.05,0.6142857142857143,0.016666666666666666,0.004761904761904762,0.0,0.0,0.0,0.0,0.0,0.0,0.0,0.002380952380952381,0.004761904761904762,0.0,0.011904761904761904,0.014285714285714285,0.014285714285714285,0.04285714285714286,0.047619047619047616,0.09047619047619047,0.10952380952380952,0.6404761904761904,0.04285714285714286,0.05,0.047619047619047616,0.04523809523809524,0.08095238095238096,0.030952380952380953,0.047619047619047616,0.06666666666666667,0.05476190476190476,0.07380952380952381,0.05,0.0761904761904762,0.04047619047619048,0.05476190476190476,0.02142857142857143,0.030952380952380953,0.04047619047619048,0.047619047619047616,0.06428571428571428,0.03333333333333333,0.15,0.1880952380952381,0.11190476190476191,0.09761904761904762,0.11904761904761904,0.08333333333333333,0.09761904761904762,0.02857142857142857,0.047619047619047616,0.01904761904761905,0.02142857142857143,0.007142857142857143,0.004761904761904762,0.007142857142857143,0.007142857142857143,0.002380952380952381,0.0,0.0,0.0,0.007142857142857143,0.319047619047619,0.26904761904761904,0.10476190476190476,0.07142857142857142,0.06904761904761905,0.02619047619047619,0.06190476190476191,0.016666666666666666,0.02142857142857143,0.01904761904761905,0.009523809523809525,0.0,0.0,0.0,0.0,0.0,0.0,0.0,0.004761904761904762,0.007142857142857143,0.24523809523809523,0.35,0.18333333333333332,0.08571428571428572,0.09761904761904762,0.03571428571428571,0.002380952380952381,0.0,0.0,0.0,0.0,0.0,0.0,0.0,0.0,0.0,0.0,0.0,0.0,0.0,0.1880952380952381,0.24047619047619048,0.12380952380952381,0.09047619047619047,0.06428571428571428,0.05476190476190476,0.030952380952380953,0.03571428571428571,0.01904761904761905,0.04523809523809524,0.02619047619047619,0.02857142857142857,0.03333333333333333,0.004761904761904762,0.009523809523809525,0.0,0.0,0.0,0.0,0.004761904761904762,0.0,0.0,0.0,0.002380952380952381,0.007142857142857143,0.004761904761904762,0.011904761904761904,0.016666666666666666,0.01904761904761905,0.02619047619047619,0.02142857142857143,0.03571428571428571,0.023809523809523808,0.05476190476190476,0.05476190476190476,0.05,0.0880952380952381,0.11666666666666667,0.16666666666666666,0.3,0.0,0.0,0.0,0.0,0.0,0.0,0.0,0.004761904761904762,0.002380952380952381,0.0,0.0,0.009523809523809525,0.011904761904761904,0.04047619047619048,0.02619047619047619,0.05952380952380952,0.08333333333333333,0.15,0.23095238095238096,0.38095238095238093,0.0,0.0,0.0,0.0,0.0,0.0,0.0,0.0,0.0,0.0,0.0,0.0,0.002380952380952381,0.004761904761904762,0.02142857142857143,0.02142857142857143,0.05,0.14523809523809525,0.37857142857142856,0.3761904761904762,0.0,0.0,0.0,0.0,0.0,0.0,0.0,0.0,0.0,0.0,0.0,0.0,0.002380952380952381,0.011904761904761904,0.007142857142857143,0.02857142857142857,0.06904761904761905,0.16428571428571428,0.35,0.36666666666666664,0.0,0.0,0.0,0.0,0.0,0.0,0.0,0.0,0.0,0.0,0.0,0.0,0.0,0.0,0.0,0.002380952380952381,0.009523809523809525,0.10952380952380952,0.4976190476190476,0.38095238095238093,0.0,0.0,0.0,0.0,0.0,0.0,0.0,0.0,0.0,0.0,0.0,0.0,0.0,0.0,0.0,0.0,0.011904761904761904,0.0761904761904762,0.5476190476190477,0.36428571428571427,L4
0.9248704663212435,0.06217616580310881,0.0051813471502590676,0.0,0.0,0.0,0.0,0.0,0.0,0.0,0.0,0.0,0.0,0.0,0.0,0.0,0.0,0.0,0.0,0.007772020725388601,0.7172897196261683,0.205607476635514,0.02336448598130841,0.002336448598130841,0.002336448598130841,0.0,0.0,0.0,0.0,0.0,0.0,0.002336448598130841,0.0,0.0,0.0,0.002336448598130841,0.004672897196261682,0.007009345794392523,0.011682242990654205,0.02102803738317757,0.32723112128146453,0.18306636155606407,0.034324942791762014,0.02745995423340961,0.011441647597254004,0.004576659038901602,0.002288329519450801,0.0,0.0,0.004576659038901602,0.004576659038901602,0.002288329519450801,0.006864988558352402,0.009153318077803204,0.011441647597254004,0.011441647597254004,0.034324942791762014,0.038901601830663615,0.04576659038901602,0.2402745995423341,0.09360730593607305,0.03424657534246575,0.0091324200913242,0.0091324200913242,0.00684931506849315,0.01141552511415525,0.0,0.0045662100456621,0.01141552511415525,0.00684931506849315,0.0091324200913242,0.00684931506849315,0.0228310502283105,0.02054794520547945,0.01598173515981735,0.03881278538812785,0.0547945205479452,0.0639269406392694,0.0547945205479452,0.5251141552511416,0.00684931506849315,0.0,0.0,0.0,0.0,0.0,0.0,0.0,0.0045662100456621,0.00684931506849315,0.01141552511415525,0.00684931506849315,0.01598173515981735,0.01141552511415525,0.0228310502283105,0.045662100456621,0.045662100456621,0.1050228310502283,0.11187214611872145,0.6050228310502284,0.0091324200913242,0.0136986301369863,0.00684931506849315,0.0182648401826484,0.0182648401826484,0.0319634703196347,0.0319634703196347,0.0182648401826484,0.0365296803652968,0.02511415525114155,0.0319634703196347,0.0319634703196347,0.03424657534246575,0.03881278538812785,0.04794520547945205,0.05251141552511415,0.06621004566210045,0.07990867579908675,0.13013698630136986,0.2762557077625571,0.12557077625570776,0.24429223744292236,0.1917808219178082,0.12557077625570776,0.1050228310502283,0.06164383561643835,0.0410958904109589,0.04337899543378995,0.01598173515981735,0.01141552511415525,0.0091324200913242,0.0091324200913242,0.00228310502283105,0.0,0.0,0.0,0.0045662100456621,0.0,0.0,0.0091324200913242,0.4429223744292237,0.3264840182648402,0.1278538812785388,0.06621004566210045,0.03424657534246575,0.00228310502283105,0.0,0.0,0.0,0.0,0.0,0.0,0.0,0.0,0.0,0.0,0.0,0.0,0.0,0.0,0.1735159817351598,0.15296803652968036,0.19406392694063926,0.1415525114155251,0.10273972602739725,0.0684931506849315,0.11187214611872145,0.0273972602739726,0.0136986301369863,0.00684931506849315,0.00228310502283105,0.0,0.0,0.0,0.0,0.0,0.0,0.0,0.0,0.0045662100456621,0.0045662100456621,0.0228310502283105,0.02054794520547945,0.01141552511415525,0.0410958904109589,0.0273972602739726,0.0319634703196347,0.02968036529680365,0.0639269406392694,0.0821917808219178,0.07990867579908675,0.0776255707762557,0.07077625570776255,0.06164383561643835,0.07077625570776255,0.05251141552511415,0.07990867579908675,0.0684931506849315,0.0593607305936073,0.04337899543378995,0.0,0.0045662100456621,0.01141552511415525,0.0228310502283105,0.04794520547945205,0.0593607305936073,0.1232876712328767,0.0684931506849315,0.08447488584474885,0.091324200913242,0.06621004566210045,0.0547945205479452,0.0730593607305936,0.06621004566210045,0.04337899543378995,0.04794520547945205,0.02054794520547945,0.0365296803652968,0.02054794520547945,0.05707762557077625,0.0,0.0,0.0,0.0,0.0,0.0,0.0,0.0,0.0,0.0,0.0,0.0,0.00228310502283105,0.0,0.0136986301369863,0.02968036529680365,0.0821917808219178,0.16666666666666666,0.3059360730593607,0.3995433789954338,0.0,0.0,0.0,0.0,0.0,0.0,0.0,0.0,0.0,0.0,0.0,0.0,0.0,0.0,0.00228310502283105,0.0136986301369863,0.0502283105022831,0.14383561643835616,0.3858447488584475,0.4041095890410959,0.0,0.0,0.0,0.0,0.0,0.0,0.0,0.0,0.0,0.0,0.0,0.0,0.0,0.0,0.0,0.0045662100456621,0.02511415525114155,0.14840182648401826,0.4406392694063927,0.3812785388127854,0.0,0.0,0.0,0.0,0.0,0.0,0.0,0.0,0.0,0.0,0.0,0.0,0.0,0.0,0.0,0.0,0.0091324200913242,0.1050228310502283,0.4726027397260274,0.4132420091324201,0.0,0.0,0.0,0.0,0.0,0.0,0.0,0.0,0.0,0.0,0.0,0.0,0.0,0.0,0.0,0.0,0.0045662100456621,0.091324200913242,0.5365296803652968,0.3675799086757991,L4
0.8640776699029126,0.11893203883495146,0.0048543689320388345,0.0,0.0,0.0,0.0,0.0,0.0,0.0,0.0,0.0,0.0,0.0,0.0,0.0,0.0,0.0,0.0,0.012135922330097087,0.7096069868995634,0.2292576419213974,0.021834061135371178,0.002183406113537118,0.0,0.0,0.0,0.0,0.0,0.0,0.0,0.0,0.0,0.0,0.0,0.0,0.006550218340611353,0.0,0.0,0.03056768558951965,0.34623655913978496,0.13763440860215054,0.05591397849462366,0.03225806451612903,0.01935483870967742,0.015053763440860216,0.008602150537634409,0.0064516129032258064,0.0,0.002150537634408602,0.002150537634408602,0.002150537634408602,0.002150537634408602,0.004301075268817204,0.004301075268817204,0.008602150537634409,0.017204301075268817,0.012903225806451613,0.021505376344086023,0.3010752688172043,0.06451612903225806,0.02795698924731183,0.0,0.0,0.0,0.0,0.002150537634408602,0.0,0.0,0.0,0.002150537634408602,0.004301075268817204,0.008602150537634409,0.010752688172043012,0.01935483870967742,0.03655913978494624,0.053763440860215055,0.06666666666666667,0.043010752688172046,0.6602150537634408,0.0064516129032258064,0.012903225806451613,0.010752688172043012,0.0,0.0064516129032258064,0.004301075268817204,0.004301075268817204,0.002150537634408602,0.010752688172043012,0.0064516129032258064,0.0064516129032258064,0.015053763440860216,0.015053763440860216,0.030107526881720432,0.03225806451612903,0.05806451612903226,0.06236559139784946,0.07956989247311828,0.09462365591397849,0.5419354838709678,0.03870967741935484,0.008602150537634409,0.017204301075268817,0.025806451612903226,0.023655913978494623,0.017204301075268817,0.047311827956989246,0.017204301075268817,0.021505376344086023,0.030107526881720432,0.03870967741935484,0.03225806451612903,0.030107526881720432,0.03655913978494624,0.05161290322580645,0.053763440860215055,0.04946236559139785,0.06881720430107527,0.10967741935483871,0.2817204301075269,0.4129032258064516,0.2946236559139785,0.13978494623655913,0.07526881720430108,0.047311827956989246,0.012903225806451613,0.0,0.0,0.0,0.0,0.0,0.0,0.0,0.0,0.002150537634408602,0.0,0.0,0.0,0.004301075268817204,0.010752688172043012,0.4064516129032258,0.1935483870967742,0.05806451612903226,0.07741935483870968,0.08172043010752689,0.06236559139784946,0.05591397849462366,0.047311827956989246,0.012903225806451613,0.0,0.0,0.0,0.0,0.0,0.0,0.0,0.0,0.0,0.0,0.004301075268817204,0.30752688172043013,0.36129032258064514,0.1870967741935484,0.06451612903225806,0.04086021505376344,0.017204301075268817,0.015053763440860216,0.004301075268817204,0.0,0.0,0.0,0.0,0.0,0.0,0.0,0.0,0.0,0.0,0.0,0.002150537634408602,0.16989247311827957,0.20430107526881722,0.14408602150537633,0.060215053763440864,0.07096774193548387,0.05161290322580645,0.04946236559139785,0.02795698924731183,0.03225806451612903,0.030107526881720432,0.008602150537634409,0.02795698924731183,0.030107526881720432,0.03655913978494624,0.043010752688172046,0.008602150537634409,0.004301075268817204,0.0,0.0,0.0,0.09462365591397849,0.35268817204301073,0.2086021505376344,0.15053763440860216,0.12043010752688173,0.06881720430107527,0.004301075268817204,0.0,0.0,0.0,0.0,0.0,0.0,0.0,0.0,0.0,0.0,0.0,0.0,0.0,0.0,0.0,0.0,0.0,0.0,0.0,0.0,0.0,0.0,0.0,0.0,0.0,0.0,0.004301075268817204,0.012903225806451613,0.025806451612903226,0.04946236559139785,0.16989247311827957,0.3548387096774194,0.3827956989247312,0.0,0.0,0.0,0.0,0.0,0.0,0.0,0.0,0.0,0.0,0.0,0.0,0.0,0.0,0.002150537634408602,0.008602150537634409,0.04086021505376344,0.16129032258064516,0.3763440860215054,0.410752688172043,0.0,0.0,0.0,0.0,0.0,0.0,0.0,0.0,0.0,0.0,0.0,0.0,0.0,0.0,0.0,0.0064516129032258064,0.017204301075268817,0.12903225806451613,0.45806451612903226,0.38924731182795697,0.0,0.0,0.0,0.0,0.0,0.0,0.0,0.0,0.0,0.0,0.0,0.0,0.0,0.0,0.0,0.0,0.008602150537634409,0.07526881720430108,0.4881720430107527,0.42795698924731185,0.0,0.0,0.0,0.0,0.0,0.0,0.0,0.0,0.0,0.0,0.0,0.0,0.0,0.0,0.0,0.0,0.010752688172043012,0.1010752688172043,0.45806451612903226,0.43010752688172044,L4
0.8859857482185273,0.09501187648456057,0.0023752969121140144,0.0,0.0,0.0,0.0,0.0,0.0,0.0,0.0,0.0,0.0,0.0,0.0,0.0,0.0,0.0,0.007125890736342043,0.009501187648456057,0.6952789699570815,0.17167381974248927,0.04721030042918455,0.006437768240343348,0.012875536480686695,0.006437768240343348,0.004291845493562232,0.006437768240343348,0.004291845493562232,0.0,0.0,0.0,0.0,0.002145922746781116,0.0,0.0,0.0,0.0,0.027896995708154508,0.015021459227467811,0.25427350427350426,0.12393162393162394,0.06196581196581197,0.0405982905982906,0.03418803418803419,0.02564102564102564,0.023504273504273504,0.021367521367521368,0.010683760683760684,0.023504273504273504,0.014957264957264958,0.01282051282051282,0.00641025641025641,0.00641025641025641,0.004273504273504274,0.023504273504273504,0.017094017094017096,0.019230769230769232,0.053418803418803416,0.2222222222222222,0.027659574468085105,0.029787234042553193,0.006382978723404255,0.019148936170212766,0.010638297872340425,0.006382978723404255,0.006382978723404255,0.00851063829787234,0.002127659574468085,0.01276595744680851,0.006382978723404255,0.0,0.0,0.00851063829787234,0.014893617021276596,0.01702127659574468,0.06170212765957447,0.059574468085106386,0.06808510638297872,0.6340425531914894,0.002127659574468085,0.00425531914893617,0.002127659574468085,0.002127659574468085,0.0,0.00425531914893617,0.0,0.0,0.002127659574468085,0.006382978723404255,0.006382978723404255,0.00425531914893617,0.019148936170212766,0.01276595744680851,0.027659574468085105,0.0425531914893617,0.05319148936170213,0.10425531914893617,0.125531914893617,0.5808510638297872,0.04042553191489362,0.1148936170212766,0.15531914893617021,0.13404255319148936,0.10425531914893617,0.08297872340425531,0.0425531914893617,0.05531914893617021,0.0574468085106383,0.05531914893617021,0.029787234042553193,0.00851063829787234,0.00851063829787234,0.04042553191489362,0.02553191489361702,0.01276595744680851,0.01276595744680851,0.006382978723404255,0.0,0.01276595744680851,0.18085106382978725,0.24893617021276596,0.17446808510638298,0.12340425531914893,0.08085106382978724,0.0851063829787234,0.04042553191489362,0.023404255319148935,0.02553191489361702,0.006382978723404255,0.002127659574468085,0.0,0.0,0.0,0.0,0.0,0.0,0.0,0.00425531914893617,0.00425531914893617,0.20425531914893616,0.3553191489361702,0.1723404255319149,0.11063829787234042,0.059574468085106386,0.01702127659574468,0.027659574468085105,0.014893617021276596,0.02553191489361702,0.0,0.0,0.0,0.0,0.0,0.0,0.0,0.0,0.0,0.0,0.01276595744680851,0.01276595744680851,0.13404255319148936,0.13404255319148936,0.13404255319148936,0.15319148936170213,0.10851063829787234,0.13191489361702127,0.04468085106382979,0.05319148936170213,0.04042553191489362,0.019148936170212766,0.019148936170212766,0.00851063829787234,0.006382978723404255,0.0,0.0,0.0,0.0,0.0,0.0,0.0,0.0,0.002127659574468085,0.00851063829787234,0.02127659574468085,0.023404255319148935,0.02127659574468085,0.019148936170212766,0.02553191489361702,0.04042553191489362,0.04042553191489362,0.07234042553191489,0.07446808510638298,0.07021276595744681,0.09574468085106383,0.059574468085106386,0.06170212765957447,0.08936170212765958,0.07659574468085106,0.19787234042553192,0.0,0.03404255319148936,0.09361702127659574,0.0425531914893617,0.06170212765957447,0.03829787234042553,0.0425531914893617,0.05319148936170213,0.06808510638297872,0.07872340425531915,0.0574468085106383,0.07446808510638298,0.059574468085106386,0.059574468085106386,0.059574468085106386,0.04042553191489362,0.03829787234042553,0.031914893617021274,0.03829787234042553,0.027659574468085105,0.0,0.0,0.0,0.0,0.0,0.0,0.0,0.0,0.0,0.0,0.0,0.0,0.002127659574468085,0.00425531914893617,0.010638297872340425,0.036170212765957444,0.07234042553191489,0.13191489361702127,0.3404255319148936,0.4021276595744681,0.0,0.0,0.0,0.0,0.0,0.0,0.0,0.0,0.0,0.0,0.0,0.0,0.0,0.002127659574468085,0.00851063829787234,0.00851063829787234,0.03829787234042553,0.14893617021276595,0.425531914893617,0.3680851063829787,0.0,0.0,0.0,0.0,0.0,0.0,0.0,0.0,0.0,0.0,0.0,0.0,0.0,0.0,0.00425531914893617,0.00851063829787234,0.02553191489361702,0.10851063829787234,0.41702127659574467,0.43617021276595747,0.0,0.0,0.0,0.0,0.0,0.0,0.0,0.0,0.0,0.0,0.0,0.0,0.0,0.0,0.0,0.0,0.01276595744680851,0.0851063829787234,0.48723404255319147,0.4148936170212766,0.0,0.0,0.0,0.0,0.0,0.0,0.0,0.0,0.0,0.0,0.0,0.0,0.0,0.0,0.0,0.006382978723404255,0.00425531914893617,0.08297872340425531,0.4702127659574468,0.43617021276595747,L24
0.8899297423887588,0.10070257611241218,0.0,0.0,0.0,0.0,0.0,0.0,0.0,0.0,0.0,0.0,0.0,0.0,0.0,0.0,0.0,0.0,0.0,0.00936768149882904,0.6373165618448637,0.2557651991614256,0.0440251572327044,0.014675052410901468,0.018867924528301886,0.0020964360587002098,0.0,0.0,0.0,0.0,0.0,0.0,0.0,0.0,0.0,0.0,0.0,0.0,0.0,0.027253668763102725,0.18503118503118504,0.07692307692307693,0.04365904365904366,0.012474012474012475,0.012474012474012475,0.014553014553014554,0.002079002079002079,0.0,0.006237006237006237,0.0,0.004158004158004158,0.002079002079002079,0.006237006237006237,0.018711018711018712,0.010395010395010396,0.014553014553014554,0.04158004158004158,0.02702702702702703,0.04158004158004158,0.4802494802494803,0.05405405405405406,0.008316008316008316,0.0,0.008316008316008316,0.004158004158004158,0.004158004158004158,0.004158004158004158,0.010395010395010396,0.002079002079002079,0.004158004158004158,0.002079002079002079,0.006237006237006237,0.008316008316008316,0.016632016632016633,0.016632016632016633,0.02286902286902287,0.037422037422037424,0.05405405405405406,0.06652806652806653,0.6694386694386695,0.008316008316008316,0.0,0.0,0.0,0.008316008316008316,0.0,0.002079002079002079,0.0,0.004158004158004158,0.002079002079002079,0.010395010395010396,0.010395010395010396,0.035343035343035345,0.037422037422037424,0.035343035343035345,0.05197505197505198,0.09147609147609148,0.08316008316008316,0.10810810810810811,0.5114345114345115,0.10187110187110188,0.1101871101871102,0.06860706860706861,0.056133056133056136,0.08316008316008316,0.033264033264033266,0.04573804573804574,0.04365904365904366,0.02494802494802495,0.031185031185031187,0.02702702702702703,0.014553014553014554,0.029106029106029108,0.02494802494802495,0.014553014553014554,0.02494802494802495,0.014553014553014554,0.02286902286902287,0.05197505197505198,0.17671517671517672,0.12474012474012475,0.2993762993762994,0.2182952182952183,0.12266112266112267,0.10187110187110188,0.06444906444906445,0.0395010395010395,0.016632016632016633,0.004158004158004158,0.0,0.0,0.0,0.0,0.0,0.0,0.0,0.0,0.0,0.0,0.008316008316008316,0.008316008316008316,0.09771309771309772,0.11642411642411643,0.12058212058212059,0.12681912681912683,0.0997920997920998,0.0997920997920998,0.07692307692307693,0.07068607068607069,0.06444906444906445,0.037422037422037424,0.04573804573804574,0.02079002079002079,0.008316008316008316,0.0,0.0,0.0,0.0,0.0,0.006237006237006237,0.012474012474012475,0.07484407484407485,0.09147609147609148,0.10187110187110188,0.13513513513513514,0.1101871101871102,0.12474012474012475,0.07484407484407485,0.07276507276507277,0.07692307692307693,0.05197505197505198,0.02079002079002079,0.02079002079002079,0.018711018711018712,0.012474012474012475,0.0,0.0,0.0,0.0,0.0,0.0,0.008316008316008316,0.02286902286902287,0.018711018711018712,0.02079002079002079,0.02286902286902287,0.05197505197505198,0.031185031185031187,0.035343035343035345,0.056133056133056136,0.06652806652806653,0.08316008316008316,0.079002079002079,0.07068607068607069,0.07692307692307693,0.05197505197505198,0.079002079002079,0.10602910602910603,0.07692307692307693,0.04158004158004158,0.02079002079002079,0.016632016632016633,0.002079002079002079,0.0,0.008316008316008316,0.010395010395010396,0.035343035343035345,0.0395010395010395,0.05197505197505198,0.060291060291060294,0.08108108108108109,0.14345114345114346,0.1288981288981289,0.10602910602910603,0.06444906444906445,0.09147609147609148,0.07484407484407485,0.05197505197505198,0.012474012474012475,0.0,0.0,0.0,0.0,0.0,0.0,0.002079002079002079,0.002079002079002079,0.004158004158004158,0.006237006237006237,0.018711018711018712,0.014553014553014554,0.012474012474012475,0.02286902286902287,0.016632016632016633,0.029106029106029108,0.02286902286902287,0.031185031185031187,0.12266112266112267,0.367983367983368,0.3264033264033264,0.0,0.0,0.0,0.0,0.0,0.0,0.0,0.0,0.0,0.0,0.002079002079002079,0.0,0.002079002079002079,0.004158004158004158,0.012474012474012475,0.02494802494802495,0.0395010395010395,0.14553014553014554,0.40332640332640335,0.3659043659043659,0.0,0.0,0.0,0.0,0.0,0.0,0.0,0.0,0.0,0.0,0.0,0.0,0.0,0.0,0.002079002079002079,0.006237006237006237,0.04365904365904366,0.10602910602910603,0.45322245322245325,0.3887733887733888,0.0,0.0,0.0,0.0,0.0,0.0,0.0,0.0,0.0,0.0,0.0,0.0,0.0,0.0,0.0,0.0,0.010395010395010396,0.08523908523908524,0.49272349272349275,0.41164241164241167,0.0,0.0,0.0,0.0,0.0,0.0,0.0,0.0,0.0,0.0,0.0,0.0,0.0,0.0,0.0,0.0,0.012474012474012475,0.09355509355509356,0.48232848232848236,0.41164241164241167,L24
0.9108910891089109,0.08168316831683169,0.0049504950495049506,0.0,0.0,0.0,0.0,0.0,0.0,0.0,0.0,0.0,0.0,0.0,0.0,0.0,0.0,0.0,0.0,0.0024752475247524753,0.6938325991189427,0.19162995594713655,0.05066079295154185,0.01762114537444934,0.004405286343612335,0.0,0.0,0.0,0.0,0.0,0.0,0.0,0.0,0.0,0.0022026431718061676,0.0,0.0,0.0,0.011013215859030838,0.028634361233480177,0.3,0.10869565217391304,0.04565217391304348,0.02608695652173913,0.015217391304347827,0.013043478260869565,0.013043478260869565,0.006521739130434782,0.002173913043478261,0.015217391304347827,0.008695652173913044,0.0,0.002173913043478261,0.004347826086956522,0.013043478260869565,0.008695652173913044,0.02826086956521739,0.02608695652173913,0.03260869565217391,0.33043478260869563,0.09307359307359307,0.05411255411255411,0.047619047619047616,0.012987012987012988,0.012987012987012988,0.006493506493506494,0.0021645021645021645,0.0021645021645021645,0.0,0.0,0.0021645021645021645,0.010822510822510822,0.0021645021645021645,0.015151515151515152,0.012987012987012988,0.025974025974025976,0.021645021645021644,0.05411255411255411,0.0735930735930736,0.5497835497835498,0.012987012987012988,0.006493506493506494,0.0021645021645021645,0.0,0.008658008658008658,0.017316017316017316,0.025974025974025976,0.02813852813852814,0.03463203463203463,0.015151515151515152,0.01948051948051948,0.030303030303030304,0.02813852813852814,0.032467532467532464,0.02813852813852814,0.03896103896103896,0.05194805194805195,0.09090909090909091,0.07575757575757576,0.4523809523809524,0.047619047619047616,0.1038961038961039,0.06926406926406926,0.09956709956709957,0.07575757575757576,0.06060606060606061,0.0735930735930736,0.04329004329004329,0.030303030303030304,0.04112554112554113,0.010822510822510822,0.023809523809523808,0.006493506493506494,0.015151515151515152,0.025974025974025976,0.023809523809523808,0.021645021645021644,0.025974025974025976,0.05844155844155844,0.14285714285714285,0.2619047619047619,0.37445887445887444,0.18181818181818182,0.0735930735930736,0.03463203463203463,0.021645021645021644,0.017316017316017316,0.010822510822510822,0.0021645021645021645,0.0,0.0,0.0,0.0,0.0,0.0,0.0,0.0,0.0,0.006493506493506494,0.015151515151515152,0.10606060606060606,0.17965367965367965,0.14502164502164502,0.13203463203463203,0.09090909090909091,0.07142857142857142,0.05194805194805195,0.049783549783549784,0.049783549783549784,0.06060606060606061,0.05844155844155844,0.0,0.0,0.0,0.0,0.0,0.0,0.0,0.0,0.004329004329004329,0.08658008658008658,0.21212121212121213,0.10822510822510822,0.11904761904761904,0.1645021645021645,0.11038961038961038,0.0670995670995671,0.03463203463203463,0.045454545454545456,0.025974025974025976,0.023809523809523808,0.0,0.0,0.0,0.0,0.0,0.0,0.0,0.0,0.0021645021645021645,0.05627705627705628,0.05844155844155844,0.02813852813852814,0.021645021645021644,0.025974025974025976,0.023809523809523808,0.045454545454545456,0.025974025974025976,0.047619047619047616,0.05844155844155844,0.05411255411255411,0.05627705627705628,0.047619047619047616,0.06060606060606061,0.03896103896103896,0.049783549783549784,0.047619047619047616,0.049783549783549784,0.08441558441558442,0.11904761904761904,0.06493506493506493,0.08658008658008658,0.06277056277056277,0.008658008658008658,0.0021645021645021645,0.0,0.0,0.0021645021645021645,0.006493506493506494,0.0021645021645021645,0.010822510822510822,0.008658008658008658,0.015151515151515152,0.010822510822510822,0.032467532467532464,0.05194805194805195,0.047619047619047616,0.13852813852813853,0.2012987012987013,0.24675324675324675,0.0,0.0,0.0,0.0,0.0,0.0,0.0,0.008658008658008658,0.004329004329004329,0.010822510822510822,0.006493506493506494,0.010822510822510822,0.02813852813852814,0.01948051948051948,0.03896103896103896,0.049783549783549784,0.07575757575757576,0.16017316017316016,0.24458874458874458,0.341991341991342,0.0,0.0,0.0,0.0,0.0,0.0,0.0,0.006493506493506494,0.006493506493506494,0.008658008658008658,0.0021645021645021645,0.017316017316017316,0.02813852813852814,0.01948051948051948,0.017316017316017316,0.032467532467532464,0.049783549783549784,0.14935064935064934,0.3181818181818182,0.34415584415584416,0.0,0.0,0.0,0.0,0.0,0.0,0.0,0.0,0.0,0.0,0.0,0.004329004329004329,0.008658008658008658,0.015151515151515152,0.017316017316017316,0.02813852813852814,0.045454545454545456,0.1038961038961039,0.36363636363636365,0.4134199134199134,0.0,0.0,0.0,0.0,0.0,0.0,0.0,0.0,0.0,0.0,0.0,0.0,0.0,0.0,0.0,0.012987012987012988,0.030303030303030304,0.10822510822510822,0.4805194805194805,0.36796536796536794,0.0,0.0,0.0,0.0,0.0,0.0,0.0,0.0,0.0,0.0,0.0,0.0,0.0,0.0,0.0,0.0,0.017316017316017316,0.12337662337662338,0.42424242424242425,0.43506493506493504,L24
0.8976190476190476,0.0880952380952381,0.002380952380952381,0.0,0.0,0.0,0.0,0.0,0.0,0.0,0.0,0.0,0.0,0.0,0.0,0.0,0.0,0.0,0.004761904761904762,0.007142857142857143,0.630901287553648,0.20386266094420602,0.0407725321888412,0.015021459227467811,0.006437768240343348,0.0,0.0,0.0,0.0,0.0,0.0,0.0,0.0,0.004291845493562232,0.002145922746781116,0.0,0.012875536480686695,0.004291845493562232,0.006437768240343348,0.07296137339055794,0.31063829787234043,0.10212765957446808,0.02553191489361702,0.014893617021276596,0.027659574468085105,0.00425531914893617,0.029787234042553193,0.014893617021276596,0.014893617021276596,0.01702127659574468,0.031914893617021274,0.036170212765957444,0.01276595744680851,0.01276595744680851,0.014893617021276596,0.019148936170212766,0.023404255319148935,0.02553191489361702,0.031914893617021274,0.2297872340425532,0.0425531914893617,0.019148936170212766,0.00851063829787234,0.006382978723404255,0.0,0.002127659574468085,0.002127659574468085,0.00851063829787234,0.010638297872340425,0.01276595744680851,0.010638297872340425,0.006382978723404255,0.00851063829787234,0.010638297872340425,0.027659574468085105,0.04468085106382979,0.04680851063829787,0.05531914893617021,0.07446808510638298,0.6021276595744681,0.006382978723404255,0.002127659574468085,0.0,0.0,0.0,0.002127659574468085,0.002127659574468085,0.002127659574468085,0.00851063829787234,0.00851063829787234,0.01276595744680851,0.02127659574468085,0.029787234042553193,0.027659574468085105,0.0574468085106383,0.07234042553191489,0.07872340425531915,0.08936170212765958,0.1148936170212766,0.46382978723404256,0.07659574468085106,0.2404255319148936,0.16170212765957448,0.07021276595744681,0.06170212765957447,0.03404255319148936,0.027659574468085105,0.02553191489361702,0.00851063829787234,0.01702127659574468,0.006382978723404255,0.014893617021276596,0.02127659574468085,0.01702127659574468,0.031914893617021274,0.027659574468085105,0.02553191489361702,0.04893617021276596,0.04042553191489362,0.0425531914893617,0.14042553191489363,0.26170212765957446,0.16595744680851063,0.1425531914893617,0.07234042553191489,0.06808510638297872,0.059574468085106386,0.03829787234042553,0.010638297872340425,0.01702127659574468,0.00425531914893617,0.0,0.0,0.0,0.0,0.0,0.0,0.0,0.00851063829787234,0.010638297872340425,0.1829787234042553,0.29148936170212764,0.19787234042553192,0.10425531914893617,0.11702127659574468,0.04680851063829787,0.04468085106382979,0.002127659574468085,0.006382978723404255,0.0,0.0,0.0,0.0,0.0,0.0,0.0,0.0,0.0,0.0,0.006382978723404255,0.05106382978723404,0.07872340425531915,0.0851063829787234,0.08297872340425531,0.125531914893617,0.12340425531914893,0.11702127659574468,0.0574468085106383,0.09148936170212765,0.10212765957446808,0.04680851063829787,0.029787234042553193,0.006382978723404255,0.002127659574468085,0.0,0.0,0.0,0.0,0.0,0.0,0.03829787234042553,0.07659574468085106,0.03404255319148936,0.02553191489361702,0.023404255319148935,0.01702127659574468,0.00851063829787234,0.01276595744680851,0.006382978723404255,0.006382978723404255,0.029787234042553193,0.027659574468085105,0.04893617021276596,0.06595744680851064,0.06382978723404255,0.07872340425531915,0.08085106382978724,0.06595744680851064,0.08297872340425531,0.20638297872340425,0.002127659574468085,0.00851063829787234,0.00425531914893617,0.01702127659574468,0.014893617021276596,0.010638297872340425,0.029787234042553193,0.031914893617021274,0.01276595744680851,0.01702127659574468,0.02127659574468085,0.019148936170212766,0.01702127659574468,0.029787234042553193,0.02553191489361702,0.023404255319148935,0.05531914893617021,0.11063829787234042,0.225531914893617,0.32340425531914896,0.0,0.0,0.0,0.0,0.0,0.006382978723404255,0.01276595744680851,0.010638297872340425,0.014893617021276596,0.00425531914893617,0.010638297872340425,0.01702127659574468,0.00425531914893617,0.014893617021276596,0.02127659574468085,0.03829787234042553,0.06808510638297872,0.16382978723404254,0.2680851063829787,0.3446808510638298,0.0,0.0,0.0,0.0,0.0,0.0,0.0,0.002127659574468085,0.0,0.0,0.002127659574468085,0.00851063829787234,0.00851063829787234,0.01702127659574468,0.014893617021276596,0.014893617021276596,0.05319148936170213,0.12978723404255318,0.35319148936170214,0.39574468085106385,0.0,0.0,0.0,0.0,0.0,0.0,0.0,0.0,0.0,0.0,0.0,0.0,0.0,0.0,0.0,0.002127659574468085,0.00851063829787234,0.10638297872340426,0.5234042553191489,0.3595744680851064,0.0,0.0,0.0,0.0,0.0,0.0,0.0,0.0,0.0,0.0,0.0,0.0,0.002127659574468085,0.0,0.0,0.0,0.023404255319148935,0.15319148936170213,0.42340425531914894,0.39787234042553193,0.0,0.0,0.0,0.0,0.0,0.0,0.0,0.0,0.0,0.0,0.0,0.0,0.0,0.0,0.0,0.0,0.00851063829787234,0.07872340425531915,0.5170212765957447,0.39574468085106385,L24
