@RELATION B12345-S04568distLZ
@ATTRIBUTE f1 REAL
@ATTRIBUTE f2 REAL
@ATTRIBUTE f3 REAL
@ATTRIBUTE f4 REAL
@ATTRIBUTE f5 REAL
@ATTRIBUTE f6 REAL
@ATTRIBUTE f7 REAL
@ATTRIBUTE f8 REAL
@ATTRIBUTE f9 REAL
@ATTRIBUTE f10 REAL
@ATTRIBUTE f11 REAL
@ATTRIBUTE f12 REAL
@ATTRIBUTE f13 REAL
@ATTRIBUTE f14 REAL
@ATTRIBUTE f15 REAL
@ATTRIBUTE f16 REAL
@ATTRIBUTE f17 REAL
@ATTRIBUTE f18 REAL
@ATTRIBUTE f19 REAL
@ATTRIBUTE f20 REAL
@ATTRIBUTE f21 REAL
@ATTRIBUTE f22 REAL
@ATTRIBUTE f23 REAL
@ATTRIBUTE f24 REAL
@ATTRIBUTE f25 REAL
@ATTRIBUTE f26 REAL
@ATTRIBUTE f27 REAL
@ATTRIBUTE f28 REAL
@ATTRIBUTE f29 REAL
@ATTRIBUTE f30 REAL
@ATTRIBUTE f31 REAL
@ATTRIBUTE f32 REAL
@ATTRIBUTE f33 REAL
@ATTRIBUTE f34 REAL
@ATTRIBUTE f35 REAL
@ATTRIBUTE f36 REAL
@ATTRIBUTE f37 REAL
@ATTRIBUTE f38 REAL
@ATTRIBUTE f39 REAL
@ATTRIBUTE f40 REAL
@ATTRIBUTE f41 REAL
@ATTRIBUTE f42 REAL
@ATTRIBUTE f43 REAL
@ATTRIBUTE f44 REAL
@ATTRIBUTE f45 REAL
@ATTRIBUTE f46 REAL
@ATTRIBUTE f47 REAL
@ATTRIBUTE f48 REAL
@ATTRIBUTE f49 REAL
@ATTRIBUTE f50 REAL
@ATTRIBUTE f51 REAL
@ATTRIBUTE f52 REAL
@ATTRIBUTE f53 REAL
@ATTRIBUTE f54 REAL
@ATTRIBUTE f55 REAL
@ATTRIBUTE f56 REAL
@ATTRIBUTE f57 REAL
@ATTRIBUTE f58 REAL
@ATTRIBUTE f59 REAL
@ATTRIBUTE f60 REAL
@ATTRIBUTE f61 REAL
@ATTRIBUTE f62 REAL
@ATTRIBUTE f63 REAL
@ATTRIBUTE f64 REAL
@ATTRIBUTE f65 REAL
@ATTRIBUTE f66 REAL
@ATTRIBUTE f67 REAL
@ATTRIBUTE f68 REAL
@ATTRIBUTE f69 REAL
@ATTRIBUTE f70 REAL
@ATTRIBUTE f71 REAL
@ATTRIBUTE f72 REAL
@ATTRIBUTE f73 REAL
@ATTRIBUTE f74 REAL
@ATTRIBUTE f75 REAL
@ATTRIBUTE f76 REAL
@ATTRIBUTE f77 REAL
@ATTRIBUTE f78 REAL
@ATTRIBUTE f79 REAL
@ATTRIBUTE f80 REAL
@ATTRIBUTE f81 REAL
@ATTRIBUTE f82 REAL
@ATTRIBUTE f83 REAL
@ATTRIBUTE f84 REAL
@ATTRIBUTE f85 REAL
@ATTRIBUTE f86 REAL
@ATTRIBUTE f87 REAL
@ATTRIBUTE f88 REAL
@ATTRIBUTE f89 REAL
@ATTRIBUTE f90 REAL
@ATTRIBUTE f91 REAL
@ATTRIBUTE f92 REAL
@ATTRIBUTE f93 REAL
@ATTRIBUTE f94 REAL
@ATTRIBUTE f95 REAL
@ATTRIBUTE f96 REAL
@ATTRIBUTE f97 REAL
@ATTRIBUTE f98 REAL
@ATTRIBUTE f99 REAL
@ATTRIBUTE f100 REAL
@ATTRIBUTE f101 REAL
@ATTRIBUTE f102 REAL
@ATTRIBUTE f103 REAL
@ATTRIBUTE f104 REAL
@ATTRIBUTE f105 REAL
@ATTRIBUTE f106 REAL
@ATTRIBUTE f107 REAL
@ATTRIBUTE f108 REAL
@ATTRIBUTE f109 REAL
@ATTRIBUTE f110 REAL
@ATTRIBUTE f111 REAL
@ATTRIBUTE f112 REAL
@ATTRIBUTE f113 REAL
@ATTRIBUTE f114 REAL
@ATTRIBUTE f115 REAL
@ATTRIBUTE f116 REAL
@ATTRIBUTE f117 REAL
@ATTRIBUTE f118 REAL
@ATTRIBUTE f119 REAL
@ATTRIBUTE f120 REAL
@ATTRIBUTE f121 REAL
@ATTRIBUTE f122 REAL
@ATTRIBUTE f123 REAL
@ATTRIBUTE f124 REAL
@ATTRIBUTE f125 REAL
@ATTRIBUTE f126 REAL
@ATTRIBUTE f127 REAL
@ATTRIBUTE f128 REAL
@ATTRIBUTE f129 REAL
@ATTRIBUTE f130 REAL
@ATTRIBUTE f131 REAL
@ATTRIBUTE f132 REAL
@ATTRIBUTE f133 REAL
@ATTRIBUTE f134 REAL
@ATTRIBUTE f135 REAL
@ATTRIBUTE f136 REAL
@ATTRIBUTE f137 REAL
@ATTRIBUTE f138 REAL
@ATTRIBUTE f139 REAL
@ATTRIBUTE f140 REAL
@ATTRIBUTE f141 REAL
@ATTRIBUTE f142 REAL
@ATTRIBUTE f143 REAL
@ATTRIBUTE f144 REAL
@ATTRIBUTE f145 REAL
@ATTRIBUTE f146 REAL
@ATTRIBUTE f147 REAL
@ATTRIBUTE f148 REAL
@ATTRIBUTE f149 REAL
@ATTRIBUTE f150 REAL
@ATTRIBUTE f151 REAL
@ATTRIBUTE f152 REAL
@ATTRIBUTE f153 REAL
@ATTRIBUTE f154 REAL
@ATTRIBUTE f155 REAL
@ATTRIBUTE f156 REAL
@ATTRIBUTE f157 REAL
@ATTRIBUTE f158 REAL
@ATTRIBUTE f159 REAL
@ATTRIBUTE f160 REAL
@ATTRIBUTE f161 REAL
@ATTRIBUTE f162 REAL
@ATTRIBUTE f163 REAL
@ATTRIBUTE f164 REAL
@ATTRIBUTE f165 REAL
@ATTRIBUTE f166 REAL
@ATTRIBUTE f167 REAL
@ATTRIBUTE f168 REAL
@ATTRIBUTE f169 REAL
@ATTRIBUTE f170 REAL
@ATTRIBUTE f171 REAL
@ATTRIBUTE f172 REAL
@ATTRIBUTE f173 REAL
@ATTRIBUTE f174 REAL
@ATTRIBUTE f175 REAL
@ATTRIBUTE f176 REAL
@ATTRIBUTE f177 REAL
@ATTRIBUTE f178 REAL
@ATTRIBUTE f179 REAL
@ATTRIBUTE f180 REAL
@ATTRIBUTE f181 REAL
@ATTRIBUTE f182 REAL
@ATTRIBUTE f183 REAL
@ATTRIBUTE f184 REAL
@ATTRIBUTE f185 REAL
@ATTRIBUTE f186 REAL
@ATTRIBUTE f187 REAL
@ATTRIBUTE f188 REAL
@ATTRIBUTE f189 REAL
@ATTRIBUTE f190 REAL
@ATTRIBUTE f191 REAL
@ATTRIBUTE f192 REAL
@ATTRIBUTE f193 REAL
@ATTRIBUTE f194 REAL
@ATTRIBUTE f195 REAL
@ATTRIBUTE f196 REAL
@ATTRIBUTE f197 REAL
@ATTRIBUTE f198 REAL
@ATTRIBUTE f199 REAL
@ATTRIBUTE f200 REAL
@ATTRIBUTE f201 REAL
@ATTRIBUTE f202 REAL
@ATTRIBUTE f203 REAL
@ATTRIBUTE f204 REAL
@ATTRIBUTE f205 REAL
@ATTRIBUTE f206 REAL
@ATTRIBUTE f207 REAL
@ATTRIBUTE f208 REAL
@ATTRIBUTE f209 REAL
@ATTRIBUTE f210 REAL
@ATTRIBUTE f211 REAL
@ATTRIBUTE f212 REAL
@ATTRIBUTE f213 REAL
@ATTRIBUTE f214 REAL
@ATTRIBUTE f215 REAL
@ATTRIBUTE f216 REAL
@ATTRIBUTE f217 REAL
@ATTRIBUTE f218 REAL
@ATTRIBUTE f219 REAL
@ATTRIBUTE f220 REAL
@ATTRIBUTE f221 REAL
@ATTRIBUTE f222 REAL
@ATTRIBUTE f223 REAL
@ATTRIBUTE f224 REAL
@ATTRIBUTE f225 REAL
@ATTRIBUTE f226 REAL
@ATTRIBUTE f227 REAL
@ATTRIBUTE f228 REAL
@ATTRIBUTE f229 REAL
@ATTRIBUTE f230 REAL
@ATTRIBUTE f231 REAL
@ATTRIBUTE f232 REAL
@ATTRIBUTE f233 REAL
@ATTRIBUTE f234 REAL
@ATTRIBUTE f235 REAL
@ATTRIBUTE f236 REAL
@ATTRIBUTE f237 REAL
@ATTRIBUTE f238 REAL
@ATTRIBUTE f239 REAL
@ATTRIBUTE f240 REAL
@ATTRIBUTE f241 REAL
@ATTRIBUTE f242 REAL
@ATTRIBUTE f243 REAL
@ATTRIBUTE f244 REAL
@ATTRIBUTE f245 REAL
@ATTRIBUTE f246 REAL
@ATTRIBUTE f247 REAL
@ATTRIBUTE f248 REAL
@ATTRIBUTE f249 REAL
@ATTRIBUTE f250 REAL
@ATTRIBUTE f251 REAL
@ATTRIBUTE f252 REAL
@ATTRIBUTE f253 REAL
@ATTRIBUTE f254 REAL
@ATTRIBUTE f255 REAL
@ATTRIBUTE f256 REAL
@ATTRIBUTE f257 REAL
@ATTRIBUTE f258 REAL
@ATTRIBUTE f259 REAL
@ATTRIBUTE f260 REAL
@ATTRIBUTE f261 REAL
@ATTRIBUTE f262 REAL
@ATTRIBUTE f263 REAL
@ATTRIBUTE f264 REAL
@ATTRIBUTE f265 REAL
@ATTRIBUTE f266 REAL
@ATTRIBUTE f267 REAL
@ATTRIBUTE f268 REAL
@ATTRIBUTE f269 REAL
@ATTRIBUTE f270 REAL
@ATTRIBUTE f271 REAL
@ATTRIBUTE f272 REAL
@ATTRIBUTE f273 REAL
@ATTRIBUTE f274 REAL
@ATTRIBUTE f275 REAL
@ATTRIBUTE f276 REAL
@ATTRIBUTE f277 REAL
@ATTRIBUTE f278 REAL
@ATTRIBUTE f279 REAL
@ATTRIBUTE f280 REAL
@ATTRIBUTE f281 REAL
@ATTRIBUTE f282 REAL
@ATTRIBUTE f283 REAL
@ATTRIBUTE f284 REAL
@ATTRIBUTE f285 REAL
@ATTRIBUTE f286 REAL
@ATTRIBUTE f287 REAL
@ATTRIBUTE f288 REAL
@ATTRIBUTE f289 REAL
@ATTRIBUTE f290 REAL
@ATTRIBUTE f291 REAL
@ATTRIBUTE f292 REAL
@ATTRIBUTE f293 REAL
@ATTRIBUTE f294 REAL
@ATTRIBUTE f295 REAL
@ATTRIBUTE f296 REAL
@ATTRIBUTE f297 REAL
@ATTRIBUTE f298 REAL
@ATTRIBUTE f299 REAL
@ATTRIBUTE f300 REAL
@ATTRIBUTE f301 REAL
@ATTRIBUTE f302 REAL
@ATTRIBUTE f303 REAL
@ATTRIBUTE f304 REAL
@ATTRIBUTE f305 REAL
@ATTRIBUTE f306 REAL
@ATTRIBUTE f307 REAL
@ATTRIBUTE f308 REAL
@ATTRIBUTE f309 REAL
@ATTRIBUTE f310 REAL
@ATTRIBUTE f311 REAL
@ATTRIBUTE f312 REAL
@ATTRIBUTE f313 REAL
@ATTRIBUTE f314 REAL
@ATTRIBUTE f315 REAL
@ATTRIBUTE f316 REAL
@ATTRIBUTE f317 REAL
@ATTRIBUTE f318 REAL
@ATTRIBUTE f319 REAL
@ATTRIBUTE f320 REAL
@ATTRIBUTE class {NAT,L4,L24}
@DATA
0.8507936507936508,0.14285714285714285,0.0,0.0,0.006349206349206349,0.0,0.0,0.0,0.0,0.0,0.0,0.0,0.0,0.0,0.0,0.0,0.0,0.0,0.0,0.0,0.5771276595744681,0.38563829787234044,0.0,0.0,0.007978723404255319,0.0,0.013297872340425532,0.0,0.015957446808510637,0.0,0.0,0.0,0.0,0.0,0.0,0.0,0.0,0.0,0.0,0.0,0.33418367346938777,0.4770408163265306,0.04846938775510204,0.02040816326530612,0.030612244897959183,0.017857142857142856,0.017857142857142856,0.00510204081632653,0.002551020408163265,0.00510204081632653,0.012755102040816327,0.02040816326530612,0.007653061224489796,0.0,0.0,0.0,0.0,0.0,0.0,0.0,0.10406091370558376,0.18274111675126903,0.048223350253807105,0.027918781725888325,0.04568527918781726,0.03553299492385787,0.007614213197969543,0.007614213197969543,0.02030456852791878,0.025380710659898477,0.02030456852791878,0.017766497461928935,0.0532994923857868,0.04568527918781726,0.03807106598984772,0.05583756345177665,0.19796954314720813,0.06598984771573604,0.0,0.0,0.02284263959390863,0.06345177664974619,0.0025380710659898475,0.0,0.0,0.0,0.0,0.0,0.005076142131979695,0.005076142131979695,0.01015228426395939,0.03299492385786802,0.03299492385786802,0.048223350253807105,0.09390862944162437,0.1649746192893401,0.41624365482233505,0.10152284263959391,0.0,0.0,0.01015228426395939,0.005076142131979695,0.005076142131979695,0.0,0.0,0.007614213197969543,0.0025380710659898475,0.015228426395939087,0.048223350253807105,0.06345177664974619,0.1065989847715736,0.12436548223350254,0.13451776649746192,0.1319796954314721,0.14720812182741116,0.08883248730964467,0.09644670050761421,0.012690355329949238,0.0,0.0,0.017766497461928935,0.18781725888324874,0.2131979695431472,0.22081218274111675,0.11928934010152284,0.10406091370558376,0.04060913705583756,0.02284263959390863,0.02030456852791878,0.025380710659898477,0.005076142131979695,0.0025380710659898475,0.012690355329949238,0.007614213197969543,0.0,0.0,0.0,0.0,0.0,0.0,0.050761421319796954,0.49746192893401014,0.19543147208121828,0.14213197969543148,0.05583756345177665,0.012690355329949238,0.015228426395939087,0.0025380710659898475,0.0025380710659898475,0.0025380710659898475,0.007614213197969543,0.005076142131979695,0.005076142131979695,0.005076142131979695,0.0,0.0,0.0,0.0,0.0,0.0,0.015228426395939087,0.20304568527918782,0.4720812182741117,0.26903553299492383,0.03299492385786802,0.0025380710659898475,0.005076142131979695,0.0,0.0,0.0,0.0,0.0,0.0,0.0,0.0,0.0,0.0,0.0,0.0,0.0,0.03807106598984772,0.29949238578680204,0.30710659898477155,0.2918781725888325,0.0583756345177665,0.005076142131979695,0.0,0.0,0.0,0.0,0.0,0.0,0.0,0.0,0.0,0.0,0.0,0.0,0.0,0.0,0.0025380710659898475,0.08629441624365482,0.11928934010152284,0.13959390862944163,0.1319796954314721,0.14974619289340102,0.1598984771573604,0.15228426395939088,0.0532994923857868,0.005076142131979695,0.0,0.0,0.0,0.0,0.0,0.0,0.0,0.0,0.0,0.0,0.0,0.0,0.02030456852791878,0.1218274111675127,0.12690355329949238,0.22081218274111675,0.34517766497461927,0.15736040609137056,0.007614213197969543,0.0,0.0,0.0,0.0,0.0,0.0,0.0,0.0,0.0,0.0,0.0,0.0,0.0,0.0,0.0,0.0,0.01015228426395939,0.02030456852791878,0.050761421319796954,0.07360406091370558,0.09644670050761421,0.06091370558375635,0.07360406091370558,0.10913705583756345,0.12690355329949238,0.15736040609137056,0.13451776649746192,0.08629441624365482,0.0,0.0,0.0,0.0,0.0,0.0,0.0,0.0,0.0,0.0,0.0,0.0,0.0,0.02030456852791878,0.030456852791878174,0.08375634517766498,0.10152284263959391,0.15736040609137056,0.3756345177664975,0.23096446700507614,0.0,0.0,0.0,0.0,0.0,0.0,0.0,0.0,0.0,0.0,0.0,0.0,0.0,0.0,0.007614213197969543,0.01015228426395939,0.025380710659898477,0.1598984771573604,0.4796954314720812,0.3147208121827411,0.0025380710659898475,0.0,0.0,0.0,0.0,0.0,0.0,0.0,0.0,0.0,0.0,0.0,0.0,0.0,0.0,0.0,0.027918781725888325,0.15736040609137056,0.46954314720812185,0.3426395939086294,0.0025380710659898475,0.0,0.0,NAT
0.8248407643312102,0.1624203821656051,0.006369426751592357,0.0,0.006369426751592357,0.0,0.0,0.0,0.0,0.0,0.0,0.0,0.0,0.0,0.0,0.0,0.0,0.0,0.0,0.0,0.5584415584415584,0.4,0.005194805194805195,0.0,0.01818181818181818,0.005194805194805195,0.012987012987012988,0.0,0.0,0.0,0.0,0.0,0.0,0.0,0.0,0.0,0.0,0.0,0.0,0.0,0.30730478589420657,0.5188916876574308,0.12342569269521411,0.02518891687657431,0.007556675062972292,0.005037783375314861,0.007556675062972292,0.005037783375314861,0.0,0.0,0.0,0.0,0.0,0.0,0.0,0.0,0.0,0.0,0.0,0.0,0.09045226130653267,0.2236180904522613,0.09296482412060302,0.0728643216080402,0.022613065326633167,0.05025125628140704,0.04020100502512563,0.05527638190954774,0.005025125628140704,0.01507537688442211,0.010050251256281407,0.01507537688442211,0.020100502512562814,0.017587939698492462,0.022613065326633167,0.05527638190954774,0.13316582914572864,0.05778894472361809,0.0,0.0,0.03015075376884422,0.052763819095477386,0.005025125628140704,0.005025125628140704,0.0,0.005025125628140704,0.005025125628140704,0.0,0.017587939698492462,0.032663316582914576,0.020100502512562814,0.01256281407035176,0.02763819095477387,0.04271356783919598,0.08793969849246232,0.10301507537688442,0.44472361809045224,0.10804020100502512,0.0,0.0,0.0,0.0,0.0,0.0,0.0,0.007537688442211055,0.010050251256281407,0.007537688442211055,0.01507537688442211,0.03768844221105527,0.09547738693467336,0.07788944723618091,0.15829145728643215,0.13819095477386933,0.13316582914572864,0.1708542713567839,0.135678391959799,0.01256281407035176,0.0,0.0,0.010050251256281407,0.2562814070351759,0.33668341708542715,0.25879396984924624,0.07788944723618091,0.05025125628140704,0.005025125628140704,0.0,0.0,0.005025125628140704,0.0,0.0,0.0,0.0,0.0,0.0,0.0,0.0,0.0,0.0,0.09045226130653267,0.6080402010050251,0.2562814070351759,0.03015075376884422,0.0,0.0,0.0,0.0,0.0,0.002512562814070352,0.002512562814070352,0.002512562814070352,0.007537688442211055,0.0,0.0,0.0,0.0,0.0,0.0,0.0,0.06281407035175879,0.6206030150753769,0.1934673366834171,0.11055276381909548,0.002512562814070352,0.0,0.002512562814070352,0.0,0.0,0.005025125628140704,0.002512562814070352,0.0,0.0,0.0,0.0,0.0,0.0,0.0,0.0,0.0,0.04020100502512563,0.42462311557788945,0.23618090452261306,0.2236180904522613,0.07537688442211055,0.0,0.0,0.0,0.0,0.0,0.0,0.0,0.0,0.0,0.0,0.0,0.0,0.0,0.0,0.0,0.0,0.010050251256281407,0.017587939698492462,0.04271356783919598,0.03768844221105527,0.04522613065326633,0.05025125628140704,0.04773869346733668,0.052763819095477386,0.0728643216080402,0.0829145728643216,0.12060301507537688,0.15326633165829145,0.13316582914572864,0.10552763819095477,0.02763819095477387,0.0,0.0,0.0,0.0,0.0,0.03015075376884422,0.09045226130653267,0.1884422110552764,0.32663316582914576,0.32160804020100503,0.035175879396984924,0.0,0.0,0.005025125628140704,0.002512562814070352,0.0,0.0,0.0,0.0,0.0,0.0,0.0,0.0,0.0,0.0,0.02512562814070352,0.020100502512562814,0.022613065326633167,0.0678391959798995,0.12562814070351758,0.17839195979899497,0.17336683417085427,0.15577889447236182,0.16080402010050251,0.07035175879396985,0.0,0.0,0.0,0.0,0.0,0.0,0.0,0.0,0.0,0.0,0.0,0.0,0.0,0.0,0.0,0.0,0.0,0.0,0.0,0.0,0.007537688442211055,0.03015075376884422,0.06532663316582915,0.1658291457286432,0.44974874371859297,0.2814070351758794,0.0,0.0,0.0,0.0,0.0,0.0,0.0,0.0,0.0,0.0,0.0,0.0,0.0,0.0,0.0,0.002512562814070352,0.04522613065326633,0.17587939698492464,0.47738693467336685,0.2964824120603015,0.002512562814070352,0.0,0.0,0.0,0.0,0.0,0.0,0.0,0.0,0.0,0.0,0.0,0.0,0.0,0.0,0.0,0.022613065326633167,0.0829145728643216,0.5025125628140703,0.3844221105527638,0.007537688442211055,0.0,0.0,NAT
0.7981651376146789,0.2018348623853211,0.0,0.0,0.0,0.0,0.0,0.0,0.0,0.0,0.0,0.0,0.0,0.0,0.0,0.0,0.0,0.0,0.0,0.0,0.5803108808290155,0.3756476683937824,0.015544041450777202,0.0,0.007772020725388601,0.0,0.015544041450777202,0.0,0.0051813471502590676,0.0,0.0,0.0,0.0,0.0,0.0,0.0,0.0,0.0,0.0,0.0,0.2731829573934837,0.44862155388471175,0.09774436090225563,0.017543859649122806,0.002506265664160401,0.002506265664160401,0.007518796992481203,0.002506265664160401,0.015037593984962405,0.005012531328320802,0.010025062656641603,0.02756892230576441,0.015037593984962405,0.020050125313283207,0.02756892230576441,0.02756892230576441,0.0,0.0,0.0,0.0,0.1125,0.215,0.0425,0.0325,0.0075,0.01,0.0075,0.015,0.0075,0.015,0.0125,0.01,0.0275,0.0575,0.04,0.0875,0.22,0.08,0.0,0.0,0.007481296758104738,0.014962593516209476,0.00997506234413965,0.0024937655860349127,0.004987531172069825,0.02743142144638404,0.007481296758104738,0.0024937655860349127,0.007481296758104738,0.004987531172069825,0.012468827930174564,0.02493765586034913,0.02493765586034913,0.06234413965087282,0.09725685785536159,0.12468827930174564,0.4513715710723192,0.11221945137157108,0.0,0.0,0.0024937655860349127,0.0024937655860349127,0.0,0.0,0.0,0.0024937655860349127,0.004987531172069825,0.017456359102244388,0.022443890274314215,0.04987531172069826,0.059850374064837904,0.08478802992518704,0.12219451371571072,0.12219451371571072,0.17206982543640897,0.1596009975062344,0.14463840399002495,0.032418952618453865,0.0,0.0,0.02743142144638404,0.3566084788029925,0.18453865336658354,0.14713216957605985,0.08728179551122195,0.10224438902743142,0.05236907730673317,0.0024937655860349127,0.012468827930174564,0.0024937655860349127,0.0,0.012468827930174564,0.0,0.004987531172069825,0.007481296758104738,0.0,0.0,0.0,0.0,0.0,0.09476309226932668,0.5586034912718204,0.2144638403990025,0.1172069825436409,0.0024937655860349127,0.0,0.0,0.012468827930174564,0.0,0.0,0.0,0.0,0.0,0.0,0.0,0.0,0.0,0.0,0.0,0.0,0.029925187032418952,0.40648379052369077,0.26932668329177056,0.24438902743142144,0.034912718204488775,0.00997506234413965,0.004987531172069825,0.0,0.0,0.0,0.0,0.0,0.0,0.0,0.0,0.0,0.0,0.0,0.0,0.0,0.022443890274314215,0.4314214463840399,0.29925187032418954,0.24189526184538654,0.0024937655860349127,0.0024937655860349127,0.0,0.0,0.0,0.0,0.0,0.0,0.0,0.0,0.0,0.0,0.0,0.0,0.0,0.0,0.004987531172069825,0.1172069825436409,0.29177057356608477,0.23690773067331672,0.10224438902743142,0.13216957605985039,0.09975062344139651,0.014962593516209476,0.0,0.0,0.0,0.0,0.0,0.0,0.0,0.0,0.0,0.0,0.0,0.0,0.0,0.0,0.0,0.0,0.004987531172069825,0.004987531172069825,0.04488778054862843,0.029925187032418952,0.08728179551122195,0.12967581047381546,0.14713216957605985,0.12468827930174564,0.08977556109725686,0.08229426433915212,0.10473815461346633,0.12468827930174564,0.02493765586034913,0.0,0.0,0.0,0.0,0.0024937655860349127,0.0024937655860349127,0.07231920199501247,0.39650872817955113,0.46384039900249374,0.06234413965087282,0.0,0.0,0.0,0.0,0.0,0.0,0.0,0.0,0.0,0.0,0.0,0.0,0.0,0.0,0.0,0.0,0.0,0.0,0.0,0.0,0.0,0.0,0.0,0.0024937655860349127,0.017456359102244388,0.032418952618453865,0.07481296758104738,0.2518703241895262,0.4513715710723192,0.16458852867830423,0.004987531172069825,0.0,0.0,0.0,0.0,0.0,0.0,0.0,0.0,0.0,0.0,0.0,0.0,0.0,0.0,0.0,0.0199501246882793,0.11471321695760599,0.4713216957605985,0.38403990024937656,0.00997506234413965,0.0,0.0,0.0,0.0,0.0,0.0,0.0,0.0,0.0,0.0,0.0,0.0,0.0,0.0024937655860349127,0.0,0.02743142144638404,0.12967581047381546,0.5211970074812967,0.3117206982543641,0.007481296758104738,0.0,0.0,NAT
0.8271604938271605,0.1697530864197531,0.0,0.0,0.0030864197530864196,0.0,0.0,0.0,0.0,0.0,0.0,0.0,0.0,0.0,0.0,0.0,0.0,0.0,0.0,0.0,0.6195372750642674,0.34704370179948585,0.010282776349614395,0.0,0.012853470437017995,0.005141388174807198,0.002570694087403599,0.002570694087403599,0.0,0.0,0.0,0.0,0.0,0.0,0.0,0.0,0.0,0.0,0.0,0.0,0.30402010050251255,0.40954773869346733,0.09296482412060302,0.01507537688442211,0.002512562814070352,0.002512562814070352,0.03015075376884422,0.04020100502512563,0.017587939698492462,0.010050251256281407,0.007537688442211055,0.01507537688442211,0.005025125628140704,0.005025125628140704,0.010050251256281407,0.017587939698492462,0.010050251256281407,0.005025125628140704,0.0,0.0,0.12030075187969924,0.24060150375939848,0.07518796992481203,0.017543859649122806,0.012531328320802004,0.0,0.0,0.007518796992481203,0.002506265664160401,0.007518796992481203,0.010025062656641603,0.015037593984962405,0.020050125313283207,0.03007518796992481,0.042606516290726815,0.08020050125313283,0.23057644110275688,0.08771929824561403,0.0,0.0,0.03258145363408521,0.040100250626566414,0.017543859649122806,0.005012531328320802,0.0,0.0,0.0,0.010025062656641603,0.002506265664160401,0.002506265664160401,0.012531328320802004,0.002506265664160401,0.03007518796992481,0.047619047619047616,0.10025062656641603,0.15538847117794485,0.42606516290726815,0.11528822055137844,0.0,0.0,0.007518796992481203,0.020050125313283207,0.007518796992481203,0.002506265664160401,0.012531328320802004,0.007518796992481203,0.03007518796992481,0.02506265664160401,0.03007518796992481,0.07268170426065163,0.10526315789473684,0.09774436090225563,0.09523809523809523,0.09022556390977443,0.11027568922305764,0.07769423558897243,0.15789473684210525,0.05012531328320802,0.0,0.0,0.03258145363408521,0.2731829573934837,0.13784461152882205,0.11278195488721804,0.08771929824561403,0.15288220551378445,0.14786967418546365,0.05012531328320802,0.005012531328320802,0.0,0.0,0.0,0.0,0.0,0.0,0.0,0.0,0.0,0.0,0.0,0.07017543859649122,0.6115288220551378,0.24310776942355888,0.03759398496240601,0.012531328320802004,0.005012531328320802,0.0,0.007518796992481203,0.0,0.005012531328320802,0.002506265664160401,0.005012531328320802,0.0,0.0,0.0,0.0,0.0,0.0,0.0,0.0,0.03759398496240601,0.42355889724310775,0.17794486215538846,0.16791979949874686,0.05263157894736842,0.08270676691729323,0.05263157894736842,0.005012531328320802,0.0,0.0,0.0,0.0,0.0,0.0,0.0,0.0,0.0,0.0,0.0,0.0,0.02756892230576441,0.2581453634085213,0.37593984962406013,0.3333333333333333,0.005012531328320802,0.0,0.0,0.0,0.0,0.0,0.0,0.0,0.0,0.0,0.0,0.0,0.0,0.0,0.0,0.0,0.0,0.05513784461152882,0.17042606516290726,0.6015037593984962,0.16290726817042606,0.010025062656641603,0.0,0.0,0.0,0.0,0.0,0.0,0.0,0.0,0.0,0.0,0.0,0.0,0.0,0.0,0.0,0.042606516290726815,0.16791979949874686,0.48370927318295737,0.24310776942355888,0.045112781954887216,0.012531328320802004,0.002506265664160401,0.002506265664160401,0.0,0.0,0.0,0.0,0.0,0.0,0.0,0.0,0.0,0.0,0.0,0.0,0.0,0.0,0.0,0.0,0.0,0.010025062656641603,0.015037593984962405,0.07017543859649122,0.11779448621553884,0.07518796992481203,0.06516290726817042,0.09022556390977443,0.13283208020050125,0.14285714285714285,0.22807017543859648,0.05263157894736842,0.0,0.0,0.0,0.0,0.0,0.0,0.0,0.0,0.0,0.005012531328320802,0.002506265664160401,0.012531328320802004,0.042606516290726815,0.02756892230576441,0.03258145363408521,0.05263157894736842,0.07268170426065163,0.16040100250626566,0.40852130325814534,0.18295739348370926,0.0,0.0,0.0,0.0,0.0,0.0,0.0,0.0,0.0,0.0,0.0,0.0,0.007518796992481203,0.03258145363408521,0.05012531328320802,0.06516290726817042,0.09273182957393483,0.14536340852130325,0.39598997493734334,0.20802005012531327,0.002506265664160401,0.0,0.0,0.0,0.0,0.0,0.0,0.0,0.0,0.0,0.0,0.0,0.0,0.0,0.0,0.0,0.010025062656641603,0.08020050125313283,0.46115288220551376,0.43859649122807015,0.010025062656641603,0.0,0.0,NAT
0.7854251012145749,0.1902834008097166,0.0,0.0,0.012145748987854251,0.0,0.012145748987854251,0.0,0.0,0.0,0.0,0.0,0.0,0.0,0.0,0.0,0.0,0.0,0.0,0.0,0.6816816816816816,0.30930930930930933,0.0,0.0,0.009009009009009009,0.0,0.0,0.0,0.0,0.0,0.0,0.0,0.0,0.0,0.0,0.0,0.0,0.0,0.0,0.0,0.4197183098591549,0.5183098591549296,0.03380281690140845,0.0,0.014084507042253521,0.0,0.0028169014084507044,0.005633802816901409,0.005633802816901409,0.0,0.0,0.0,0.0,0.0,0.0,0.0,0.0,0.0,0.0,0.0,0.1615598885793872,0.2646239554317549,0.0807799442896936,0.055710306406685235,0.036211699164345405,0.005571030640668524,0.005571030640668524,0.016713091922005572,0.011142061281337047,0.013927576601671309,0.013927576601671309,0.019498607242339833,0.008356545961002786,0.027855153203342618,0.04178272980501393,0.06685236768802229,0.14484679665738162,0.025069637883008356,0.0,0.0,0.036211699164345405,0.06685236768802229,0.011142061281337047,0.0,0.005571030640668524,0.002785515320334262,0.013927576601671309,0.0,0.022284122562674095,0.025069637883008356,0.03064066852367688,0.019498607242339833,0.027855153203342618,0.06128133704735376,0.06963788300835655,0.11142061281337047,0.38997214484679665,0.10584958217270195,0.0,0.0,0.008356545961002786,0.002785515320334262,0.0,0.0,0.0,0.002785515320334262,0.005571030640668524,0.002785515320334262,0.008356545961002786,0.019498607242339833,0.027855153203342618,0.036211699164345405,0.04735376044568245,0.116991643454039,0.1532033426183844,0.18384401114206128,0.30362116991643456,0.0807799442896936,0.0,0.0,0.002785515320334262,0.002785515320334262,0.002785515320334262,0.036211699164345405,0.013927576601671309,0.019498607242339833,0.05013927576601671,0.06963788300835655,0.09749303621169916,0.10863509749303621,0.12256267409470752,0.1532033426183844,0.11420612813370473,0.09749303621169916,0.07799442896935933,0.022284122562674095,0.008356545961002786,0.0,0.0,0.0,0.04456824512534819,0.30919220055710306,0.2924791086350975,0.3008356545961003,0.027855153203342618,0.008356545961002786,0.013927576601671309,0.002785515320334262,0.0,0.0,0.0,0.0,0.0,0.0,0.0,0.0,0.0,0.0,0.0,0.0,0.027855153203342618,0.3788300835654596,0.28969359331476324,0.28690807799442897,0.011142061281337047,0.005571030640668524,0.0,0.0,0.0,0.0,0.0,0.0,0.0,0.0,0.0,0.0,0.0,0.0,0.0,0.0,0.04735376044568245,0.2924791086350975,0.2618384401114206,0.16434540389972144,0.12813370473537605,0.10584958217270195,0.0,0.0,0.0,0.0,0.0,0.0,0.0,0.0,0.0,0.0,0.0,0.0,0.0,0.0,0.002785515320334262,0.21727019498607242,0.23119777158774374,0.37047353760445684,0.11142061281337047,0.06406685236768803,0.002785515320334262,0.0,0.0,0.0,0.0,0.0,0.0,0.0,0.0,0.0,0.0,0.0,0.0,0.0,0.0,0.0,0.052924791086350974,0.1392757660167131,0.13649025069637882,0.20612813370473537,0.27019498607242337,0.17548746518105848,0.019498607242339833,0.0,0.0,0.0,0.0,0.0,0.0,0.0,0.0,0.0,0.0,0.0,0.0,0.002785515320334262,0.07799442896935933,0.11420612813370473,0.06963788300835655,0.0947075208913649,0.181058495821727,0.12256267409470752,0.1309192200557103,0.13370473537604458,0.06685236768802229,0.005571030640668524,0.0,0.0,0.0,0.0,0.0,0.0,0.0,0.0,0.0,0.0,0.0,0.0,0.0,0.0,0.0,0.0,0.011142061281337047,0.03899721448467967,0.14484679665738162,0.35097493036211697,0.3426183844011142,0.11142061281337047,0.0,0.0,0.0,0.0,0.0,0.0,0.0,0.0,0.0,0.0,0.0,0.0,0.0,0.0,0.0,0.0,0.0,0.0,0.025069637883008356,0.0807799442896936,0.21727019498607242,0.42618384401114207,0.2479108635097493,0.002785515320334262,0.0,0.0,0.0,0.0,0.0,0.0,0.0,0.0,0.0,0.0,0.0,0.0,0.0,0.0,0.0,0.019498607242339833,0.12534818941504178,0.5013927576601671,0.35097493036211697,0.002785515320334262,0.0,0.0,L4
0.7436619718309859,0.24507042253521127,0.0,0.0,0.0028169014084507044,0.0,0.0,0.0,0.008450704225352112,0.0,0.0,0.0,0.0,0.0,0.0,0.0,0.0,0.0,0.0,0.0,0.4742014742014742,0.4594594594594595,0.03931203931203931,0.0,0.012285012285012284,0.0,0.004914004914004914,0.0,0.0,0.0,0.0,0.0,0.002457002457002457,0.007371007371007371,0.0,0.0,0.0,0.0,0.0,0.0,0.18377088305489261,0.2840095465393795,0.05250596658711217,0.026252983293556086,0.002386634844868735,0.00477326968973747,0.00477326968973747,0.021479713603818614,0.011933174224343675,0.02386634844868735,0.02386634844868735,0.01909307875894988,0.016706443914081145,0.0405727923627685,0.050119331742243436,0.09307875894988067,0.11217183770883055,0.028639618138424822,0.0,0.0,0.06428571428571428,0.0761904761904762,0.002380952380952381,0.0,0.0,0.004761904761904762,0.007142857142857143,0.004761904761904762,0.004761904761904762,0.01904761904761905,0.023809523809523808,0.03571428571428571,0.02619047619047619,0.03571428571428571,0.07380952380952381,0.1357142857142857,0.3738095238095238,0.11190476190476191,0.0,0.0,0.016666666666666666,0.004761904761904762,0.0,0.0,0.0,0.0,0.0,0.002380952380952381,0.002380952380952381,0.009523809523809525,0.016666666666666666,0.023809523809523808,0.05238095238095238,0.11190476190476191,0.15,0.16666666666666666,0.3380952380952381,0.10476190476190476,0.0,0.0,0.01904761904761905,0.07142857142857142,0.09047619047619047,0.10952380952380952,0.07857142857142857,0.1738095238095238,0.10952380952380952,0.08095238095238096,0.07380952380952381,0.05952380952380952,0.06428571428571428,0.04047619047619048,0.01904761904761905,0.004761904761904762,0.002380952380952381,0.002380952380952381,0.0,0.0,0.0,0.0,0.03571428571428571,0.2761904761904762,0.22857142857142856,0.2833333333333333,0.0880952380952381,0.06666666666666667,0.014285714285714285,0.007142857142857143,0.0,0.0,0.0,0.0,0.0,0.0,0.0,0.0,0.0,0.0,0.0,0.0,0.04523809523809524,0.5333333333333333,0.20476190476190476,0.08571428571428572,0.0761904761904762,0.04285714285714286,0.0,0.004761904761904762,0.004761904761904762,0.002380952380952381,0.0,0.0,0.0,0.0,0.0,0.0,0.0,0.0,0.0,0.0,0.030952380952380953,0.5642857142857143,0.3380952380952381,0.06666666666666667,0.0,0.0,0.0,0.0,0.0,0.0,0.0,0.0,0.0,0.0,0.0,0.0,0.0,0.0,0.0,0.0,0.04285714285714286,0.3761904761904762,0.2261904761904762,0.12857142857142856,0.08571428571428572,0.08333333333333333,0.05238095238095238,0.0,0.004761904761904762,0.0,0.0,0.0,0.0,0.0,0.0,0.0,0.0,0.0,0.0,0.0,0.0,0.0,0.0,0.002380952380952381,0.014285714285714285,0.03333333333333333,0.07142857142857142,0.07380952380952381,0.09285714285714286,0.12380952380952381,0.06666666666666667,0.09047619047619047,0.13333333333333333,0.12142857142857143,0.12142857142857143,0.047619047619047616,0.007142857142857143,0.0,0.0,0.0,0.0,0.0,0.0,0.0,0.0,0.0,0.011904761904761904,0.004761904761904762,0.023809523809523808,0.03571428571428571,0.06904761904761905,0.11190476190476191,0.14523809523809525,0.14285714285714285,0.20714285714285716,0.18333333333333332,0.06190476190476191,0.002380952380952381,0.0,0.0,0.0,0.0,0.0,0.0,0.0,0.0,0.0,0.0,0.0,0.007142857142857143,0.009523809523809525,0.023809523809523808,0.10714285714285714,0.09761904761904762,0.2119047619047619,0.3547619047619048,0.1880952380952381,0.0,0.0,0.0,0.0,0.0,0.0,0.0,0.0,0.0,0.0,0.0,0.0,0.004761904761904762,0.009523809523809525,0.016666666666666666,0.0380952380952381,0.12142857142857143,0.2976190476190476,0.40714285714285714,0.10238095238095238,0.002380952380952381,0.0,0.0,0.0,0.0,0.0,0.0,0.0,0.0,0.0,0.0,0.0,0.0,0.0,0.0,0.0,0.004761904761904762,0.08333333333333333,0.47619047619047616,0.43333333333333335,0.002380952380952381,0.0,0.0,0.0,0.0,0.0,0.0,0.0,0.0,0.0,0.0,0.0,0.0,0.0,0.0,0.0,0.0,0.06190476190476191,0.5261904761904762,0.40714285714285714,0.004761904761904762,0.0,0.0,L4
0.7875647668393783,0.20466321243523317,0.0,0.0,0.007772020725388601,0.0,0.0,0.0,0.0,0.0,0.0,0.0,0.0,0.0,0.0,0.0,0.0,0.0,0.0,0.0,0.4462616822429907,0.48598130841121495,0.016355140186915886,0.002336448598130841,0.007009345794392523,0.0,0.009345794392523364,0.0,0.0,0.002336448598130841,0.0,0.009345794392523364,0.018691588785046728,0.002336448598130841,0.0,0.0,0.0,0.0,0.0,0.0,0.17620137299771166,0.3295194508009153,0.06636155606407322,0.016018306636155607,0.0,0.009153318077803204,0.018306636155606407,0.002288329519450801,0.006864988558352402,0.02288329519450801,0.018306636155606407,0.032036613272311214,0.06636155606407322,0.038901601830663615,0.041189931350114416,0.034324942791762014,0.09382151029748284,0.02745995423340961,0.0,0.0,0.0547945205479452,0.06621004566210045,0.02968036529680365,0.00684931506849315,0.0091324200913242,0.01141552511415525,0.0182648401826484,0.0136986301369863,0.0136986301369863,0.0182648401826484,0.02511415525114155,0.05707762557077625,0.03424657534246575,0.03881278538812785,0.0547945205479452,0.1187214611872146,0.3356164383561644,0.09360730593607305,0.0,0.0,0.00684931506849315,0.0,0.0,0.0,0.0,0.0,0.00684931506849315,0.0182648401826484,0.01598173515981735,0.0182648401826484,0.0091324200913242,0.03881278538812785,0.07534246575342465,0.08904109589041095,0.1187214611872146,0.18036529680365296,0.3356164383561644,0.0867579908675799,0.0,0.0,0.00228310502283105,0.02054794520547945,0.0091324200913242,0.06621004566210045,0.07990867579908675,0.07534246575342465,0.08447488584474885,0.06164383561643835,0.05707762557077625,0.0502283105022831,0.07077625570776255,0.0958904109589041,0.0639269406392694,0.0730593607305936,0.07077625570776255,0.0639269406392694,0.04337899543378995,0.01141552511415525,0.0,0.0,0.01598173515981735,0.3310502283105023,0.3401826484018265,0.228310502283105,0.0273972602739726,0.01141552511415525,0.02054794520547945,0.01141552511415525,0.00684931506849315,0.00684931506849315,0.0,0.0,0.0,0.0,0.0,0.0,0.0,0.0,0.0,0.0,0.13013698630136986,0.639269406392694,0.21232876712328766,0.0182648401826484,0.0,0.0,0.0,0.0,0.0,0.0,0.0,0.0,0.0,0.0,0.0,0.0,0.0,0.0,0.0,0.0,0.0410958904109589,0.2694063926940639,0.3242009132420091,0.2899543378995434,0.05707762557077625,0.0182648401826484,0.0,0.0,0.0,0.0,0.0,0.0,0.0,0.0,0.0,0.0,0.0,0.0,0.0,0.0,0.00228310502283105,0.02054794520547945,0.05707762557077625,0.0410958904109589,0.0502283105022831,0.05251141552511415,0.1095890410958904,0.2009132420091324,0.23515981735159816,0.17123287671232876,0.05251141552511415,0.0045662100456621,0.00228310502283105,0.0,0.0,0.0,0.0,0.0,0.0,0.0,0.0,0.0,0.01598173515981735,0.0821917808219178,0.11643835616438356,0.20776255707762556,0.2762557077625571,0.2100456621004566,0.0867579908675799,0.0045662100456621,0.0,0.0,0.0,0.0,0.0,0.0,0.0,0.0,0.0,0.0,0.0,0.0,0.0,0.0,0.0,0.0,0.0,0.0,0.0,0.0,0.0091324200913242,0.0502283105022831,0.0867579908675799,0.13926940639269406,0.2648401826484018,0.3150684931506849,0.13470319634703196,0.0,0.0,0.0,0.0,0.0,0.0,0.0,0.0,0.0,0.0,0.0,0.0,0.0,0.0,0.00228310502283105,0.01141552511415525,0.0410958904109589,0.19863013698630136,0.4817351598173516,0.2557077625570776,0.0091324200913242,0.0,0.0,0.0,0.0,0.0,0.0,0.0,0.0,0.0,0.0,0.0,0.0,0.0,0.0,0.0,0.02511415525114155,0.1415525114155251,0.5091324200913242,0.3242009132420091,0.0,0.0,0.0,0.0,0.0,0.0,0.0,0.0,0.0,0.0,0.0,0.0,0.0,0.0,0.0,0.00228310502283105,0.01141552511415525,0.07077625570776255,0.4748858447488584,0.4337899543378995,0.00684931506849315,0.0,0.0,0.0,0.0,0.0,0.0,0.0,0.0,0.0,0.0,0.0,0.0,0.0,0.0,0.0,0.00228310502283105,0.0410958904109589,0.45662100456621,0.4863013698630137,0.0136986301369863,0.0,0.0,L4
0.6674757281553398,0.32038834951456313,0.0,0.0,0.012135922330097087,0.0,0.0,0.0,0.0,0.0,0.0,0.0,0.0,0.0,0.0,0.0,0.0,0.0,0.0,0.0,0.4388646288209607,0.5087336244541485,0.015283842794759825,0.0,0.019650655021834062,0.006550218340611353,0.0,0.0,0.010917030567685589,0.0,0.0,0.0,0.0,0.0,0.0,0.0,0.0,0.0,0.0,0.0,0.1913978494623656,0.2924731182795699,0.07956989247311828,0.03870967741935484,0.02795698924731183,0.010752688172043012,0.0,0.0,0.008602150537634409,0.002150537634408602,0.002150537634408602,0.015053763440860216,0.01935483870967742,0.025806451612903226,0.03225806451612903,0.053763440860215055,0.15698924731182795,0.043010752688172046,0.0,0.0,0.02795698924731183,0.06451612903225806,0.0,0.0,0.0,0.004301075268817204,0.002150537634408602,0.004301075268817204,0.002150537634408602,0.0064516129032258064,0.01935483870967742,0.025806451612903226,0.053763440860215055,0.06666666666666667,0.07096774193548387,0.13118279569892474,0.3913978494623656,0.12903225806451613,0.0,0.0,0.002150537634408602,0.021505376344086023,0.0064516129032258064,0.010752688172043012,0.023655913978494623,0.010752688172043012,0.01935483870967742,0.012903225806451613,0.017204301075268817,0.060215053763440864,0.05161290322580645,0.047311827956989246,0.030107526881720432,0.08172043010752689,0.1032258064516129,0.16344086021505377,0.2645161290322581,0.07311827956989247,0.0,0.0,0.004301075268817204,0.04516129032258064,0.017204301075268817,0.06666666666666667,0.06451612903225806,0.043010752688172046,0.053763440860215055,0.08602150537634409,0.08172043010752689,0.07741935483870968,0.08817204301075268,0.06451612903225806,0.08602150537634409,0.07096774193548387,0.05806451612903226,0.047311827956989246,0.043010752688172046,0.002150537634408602,0.0,0.0,0.11182795698924732,0.6043010752688172,0.23870967741935484,0.02795698924731183,0.0,0.0064516129032258064,0.004301075268817204,0.0,0.0,0.002150537634408602,0.004301075268817204,0.0,0.0,0.0,0.0,0.0,0.0,0.0,0.0,0.0,0.04946236559139785,0.5483870967741935,0.13333333333333333,0.23655913978494625,0.02795698924731183,0.002150537634408602,0.002150537634408602,0.0,0.0,0.0,0.0,0.0,0.0,0.0,0.0,0.0,0.0,0.0,0.0,0.0,0.1053763440860215,0.5419354838709678,0.3161290322580645,0.034408602150537634,0.002150537634408602,0.0,0.0,0.0,0.0,0.0,0.0,0.0,0.0,0.0,0.0,0.0,0.0,0.0,0.0,0.0,0.015053763440860216,0.3419354838709677,0.2537634408602151,0.10752688172043011,0.09462365591397849,0.10752688172043011,0.07096774193548387,0.008602150537634409,0.0,0.0,0.0,0.0,0.0,0.0,0.0,0.0,0.0,0.0,0.0,0.0,0.002150537634408602,0.4064516129032258,0.4559139784946237,0.13548387096774195,0.0,0.0,0.0,0.0,0.0,0.0,0.0,0.0,0.0,0.0,0.0,0.0,0.0,0.0,0.0,0.0,0.0,0.0,0.0,0.0,0.0,0.0,0.0,0.0,0.004301075268817204,0.012903225806451613,0.03655913978494624,0.02795698924731183,0.060215053763440864,0.14193548387096774,0.24946236559139784,0.3419354838709677,0.12473118279569892,0.0,0.0,0.0,0.0,0.0,0.0,0.0,0.0,0.0,0.0,0.0,0.0,0.0,0.0,0.002150537634408602,0.004301075268817204,0.06236559139784946,0.2086021505376344,0.42795698924731185,0.2924731182795699,0.002150537634408602,0.0,0.0,0.0,0.0,0.0,0.0,0.0,0.0,0.0,0.0,0.0,0.0,0.0,0.002150537634408602,0.0064516129032258064,0.04946236559139785,0.17849462365591398,0.4838709677419355,0.2709677419354839,0.008602150537634409,0.0,0.0,0.0,0.0,0.0,0.0,0.0,0.0,0.0,0.0,0.0,0.0,0.0,0.0,0.0,0.0,0.060215053763440864,0.42795698924731185,0.5075268817204301,0.004301075268817204,0.0,0.0,0.0,0.0,0.0,0.0,0.0,0.0,0.0,0.0,0.0,0.0,0.0,0.0,0.0,0.004301075268817204,0.06451612903225806,0.43655913978494626,0.4817204301075269,0.012903225806451613,0.0,0.0,L4
0.7078384798099763,0.2755344418052256,0.0,0.0,0.009501187648456057,0.0,0.007125890736342043,0.0,0.0,0.0,0.0,0.0,0.0,0.0,0.0,0.0,0.0,0.0,0.0,0.0,0.4227467811158798,0.45278969957081544,0.045064377682403435,0.017167381974248927,0.015021459227467811,0.01072961373390558,0.008583690987124463,0.006437768240343348,0.004291845493562232,0.006437768240343348,0.008583690987124463,0.002145922746781116,0.0,0.0,0.0,0.0,0.0,0.0,0.0,0.0,0.14743589743589744,0.23504273504273504,0.09401709401709402,0.05128205128205128,0.038461538461538464,0.038461538461538464,0.03205128205128205,0.038461538461538464,0.010683760683760684,0.010683760683760684,0.01282051282051282,0.023504273504273504,0.008547008547008548,0.01282051282051282,0.04487179487179487,0.06196581196581197,0.11324786324786325,0.02564102564102564,0.0,0.0,0.01702127659574468,0.04042553191489362,0.02127659574468085,0.01702127659574468,0.01276595744680851,0.01702127659574468,0.01276595744680851,0.0,0.002127659574468085,0.002127659574468085,0.014893617021276596,0.02127659574468085,0.027659574468085105,0.06170212765957447,0.09574468085106383,0.11702127659574468,0.4021276595744681,0.11702127659574468,0.0,0.0,0.002127659574468085,0.006382978723404255,0.002127659574468085,0.002127659574468085,0.002127659574468085,0.002127659574468085,0.002127659574468085,0.002127659574468085,0.01276595744680851,0.029787234042553193,0.04042553191489362,0.04468085106382979,0.08085106382978724,0.125531914893617,0.1595744680851064,0.14042553191489363,0.274468085106383,0.07021276595744681,0.0,0.0,0.00425531914893617,0.1276595744680851,0.2702127659574468,0.24468085106382978,0.14468085106382977,0.08723404255319149,0.0574468085106383,0.029787234042553193,0.01702127659574468,0.006382978723404255,0.010638297872340425,0.0,0.0,0.0,0.0,0.0,0.0,0.0,0.0,0.0,0.04468085106382979,0.3829787234042553,0.29148936170212764,0.2297872340425532,0.0425531914893617,0.00425531914893617,0.0,0.0,0.002127659574468085,0.002127659574468085,0.0,0.0,0.0,0.0,0.0,0.0,0.0,0.0,0.0,0.0,0.04468085106382979,0.4851063829787234,0.33191489361702126,0.1,0.02553191489361702,0.01276595744680851,0.0,0.0,0.0,0.0,0.0,0.0,0.0,0.0,0.0,0.0,0.0,0.0,0.0,0.0,0.0,0.125531914893617,0.23617021276595745,0.3382978723404255,0.20212765957446807,0.08936170212765958,0.00851063829787234,0.0,0.0,0.0,0.0,0.0,0.0,0.0,0.0,0.0,0.0,0.0,0.0,0.0,0.0,0.0,0.006382978723404255,0.019148936170212766,0.04468085106382979,0.0851063829787234,0.15106382978723404,0.14680851063829786,0.13617021276595745,0.1148936170212766,0.10212765957446808,0.11063829787234042,0.06595744680851064,0.014893617021276596,0.002127659574468085,0.0,0.0,0.0,0.0,0.0,0.0,0.02127659574468085,0.12978723404255318,0.0851063829787234,0.09148936170212765,0.19361702127659575,0.19574468085106383,0.16808510638297872,0.08723404255319149,0.02553191489361702,0.002127659574468085,0.0,0.0,0.0,0.0,0.0,0.0,0.0,0.0,0.0,0.0,0.0,0.0,0.0,0.0,0.0,0.0,0.0,0.002127659574468085,0.002127659574468085,0.02127659574468085,0.03829787234042553,0.0851063829787234,0.09787234042553192,0.25957446808510637,0.37446808510638296,0.11914893617021277,0.0,0.0,0.0,0.0,0.0,0.0,0.0,0.0,0.0,0.0,0.0,0.0,0.0,0.002127659574468085,0.00851063829787234,0.01702127659574468,0.04893617021276596,0.15106382978723404,0.5042553191489362,0.26382978723404255,0.00425531914893617,0.0,0.0,0.0,0.0,0.0,0.0,0.0,0.0,0.0,0.0,0.0,0.0,0.0,0.0,0.00425531914893617,0.023404255319148935,0.1276595744680851,0.4276595744680851,0.40638297872340423,0.010638297872340425,0.0,0.0,0.0,0.0,0.0,0.0,0.0,0.0,0.0,0.0,0.0,0.0,0.0,0.0,0.0,0.00851063829787234,0.09787234042553192,0.43617021276595747,0.451063829787234,0.006382978723404255,0.0,0.0,0.0,0.0,0.0,0.0,0.0,0.0,0.0,0.0,0.0,0.0,0.0,0.0,0.0,0.006382978723404255,0.09574468085106383,0.46808510638297873,0.42127659574468085,0.00851063829787234,0.0,0.0,L24
0.7142857142857143,0.27634660421545665,0.0,0.0,0.00936768149882904,0.0,0.0,0.0,0.0,0.0,0.0,0.0,0.0,0.0,0.0,0.0,0.0,0.0,0.0,0.0,0.38784067085953877,0.5115303983228512,0.05450733752620545,0.018867924528301886,0.016771488469601678,0.0,0.0,0.0,0.0,0.010482180293501049,0.0,0.0,0.0,0.0,0.0,0.0,0.0,0.0,0.0,0.0,0.10395010395010396,0.16424116424116425,0.04781704781704782,0.031185031185031187,0.004158004158004158,0.0,0.004158004158004158,0.004158004158004158,0.008316008316008316,0.014553014553014554,0.018711018711018712,0.0498960498960499,0.018711018711018712,0.031185031185031187,0.08108108108108109,0.08731808731808732,0.2702702702702703,0.060291060291060294,0.0,0.0,0.02286902286902287,0.0395010395010395,0.004158004158004158,0.010395010395010396,0.014553014553014554,0.006237006237006237,0.002079002079002079,0.002079002079002079,0.010395010395010396,0.018711018711018712,0.012474012474012475,0.012474012474012475,0.0498960498960499,0.056133056133056136,0.07276507276507277,0.10602910602910603,0.43243243243243246,0.12681912681912683,0.0,0.0,0.0,0.008316008316008316,0.002079002079002079,0.004158004158004158,0.004158004158004158,0.0,0.006237006237006237,0.018711018711018712,0.04781704781704782,0.062370062370062374,0.09147609147609148,0.09771309771309772,0.07692307692307693,0.11850311850311851,0.12058212058212059,0.11642411642411643,0.17671517671517672,0.04781704781704782,0.0,0.0,0.031185031185031187,0.18087318087318088,0.12474012474012475,0.10187110187110188,0.09563409563409564,0.0997920997920998,0.08523908523908524,0.07276507276507277,0.05405405405405406,0.02286902286902287,0.02286902286902287,0.02702702702702703,0.02079002079002079,0.014553014553014554,0.010395010395010396,0.014553014553014554,0.016632016632016633,0.004158004158004158,0.0,0.0,0.014553014553014554,0.3866943866943867,0.37422037422037424,0.1891891891891892,0.02702702702702703,0.004158004158004158,0.002079002079002079,0.002079002079002079,0.0,0.0,0.0,0.0,0.0,0.0,0.0,0.0,0.0,0.0,0.0,0.0,0.0,0.08523908523908524,0.21621621621621623,0.36382536382536385,0.18711018711018712,0.12474012474012475,0.012474012474012475,0.0,0.002079002079002079,0.0,0.002079002079002079,0.002079002079002079,0.004158004158004158,0.0,0.0,0.0,0.0,0.0,0.0,0.0,0.002079002079002079,0.07484407484407485,0.14345114345114346,0.25571725571725573,0.22661122661122662,0.2661122661122661,0.031185031185031187,0.0,0.0,0.0,0.0,0.0,0.0,0.0,0.0,0.0,0.0,0.0,0.0,0.0,0.0,0.008316008316008316,0.04365904365904366,0.062370062370062374,0.02702702702702703,0.08316008316008316,0.13305613305613306,0.1787941787941788,0.21621621621621623,0.19334719334719336,0.0498960498960499,0.004158004158004158,0.0,0.0,0.0,0.0,0.0,0.0,0.0,0.0,0.0,0.037422037422037424,0.002079002079002079,0.010395010395010396,0.033264033264033266,0.06860706860706861,0.0997920997920998,0.2203742203742204,0.25571725571725573,0.23284823284823286,0.0395010395010395,0.0,0.0,0.0,0.0,0.0,0.0,0.0,0.0,0.0,0.0,0.0,0.0,0.0,0.0,0.006237006237006237,0.010395010395010396,0.05197505197505198,0.060291060291060294,0.056133056133056136,0.04365904365904366,0.018711018711018712,0.016632016632016633,0.008316008316008316,0.0893970893970894,0.3804573804573805,0.25363825363825365,0.004158004158004158,0.0,0.0,0.0,0.0,0.0,0.0,0.0,0.0,0.0,0.0,0.002079002079002079,0.016632016632016633,0.04158004158004158,0.031185031185031187,0.07484407484407485,0.08108108108108109,0.11850311850311851,0.42203742203742206,0.20997920997921,0.002079002079002079,0.0,0.0,0.0,0.0,0.0,0.0,0.0,0.0,0.0,0.0,0.0,0.0,0.002079002079002079,0.006237006237006237,0.02079002079002079,0.033264033264033266,0.14137214137214138,0.42411642411642414,0.3700623700623701,0.002079002079002079,0.0,0.0,0.0,0.0,0.0,0.0,0.0,0.0,0.0,0.0,0.0,0.0,0.0,0.0,0.0,0.004158004158004158,0.06652806652806653,0.45322245322245325,0.47401247401247404,0.002079002079002079,0.0,0.0,0.0,0.0,0.0,0.0,0.0,0.0,0.0,0.0,0.0,0.0,0.0,0.0,0.0,0.004158004158004158,0.08523908523908524,0.4656964656964657,0.4282744282744283,0.016632016632016633,0.0,0.0,L24
0.7252475247524752,0.2722772277227723,0.0,0.0,0.0024752475247524753,0.0,0.0,0.0,0.0,0.0,0.0,0.0,0.0,0.0,0.0,0.0,0.0,0.0,0.0,0.0,0.42731277533039647,0.460352422907489,0.06828193832599119,0.0022026431718061676,0.011013215859030838,0.0022026431718061676,0.006607929515418502,0.004405286343612335,0.0,0.011013215859030838,0.006607929515418502,0.0,0.0,0.0,0.0,0.0,0.0,0.0,0.0,0.0,0.13478260869565217,0.27608695652173915,0.06739130434782609,0.02826086956521739,0.01956521739130435,0.008695652173913044,0.01956521739130435,0.006521739130434782,0.0,0.004347826086956522,0.02608695652173913,0.013043478260869565,0.02608695652173913,0.03260869565217391,0.043478260869565216,0.05652173913043478,0.1826086956521739,0.05434782608695652,0.0,0.0,0.047619047619047616,0.1038961038961039,0.06277056277056277,0.010822510822510822,0.0021645021645021645,0.0021645021645021645,0.008658008658008658,0.008658008658008658,0.015151515151515152,0.012987012987012988,0.012987012987012988,0.015151515151515152,0.032467532467532464,0.03463203463203463,0.07142857142857142,0.09523809523809523,0.36363636363636365,0.09956709956709957,0.0,0.0,0.006493506493506494,0.012987012987012988,0.004329004329004329,0.006493506493506494,0.032467532467532464,0.0670995670995671,0.03896103896103896,0.045454545454545456,0.0367965367965368,0.0367965367965368,0.05411255411255411,0.05411255411255411,0.045454545454545456,0.09090909090909091,0.08658008658008658,0.11471861471861472,0.23160173160173161,0.03463203463203463,0.0,0.0,0.010822510822510822,0.14285714285714285,0.1341991341991342,0.19696969696969696,0.1038961038961039,0.07575757575757576,0.03463203463203463,0.025974025974025976,0.025974025974025976,0.015151515151515152,0.015151515151515152,0.03896103896103896,0.03896103896103896,0.045454545454545456,0.045454545454545456,0.0367965367965368,0.010822510822510822,0.0021645021645021645,0.0,0.0,0.05411255411255411,0.5670995670995671,0.2857142857142857,0.06926406926406926,0.0021645021645021645,0.0,0.01948051948051948,0.0021645021645021645,0.0,0.0,0.0,0.0,0.0,0.0,0.0,0.0,0.0,0.0,0.0,0.0,0.017316017316017316,0.2510822510822511,0.2683982683982684,0.2662337662337662,0.1645021645021645,0.032467532467532464,0.0,0.0,0.0,0.0,0.0,0.0,0.0,0.0,0.0,0.0,0.0,0.0,0.0,0.0,0.006493506493506494,0.26406926406926406,0.19913419913419914,0.37662337662337664,0.13636363636363635,0.015151515151515152,0.0021645021645021645,0.0,0.0,0.0,0.0,0.0,0.0,0.0,0.0,0.0,0.0,0.0,0.0,0.0,0.004329004329004329,0.11471861471861472,0.05844155844155844,0.032467532467532464,0.047619047619047616,0.0670995670995671,0.09956709956709957,0.14285714285714285,0.18831168831168832,0.13852813852813853,0.07575757575757576,0.025974025974025976,0.004329004329004329,0.0,0.0,0.0,0.0,0.0,0.0,0.0,0.0021645021645021645,0.15151515151515152,0.06926406926406926,0.010822510822510822,0.030303030303030304,0.006493506493506494,0.004329004329004329,0.006493506493506494,0.004329004329004329,0.015151515151515152,0.047619047619047616,0.07792207792207792,0.08658008658008658,0.10606060606060606,0.15151515151515152,0.18614718614718614,0.04329004329004329,0.0,0.0,0.0,0.0,0.0,0.0,0.0,0.0,0.0021645021645021645,0.012987012987012988,0.021645021645021644,0.06060606060606061,0.06060606060606061,0.05411255411255411,0.05194805194805195,0.07792207792207792,0.12121212121212122,0.21212121212121213,0.22510822510822512,0.09956709956709957,0.0,0.0,0.0,0.0,0.0,0.0,0.0,0.004329004329004329,0.004329004329004329,0.010822510822510822,0.025974025974025976,0.017316017316017316,0.05844155844155844,0.06060606060606061,0.05194805194805195,0.045454545454545456,0.03463203463203463,0.10173160173160173,0.354978354978355,0.22943722943722944,0.0,0.0,0.0,0.0,0.0,0.0,0.0,0.0,0.0,0.0,0.0,0.0,0.015151515151515152,0.021645021645021644,0.032467532467532464,0.10822510822510822,0.08441558441558442,0.07575757575757576,0.40476190476190477,0.2510822510822511,0.006493506493506494,0.0,0.0,0.0,0.0,0.0,0.0,0.0,0.0,0.0,0.0,0.0,0.0,0.0,0.0,0.0,0.04329004329004329,0.1471861471861472,0.4329004329004329,0.37012987012987014,0.006493506493506494,0.0,0.0,0.0,0.0,0.0,0.0,0.0,0.0,0.0,0.0,0.0,0.0,0.0,0.0,0.0,0.006493506493506494,0.11688311688311688,0.48917748917748916,0.3852813852813853,0.0021645021645021645,0.0,0.0,L24
0.6833333333333333,0.3047619047619048,0.0,0.0,0.007142857142857143,0.0,0.004761904761904762,0.0,0.0,0.0,0.0,0.0,0.0,0.0,0.0,0.0,0.0,0.0,0.0,0.0,0.41201716738197425,0.4206008583690987,0.06223175965665236,0.002145922746781116,0.02145922746781116,0.002145922746781116,0.0,0.0,0.015021459227467811,0.015021459227467811,0.012875536480686695,0.01072961373390558,0.006437768240343348,0.012875536480686695,0.006437768240343348,0.0,0.0,0.0,0.0,0.0,0.16170212765957448,0.24680851063829787,0.0425531914893617,0.029787234042553193,0.04893617021276596,0.019148936170212766,0.04468085106382979,0.059574468085106386,0.01702127659574468,0.014893617021276596,0.014893617021276596,0.023404255319148935,0.029787234042553193,0.01702127659574468,0.03404255319148936,0.036170212765957444,0.11914893617021277,0.04042553191489362,0.0,0.0,0.02127659574468085,0.04468085106382979,0.00851063829787234,0.00425531914893617,0.00425531914893617,0.019148936170212766,0.023404255319148935,0.01702127659574468,0.01276595744680851,0.014893617021276596,0.023404255319148935,0.031914893617021274,0.0425531914893617,0.04468085106382979,0.07872340425531915,0.1127659574468085,0.37659574468085105,0.11914893617021277,0.0,0.0,0.002127659574468085,0.006382978723404255,0.0,0.0,0.00425531914893617,0.006382978723404255,0.014893617021276596,0.02127659574468085,0.03829787234042553,0.06595744680851064,0.07872340425531915,0.10638297872340426,0.12978723404255318,0.10425531914893617,0.11914893617021277,0.1148936170212766,0.14468085106382977,0.0425531914893617,0.0,0.0,0.01276595744680851,0.30638297872340425,0.2276595744680851,0.11702127659574468,0.04893617021276596,0.0425531914893617,0.02127659574468085,0.01702127659574468,0.02553191489361702,0.031914893617021274,0.06170212765957447,0.04468085106382979,0.02127659574468085,0.010638297872340425,0.00425531914893617,0.006382978723404255,0.0,0.0,0.0,0.0,0.01702127659574468,0.37446808510638296,0.2936170212765957,0.24893617021276596,0.04680851063829787,0.0,0.00425531914893617,0.002127659574468085,0.01276595744680851,0.0,0.0,0.0,0.0,0.0,0.0,0.0,0.0,0.0,0.0,0.0,0.01702127659574468,0.4276595744680851,0.33191489361702126,0.2127659574468085,0.00425531914893617,0.006382978723404255,0.0,0.0,0.0,0.0,0.0,0.0,0.0,0.0,0.0,0.0,0.0,0.0,0.0,0.0,0.002127659574468085,0.11914893617021277,0.13617021276595745,0.22340425531914893,0.2702127659574468,0.2404255319148936,0.00851063829787234,0.0,0.0,0.0,0.0,0.0,0.0,0.0,0.0,0.0,0.0,0.0,0.0,0.0,0.00425531914893617,0.1,0.09148936170212765,0.029787234042553193,0.03829787234042553,0.00851063829787234,0.00851063829787234,0.03829787234042553,0.07659574468085106,0.10638297872340426,0.16382978723404254,0.15319148936170213,0.12978723404255318,0.03404255319148936,0.01702127659574468,0.0,0.0,0.0,0.0,0.0,0.002127659574468085,0.006382978723404255,0.019148936170212766,0.023404255319148935,0.05106382978723404,0.09148936170212765,0.0574468085106383,0.02127659574468085,0.01276595744680851,0.02127659574468085,0.02553191489361702,0.036170212765957444,0.07659574468085106,0.08723404255319149,0.19361702127659575,0.2170212765957447,0.0574468085106383,0.0,0.0,0.0,0.0,0.0,0.0,0.002127659574468085,0.006382978723404255,0.031914893617021274,0.031914893617021274,0.05106382978723404,0.05106382978723404,0.06595744680851064,0.027659574468085105,0.019148936170212766,0.0574468085106383,0.06170212765957447,0.19361702127659575,0.25957446808510637,0.14042553191489363,0.0,0.0,0.0,0.0,0.0,0.0,0.0,0.0,0.0,0.002127659574468085,0.00425531914893617,0.019148936170212766,0.03829787234042553,0.027659574468085105,0.06595744680851064,0.07659574468085106,0.0425531914893617,0.07021276595744681,0.35106382978723405,0.2978723404255319,0.00425531914893617,0.0,0.0,0.0,0.0,0.0,0.0,0.0,0.0,0.0,0.0,0.0,0.0,0.0,0.0,0.002127659574468085,0.029787234042553193,0.10212765957446808,0.4574468085106383,0.40425531914893614,0.00425531914893617,0.0,0.0,0.0,0.0,0.0,0.0,0.0,0.0,0.0,0.0,0.0,0.0,0.002127659574468085,0.0,0.006382978723404255,0.023404255319148935,0.16382978723404254,0.4553191489361702,0.3425531914893617,0.006382978723404255,0.0,0.0,0.0,0.0,0.0,0.0,0.0,0.0,0.0,0.0,0.0,0.0,0.0,0.0,0.0,0.00425531914893617,0.04468085106382979,0.5382978723404256,0.4,0.01276595744680851,0.0,0.0,L24
