1 2
1 7
1 9
1 13
2 1
2 3
2 7
2 8
2 9
2 13
2 16
3 2
3 4
3 8
3 9
3 10
3 14
3 17
3 18
4 3
4 5
4 6
4 8
4 10
4 11
4 14
4 15
4 18
5 4
5 6
5 10
5 11
5 12
5 15
5 20
5 22
6 4
6 5
6 10
6 11
6 12
6 15
6 21
6 22
7 1
7 2
7 9
7 13
7 16
7 19
7 23
8 2
8 3
8 4
8 9
8 10
8 13
8 14
8 15
8 16
8 17
8 18
9 1
9 2
9 3
9 7
9 8
9 13
9 14
9 16
9 17
9 19
9 24
10 3
10 4
10 5
10 6
10 8
10 11
10 12
10 14
10 15
10 18
10 20
10 22
10 25
11 4
11 5
11 6
11 10
11 12
11 15
11 18
11 20
11 21
11 22
12 5
12 6
12 10
12 11
12 15
12 20
12 21
12 22
13 1
13 2
13 7
13 8
13 9
13 14
13 16
13 17
13 19
13 23
13 24
13 27
14 3
14 4
14 8
14 9
14 10
14 13
14 15
14 16
14 17
14 18
14 20
14 25
14 26
15 4
15 5
15 6
15 8
15 10
15 11
15 12
15 14
15 18
15 20
15 21
15 22
15 25
15 28
16 2
16 7
16 8
16 9
16 13
16 14
16 17
16 19
16 23
16 24
16 26
16 27
16 29
17 3
17 8
17 9
17 13
17 14
17 16
17 18
17 19
17 23
17 24
17 25
17 26
17 27
17 29
18 3
18 4
18 8
18 10
18 11
18 14
18 15
18 17
18 20
18 22
18 25
18 26
18 28
18 29
18 31
18 34
19 7
19 9
19 13
19 16
19 17
19 23
19 24
19 26
19 27
19 29
19 33
20 5
20 10
20 11
20 12
20 14
20 15
20 18
20 21
20 22
20 25
20 28
20 31
20 32
21 6
21 11
21 12
21 15
21 20
21 22
21 25
21 28
21 30
21 32
21 35
22 5
22 6
22 10
22 11
22 12
22 15
22 18
22 20
22 21
22 25
22 28
22 30
22 31
22 32
23 7
23 13
23 16
23 17
23 19
23 24
23 27
23 29
23 33
24 9
24 13
24 16
24 17
24 19
24 23
24 26
24 27
24 29
24 33
24 36
25 10
25 14
25 15
25 17
25 18
25 20
25 21
25 22
25 26
25 28
25 29
25 31
25 32
25 34
25 37
26 14
26 16
26 17
26 18
26 19
26 24
26 25
26 27
26 29
26 31
26 33
26 34
26 36
26 39
26 40
27 13
27 16
27 17
27 19
27 23
27 24
27 26
27 29
27 33
27 36
27 40
27 41
28 15
28 18
28 20
28 21
28 22
28 25
28 30
28 31
28 32
28 34
28 35
28 37
28 38
28 43
28 44
29 16
29 17
29 18
29 19
29 23
29 24
29 25
29 26
29 27
29 31
29 33
29 34
29 36
29 39
29 40
29 41
29 45
30 21
30 22
30 28
30 32
30 35
30 37
30 38
30 44
31 18
31 20
31 22
31 25
31 26
31 28
31 29
31 32
31 34
31 36
31 37
31 38
31 39
31 42
31 43
31 47
32 20
32 21
32 22
32 25
32 28
32 30
32 31
32 35
32 37
32 38
32 42
32 43
32 44
32 50
33 19
33 23
33 24
33 26
33 27
33 29
33 36
33 39
33 40
33 41
33 45
33 48
33 49
34 18
34 25
34 26
34 28
34 29
34 31
34 36
34 37
34 39
34 40
34 42
34 43
34 45
34 46
34 47
35 21
35 28
35 30
35 32
35 37
35 38
35 43
35 44
35 50
36 24
36 26
36 27
36 29
36 31
36 33
36 34
36 39
36 40
36 41
36 42
36 45
36 46
36 49
37 25
37 28
37 30
37 31
37 32
37 34
37 35
37 38
37 39
37 42
37 43
37 44
37 46
37 47
37 50
37 51
37 52
38 28
38 30
38 31
38 32
38 35
38 37
38 42
38 43
38 44
38 47
38 50
38 51
38 52
39 26
39 29
39 31
39 33
39 34
39 36
39 37
39 40
39 41
39 42
39 43
39 45
39 46
39 47
39 49
39 51
39 53
39 54
39 56
40 26
40 27
40 29
40 33
40 34
40 36
40 39
40 41
40 42
40 45
40 46
40 47
40 48
40 49
40 53
40 54
41 27
41 29
41 33
41 36
41 39
41 40
41 45
41 46
41 48
41 49
41 53
41 54
41 55
42 31
42 32
42 34
42 36
42 37
42 38
42 39
42 40
42 43
42 44
42 45
42 46
42 47
42 50
42 51
42 52
42 54
42 56
42 57
43 28
43 31
43 32
43 34
43 35
43 37
43 38
43 39
43 42
43 44
43 46
43 47
43 50
43 51
43 52
43 56
43 57
43 58
44 28
44 30
44 32
44 35
44 37
44 38
44 42
44 43
44 47
44 50
44 51
44 52
44 57
44 58
45 29
45 33
45 34
45 36
45 39
45 40
45 41
45 42
45 46
45 47
45 48
45 49
45 53
45 54
45 55
45 56
45 59
46 34
46 36
46 37
46 39
46 40
46 41
46 42
46 43
46 45
46 47
46 49
46 51
46 53
46 54
46 56
46 57
46 61
47 31
47 34
47 37
47 38
47 39
47 40
47 42
47 43
47 44
47 45
47 46
47 50
47 51
47 52
47 54
47 56
47 57
48 33
48 40
48 41
48 45
48 49
48 53
48 54
48 55
48 60
49 33
49 36
49 39
49 40
49 41
49 45
49 46
49 48
49 53
49 54
49 55
49 59
49 60
50 32
50 35
50 37
50 38
50 42
50 43
50 44
50 47
50 51
50 52
50 57
50 58
50 64
51 37
51 38
51 39
51 42
51 43
51 44
51 46
51 47
51 50
51 52
51 56
51 57
51 58
51 63
51 64
52 37
52 38
52 42
52 43
52 44
52 47
52 50
52 51
52 57
52 58
52 62
52 63
52 64
53 39
53 40
53 41
53 45
53 46
53 48
53 49
53 54
53 55
53 56
53 59
53 60
53 61
54 39
54 40
54 41
54 42
54 45
54 46
54 47
54 48
54 49
54 53
54 55
54 56
54 59
54 60
54 61
55 41
55 45
55 48
55 49
55 53
55 54
55 59
55 60
56 39
56 42
56 43
56 45
56 46
56 47
56 51
56 53
56 54
56 57
56 58
56 59
56 61
56 63
57 42
57 43
57 44
57 46
57 47
57 50
57 51
57 52
57 56
57 58
57 61
57 62
57 63
57 64
58 43
58 44
58 50
58 51
58 52
58 56
58 57
58 62
58 63
58 64
59 45
59 49
59 53
59 54
59 55
59 56
59 60
59 61
59 63
60 48
60 49
60 53
60 54
60 55
60 59
60 61
61 46
61 53
61 54
61 56
61 57
61 59
61 60
61 63
62 52
62 57
62 58
62 64
63 51
63 52
63 56
63 57
63 58
63 59
63 61
63 64
64 50
64 51
64 52
64 57
64 58
64 62
64 63
