1 8
2 6
2 7
2 9
3 4
3 5
3 13
4 3
4 8
4 10
5 3
5 6
5 11
5 13
6 2
6 5
6 9
6 11
6 12
7 2
7 9
7 12
8 1
8 4
8 14
9 2
9 6
9 7
9 11
9 12
9 16
10 4
10 14
10 15
10 20
11 5
11 6
11 9
11 12
11 13
11 18
12 6
12 7
12 9
12 11
12 16
13 3
13 5
13 11
13 15
13 18
13 19
14 8
14 10
14 15
14 17
14 20
15 10
15 13
15 14
15 19
15 20
15 22
16 9
16 12
16 21
16 23
16 25
17 14
17 20
18 11
18 13
18 19
18 21
18 22
18 28
19 13
19 15
19 18
19 22
19 28
20 10
20 14
20 15
20 17
20 22
20 24
20 26
21 16
21 18
21 25
21 29
22 15
22 18
22 19
22 20
22 24
22 26
22 28
23 16
23 25
24 20
24 22
24 26
24 27
24 30
25 16
25 21
25 23
25 29
25 31
26 20
26 22
26 24
26 28
26 30
26 32
26 33
27 24
27 30
27 33
28 18
28 19
28 22
28 26
28 29
28 32
28 34
28 35
29 21
29 25
29 28
29 34
30 24
30 26
30 27
30 33
30 36
31 25
31 37
32 26
32 28
32 33
32 35
32 38
33 26
33 27
33 30
33 32
33 36
33 38
34 28
34 29
34 35
34 37
35 28
35 32
35 34
35 38
36 30
36 33
36 41
37 31
37 34
37 39
37 42
38 32
38 33
38 35
38 40
39 37
39 42
39 45
39 46
39 49
40 38
40 43
40 50
41 36
41 43
41 47
41 48
42 37
42 39
42 44
42 45
42 46
42 49
43 40
43 41
43 48
43 50
44 42
44 45
45 39
45 42
45 44
45 52
46 39
46 42
46 49
46 54
47 41
47 48
48 41
48 43
48 47
48 50
48 53
48 55
49 39
49 42
49 46
49 54
50 40
50 43
50 48
50 51
50 53
50 55
50 56
51 50
51 52
51 55
51 56
52 45
52 51
53 48
53 50
53 55
53 56
54 46
54 49
55 48
55 50
55 51
55 53
55 56
56 50
56 51
56 53
56 55
