1 2
1 5
1 9
1 10
1 14
2 1
2 9
2 14
3 4
3 5
3 6
3 8
3 12
3 13
4 3
4 6
4 7
4 8
4 11
4 12
5 1
5 3
5 8
5 10
5 13
5 17
6 3
6 4
6 7
6 8
6 11
6 12
6 13
6 18
6 19
7 4
7 6
7 11
7 15
7 18
8 3
8 4
8 5
8 6
8 10
8 12
8 13
8 17
8 19
8 20
9 1
9 2
9 10
9 14
9 16
9 23
10 1
10 5
10 8
10 9
10 13
10 14
10 17
10 22
11 4
11 6
11 7
11 12
11 15
11 18
11 19
11 24
12 3
12 4
12 6
12 8
12 11
12 13
12 15
12 18
12 19
12 20
13 3
13 5
13 6
13 8
13 10
13 12
13 17
13 19
13 20
13 25
14 1
14 2
14 9
14 10
14 16
14 17
14 22
14 23
15 7
15 11
15 12
15 18
15 19
15 21
15 24
15 26
15 27
16 9
16 14
16 22
16 23
16 29
17 5
17 8
17 10
17 13
17 14
17 20
17 22
17 25
17 32
18 6
18 7
18 11
18 12
18 15
18 19
18 20
18 24
18 27
18 28
19 6
19 8
19 11
19 12
19 13
19 15
19 18
19 20
19 27
19 28
19 30
20 8
20 12
20 13
20 17
20 18
20 19
20 25
20 28
20 30
20 32
21 15
21 24
21 26
21 27
22 10
22 14
22 16
22 17
22 23
22 25
22 29
22 31
22 32
22 34
23 9
23 14
23 16
23 22
23 29
23 31
23 36
24 11
24 15
24 18
24 21
24 26
24 27
24 33
25 13
25 17
25 20
25 22
25 30
25 31
25 32
25 34
25 35
25 38
26 15
26 21
26 24
26 27
26 33
26 39
27 15
27 18
27 19
27 21
27 24
27 26
27 28
27 33
27 37
27 39
27 40
28 18
28 19
28 20
28 27
28 30
28 33
28 35
28 37
28 40
29 16
29 22
29 23
29 31
29 34
29 36
29 41
30 19
30 20
30 25
30 28
30 32
30 35
30 37
30 38
30 42
31 22
31 23
31 25
31 29
31 32
31 34
31 35
31 36
31 38
31 41
32 17
32 20
32 22
32 25
32 30
32 31
32 34
32 35
32 38
32 41
32 42
33 24
33 26
33 27
33 28
33 37
33 39
33 40
33 43
33 47
34 22
34 25
34 29
34 31
34 32
34 35
34 36
34 38
34 41
34 42
34 45
34 46
35 25
35 28
35 30
35 31
35 32
35 34
35 37
35 38
35 42
35 44
35 48
36 23
36 29
36 31
36 34
36 41
36 46
37 27
37 28
37 30
37 33
37 35
37 40
37 42
37 44
38 25
38 30
38 31
38 32
38 34
38 35
38 41
38 42
38 45
38 48
39 26
39 27
39 33
39 40
39 43
39 49
40 27
40 28
40 33
40 37
40 39
40 43
40 44
40 47
40 49
40 51
41 29
41 31
41 32
41 34
41 36
41 38
41 42
41 45
41 46
41 50
41 52
42 30
42 32
42 34
42 35
42 37
42 38
42 41
42 44
42 45
42 48
42 50
42 54
43 33
43 39
43 40
43 47
43 49
44 35
44 37
44 40
44 42
44 47
44 48
44 51
44 54
45 34
45 38
45 41
45 42
45 46
45 48
45 50
45 52
45 56
45 58
46 34
46 36
46 41
46 45
46 50
46 52
46 53
46 59
47 33
47 40
47 43
47 44
47 49
47 51
47 55
47 57
48 35
48 38
48 42
48 44
48 45
48 50
48 51
48 54
48 56
48 60
49 39
49 40
49 43
49 47
49 51
49 55
49 57
49 61
50 41
50 42
50 45
50 46
50 48
50 52
50 54
50 56
50 58
50 59
50 62
51 40
51 44
51 47
51 48
51 49
51 54
51 55
51 57
51 60
51 64
52 41
52 45
52 46
52 50
52 53
52 56
52 58
52 59
52 63
53 46
53 52
53 58
53 59
53 63
54 42
54 44
54 48
54 50
54 51
54 56
54 57
54 60
54 62
54 64
54 68
55 47
55 49
55 51
55 57
55 61
55 65
55 67
56 45
56 48
56 50
56 52
56 54
56 58
56 60
56 62
56 66
56 68
57 47
57 49
57 51
57 54
57 55
57 60
57 61
57 64
57 67
57 71
58 45
58 50
58 52
58 53
58 56
58 59
58 62
58 63
58 66
58 69
59 46
59 50
59 52
59 53
59 58
59 63
59 69
59 70
60 48
60 51
60 54
60 56
60 57
60 62
60 64
60 66
60 68
60 74
60 75
61 49
61 55
61 57
61 64
61 65
61 67
61 72
61 73
62 50
62 54
62 56
62 58
62 60
62 63
62 66
62 68
62 69
62 75
62 76
63 52
63 53
63 58
63 59
63 62
63 66
63 69
63 70
63 76
63 77
64 51
64 54
64 57
64 60
64 61
64 67
64 68
64 71
64 73
64 74
65 55
65 61
65 67
65 72
65 73
65 79
66 56
66 58
66 60
66 62
66 63
66 68
66 69
66 74
66 75
66 76
66 78
67 55
67 57
67 61
67 64
67 65
67 71
67 72
67 73
67 80
68 54
68 56
68 60
68 62
68 64
68 66
68 71
68 74
68 75
68 78
69 58
69 59
69 62
69 63
69 66
69 70
69 76
69 77
70 59
70 63
70 69
70 76
70 77
71 57
71 64
71 67
71 68
71 73
71 74
71 80
72 61
72 65
72 67
72 73
72 79
73 61
73 64
73 65
73 67
73 71
73 72
73 79
73 80
74 60
74 64
74 66
74 68
74 71
74 75
74 78
74 80
75 60
75 62
75 66
75 68
75 74
75 76
75 78
76 62
76 63
76 66
76 69
76 70
76 75
76 77
76 78
77 63
77 69
77 70
77 76
78 66
78 68
78 74
78 75
78 76
79 65
79 72
79 73
80 67
80 71
80 73
80 74
