1 3
1 5
1 6
1 9
1 10
1 12
1 13
2 4
2 7
2 8
2 11
2 14
2 15
2 16
3 1
3 5
3 6
3 9
3 10
3 12
3 13
3 18
4 2
4 5
4 6
4 7
4 8
4 9
4 11
4 13
4 15
4 16
4 17
4 19
4 20
5 1
5 3
5 4
5 6
5 8
5 9
5 10
5 12
5 13
5 15
5 17
5 18
5 20
6 1
6 3
6 4
6 5
6 9
6 10
6 12
6 13
6 17
6 18
6 23
6 25
7 2
7 4
7 8
7 11
7 14
7 15
7 16
7 19
7 21
7 22
8 2
8 4
8 5
8 7
8 9
8 11
8 13
8 14
8 15
8 16
8 17
8 19
8 20
8 21
8 24
9 1
9 3
9 4
9 5
9 6
9 8
9 11
9 12
9 13
9 15
9 17
9 18
9 19
9 20
9 24
9 27
10 1
10 3
10 5
10 6
10 12
10 13
10 18
10 23
10 25
10 26
11 2
11 4
11 7
11 8
11 9
11 14
11 15
11 16
11 17
11 19
11 20
11 21
11 22
11 24
11 28
12 1
12 3
12 5
12 6
12 9
12 10
12 13
12 17
12 18
12 23
12 25
12 26
13 1
13 3
13 4
13 5
13 6
13 8
13 9
13 10
13 12
13 15
13 17
13 18
13 19
13 20
13 23
13 25
13 26
13 27
13 30
14 2
14 7
14 8
14 11
14 15
14 16
14 19
14 21
14 22
14 28
14 29
15 2
15 4
15 5
15 7
15 8
15 9
15 11
15 13
15 14
15 16
15 17
15 19
15 20
15 21
15 24
15 27
15 28
15 31
15 32
16 2
16 4
16 7
16 8
16 11
16 14
16 15
16 19
16 21
16 22
16 24
16 28
16 29
16 32
17 4
17 5
17 6
17 8
17 9
17 11
17 12
17 13
17 15
17 18
17 19
17 20
17 24
17 25
17 27
17 30
17 31
18 3
18 5
18 6
18 9
18 10
18 12
18 13
18 17
18 20
18 23
18 25
18 26
18 27
18 30
18 33
19 4
19 7
19 8
19 9
19 11
19 13
19 14
19 15
19 16
19 17
19 20
19 21
19 22
19 24
19 27
19 28
19 31
19 32
19 35
19 37
20 4
20 5
20 8
20 9
20 11
20 13
20 15
20 17
20 18
20 19
20 21
20 24
20 25
20 27
20 28
20 30
20 31
20 32
20 33
20 35
20 38
21 7
21 8
21 11
21 14
21 15
21 16
21 19
21 20
21 22
21 24
21 28
21 29
21 31
21 32
21 35
21 36
21 37
22 7
22 11
22 14
22 16
22 19
22 21
22 24
22 28
22 29
22 32
22 36
22 37
23 6
23 10
23 12
23 13
23 18
23 25
23 26
23 30
23 33
23 34
24 8
24 9
24 11
24 15
24 16
24 17
24 19
24 20
24 21
24 22
24 27
24 28
24 29
24 31
24 32
24 35
24 36
24 37
24 39
25 6
25 10
25 12
25 13
25 17
25 18
25 20
25 23
25 26
25 27
25 30
25 31
25 33
25 34
25 38
25 42
26 10
26 12
26 13
26 18
26 23
26 25
26 27
26 30
26 33
26 34
26 38
26 40
27 9
27 13
27 15
27 17
27 18
27 19
27 20
27 24
27 25
27 26
27 30
27 31
27 32
27 33
27 35
27 38
27 39
27 42
27 44
28 11
28 14
28 15
28 16
28 19
28 20
28 21
28 22
28 24
28 29
28 31
28 32
28 35
28 36
28 37
28 39
28 41
28 43
28 45
29 14
29 16
29 21
29 22
29 24
29 28
29 32
29 36
29 37
29 41
29 45
30 13
30 17
30 18
30 20
30 23
30 25
30 26
30 27
30 31
30 33
30 34
30 35
30 38
30 40
30 42
30 46
31 15
31 17
31 19
31 20
31 21
31 24
31 25
31 27
31 28
31 30
31 32
31 33
31 35
31 36
31 37
31 38
31 39
31 41
31 43
31 44
32 15
32 16
32 19
32 20
32 21
32 22
32 24
32 27
32 28
32 29
32 31
32 35
32 36
32 37
32 39
32 41
32 43
32 45
33 18
33 20
33 23
33 25
33 26
33 27
33 30
33 31
33 34
33 35
33 38
33 40
33 42
33 44
33 46
33 48
34 23
34 25
34 26
34 30
34 33
34 38
34 40
34 42
34 46
34 47
34 48
35 19
35 20
35 21
35 24
35 27
35 28
35 30
35 31
35 32
35 33
35 36
35 37
35 38
35 39
35 41
35 43
35 44
35 45
35 49
35 50
36 21
36 22
36 24
36 28
36 29
36 31
36 32
36 35
36 37
36 39
36 41
36 43
36 45
36 50
36 51
37 19
37 21
37 22
37 24
37 28
37 29
37 31
37 32
37 35
37 36
37 39
37 41
37 43
37 44
37 45
37 50
37 51
38 20
38 25
38 26
38 27
38 30
38 31
38 33
38 34
38 35
38 39
38 40
38 42
38 43
38 44
38 46
38 48
38 49
38 52
39 24
39 27
39 28
39 31
39 32
39 35
39 36
39 37
39 38
39 41
39 43
39 44
39 45
39 49
39 50
39 51
40 26
40 30
40 33
40 34
40 38
40 42
40 46
40 47
40 48
40 52
40 53
41 28
41 29
41 31
41 32
41 35
41 36
41 37
41 39
41 43
41 44
41 45
41 49
41 50
41 51
41 54
41 57
42 25
42 27
42 30
42 33
42 34
42 38
42 40
42 44
42 46
42 47
42 48
42 49
42 52
42 53
42 55
42 58
43 28
43 31
43 32
43 35
43 36
43 37
43 38
43 39
43 41
43 44
43 45
43 46
43 49
43 50
43 51
43 52
43 56
43 57
44 27
44 31
44 33
44 35
44 37
44 38
44 39
44 41
44 42
44 43
44 45
44 46
44 48
44 49
44 50
44 52
44 55
44 56
44 57
45 28
45 29
45 32
45 35
45 36
45 37
45 39
45 41
45 43
45 44
45 49
45 50
45 51
45 54
45 57
46 30
46 33
46 34
46 38
46 40
46 42
46 43
46 44
46 47
46 48
46 49
46 52
46 53
46 55
46 56
46 58
46 59
47 34
47 40
47 42
47 46
47 48
47 52
47 53
47 55
47 58
47 61
48 33
48 34
48 38
48 40
48 42
48 44
48 46
48 47
48 49
48 52
48 53
48 55
48 58
48 59
48 61
49 35
49 38
49 39
49 41
49 42
49 43
49 44
49 45
49 46
49 48
49 50
49 52
49 53
49 55
49 56
49 57
49 59
49 60
50 35
50 36
50 37
50 39
50 41
50 43
50 44
50 45
50 49
50 51
50 52
50 54
50 56
50 57
50 60
51 36
51 37
51 39
51 41
51 43
51 45
51 50
51 54
51 57
51 62
52 38
52 40
52 42
52 43
52 44
52 46
52 47
52 48
52 49
52 50
52 53
52 55
52 56
52 58
52 59
52 60
52 61
53 40
53 42
53 46
53 47
53 48
53 49
53 52
53 55
53 58
53 59
53 61
54 41
54 45
54 50
54 51
54 57
54 62
55 42
55 44
55 46
55 47
55 48
55 49
55 52
55 53
55 56
55 58
55 59
55 60
55 61
56 43
56 44
56 46
56 49
56 50
56 52
56 55
56 57
56 59
56 60
57 41
57 43
57 44
57 45
57 49
57 50
57 51
57 54
57 56
57 60
57 62
58 42
58 46
58 47
58 48
58 52
58 53
58 55
58 59
58 61
59 46
59 48
59 49
59 52
59 53
59 55
59 56
59 58
59 60
59 61
60 49
60 50
60 52
60 55
60 56
60 57
60 59
61 47
61 48
61 52
61 53
61 55
61 58
61 59
62 51
62 54
62 57
