1 2
1 4
1 5
1 6
1 7
1 8
1 9
1 11
1 12
1 13
1 15
1 17
1 18
2 1
2 4
2 7
2 8
2 12
2 13
2 14
2 18
2 19
2 20
2 23
3 5
3 6
3 9
3 10
3 11
3 16
3 17
3 21
4 1
4 2
4 5
4 6
4 7
4 8
4 9
4 12
4 13
4 15
4 17
4 18
4 19
4 22
5 1
5 3
5 4
5 6
5 8
5 9
5 10
5 11
5 12
5 15
5 16
5 17
5 18
5 22
6 1
6 3
6 4
6 5
6 9
6 10
6 11
6 12
6 15
6 16
6 17
6 21
6 24
7 1
7 2
7 4
7 8
7 12
7 13
7 14
7 18
7 19
7 20
7 23
7 25
7 27
8 1
8 2
8 4
8 5
8 7
8 9
8 12
8 13
8 14
8 15
8 18
8 19
8 20
8 22
8 23
8 25
9 1
9 3
9 4
9 5
9 6
9 8
9 10
9 11
9 12
9 15
9 16
9 17
9 18
9 21
9 22
9 24
9 26
9 29
10 3
10 5
10 6
10 9
10 11
10 16
10 17
10 21
10 24
10 28
10 30
11 1
11 3
11 5
11 6
11 9
11 10
11 12
11 15
11 16
11 17
11 21
11 22
11 24
11 26
11 28
11 30
12 1
12 2
12 4
12 5
12 6
12 7
12 8
12 9
12 11
12 13
12 15
12 17
12 18
12 19
12 22
12 23
12 25
12 26
12 29
12 31
13 1
13 2
13 4
13 7
13 8
13 12
13 14
13 15
13 18
13 19
13 20
13 22
13 23
13 25
13 27
13 29
13 31
13 33
14 2
14 7
14 8
14 13
14 18
14 19
14 20
14 23
14 25
14 27
14 33
15 1
15 4
15 5
15 6
15 8
15 9
15 11
15 12
15 13
15 16
15 17
15 18
15 19
15 21
15 22
15 24
15 25
15 26
15 29
15 31
15 32
16 3
16 5
16 6
16 9
16 10
16 11
16 15
16 17
16 21
16 24
16 26
16 28
16 30
16 35
16 37
17 1
17 3
17 4
17 5
17 6
17 9
17 10
17 11
17 12
17 15
17 16
17 18
17 21
17 22
17 24
17 26
17 28
17 29
17 30
17 32
17 35
17 36
18 1
18 2
18 4
18 5
18 7
18 8
18 9
18 12
18 13
18 14
18 15
18 17
18 19
18 20
18 22
18 23
18 25
18 26
18 27
18 29
18 31
18 32
18 33
18 34
18 39
19 2
19 4
19 7
19 8
19 12
19 13
19 14
19 15
19 18
19 20
19 22
19 23
19 25
19 27
19 29
19 31
19 33
19 34
19 40
20 2
20 7
20 8
20 13
20 14
20 18
20 19
20 23
20 25
20 27
20 33
20 40
21 3
21 6
21 9
21 10
21 11
21 15
21 16
21 17
21 24
21 26
21 28
21 30
21 35
21 36
21 37
21 38
21 43
22 4
22 5
22 8
22 9
22 11
22 12
22 13
22 15
22 17
22 18
22 19
22 23
22 24
22 25
22 26
22 29
22 30
22 31
22 32
22 34
22 35
22 36
22 39
22 41
22 44
23 2
23 7
23 8
23 12
23 13
23 14
23 18
23 19
23 20
23 22
23 25
23 27
23 29
23 31
23 33
23 34
23 39
23 40
23 45
24 6
24 9
24 10
24 11
24 15
24 16
24 17
24 21
24 22
24 26
24 28
24 29
24 30
24 32
24 35
24 36
24 37
24 38
24 42
24 43
24 48
25 7
25 8
25 12
25 13
25 14
25 15
25 18
25 19
25 20
25 22
25 23
25 26
25 27
25 29
25 31
25 32
25 33
25 34
25 36
25 39
25 40
25 41
25 44
25 45
26 9
26 11
26 12
26 15
26 16
26 17
26 18
26 21
26 22
26 24
26 25
26 28
26 29
26 30
26 31
26 32
26 35
26 36
26 37
26 38
26 39
26 41
26 42
26 43
26 44
26 47
27 7
27 13
27 14
27 18
27 19
27 20
27 23
27 25
27 31
27 33
27 34
27 40
27 45
27 50
28 10
28 11
28 16
28 17
28 21
28 24
28 26
28 30
28 35
28 36
28 37
28 38
28 42
28 43
28 48
28 51
29 9
29 12
29 13
29 15
29 17
29 18
29 19
29 22
29 23
29 24
29 25
29 26
29 31
29 32
29 33
29 34
29 35
29 36
29 39
29 40
29 41
29 42
29 44
29 45
29 46
29 47
30 10
30 11
30 16
30 17
30 21
30 22
30 24
30 26
30 28
30 32
30 35
30 36
30 37
30 38
30 42
30 43
30 47
30 48
30 51
30 52
31 12
31 13
31 15
31 18
31 19
31 22
31 23
31 25
31 26
31 27
31 29
31 32
31 33
31 34
31 35
31 36
31 39
31 40
31 41
31 44
31 45
31 46
31 49
31 50
31 55
32 15
32 17
32 18
32 22
32 24
32 25
32 26
32 29
32 30
32 31
32 33
32 34
32 35
32 36
32 37
32 39
32 41
32 42
32 43
32 44
32 45
32 46
32 47
32 49
32 52
32 54
33 13
33 14
33 18
33 19
33 20
33 23
33 25
33 27
33 29
33 31
33 32
33 34
33 39
33 40
33 44
33 45
33 49
33 50
33 53
33 57
34 18
34 19
34 22
34 23
34 25
34 27
34 29
34 31
34 32
34 33
34 36
34 39
34 40
34 41
34 44
34 45
34 46
34 49
34 50
34 53
34 54
34 55
34 57
35 16
35 17
35 21
35 22
35 24
35 26
35 28
35 29
35 30
35 31
35 32
35 36
35 37
35 38
35 39
35 41
35 42
35 43
35 44
35 46
35 47
35 48
35 51
35 52
35 54
35 56
35 58
36 17
36 21
36 22
36 24
36 25
36 26
36 28
36 29
36 30
36 31
36 32
36 34
36 35
36 37
36 38
36 39
36 41
36 42
36 43
36 44
36 46
36 47
36 48
36 52
36 54
36 55
36 56
36 58
37 16
37 21
37 24
37 26
37 28
37 30
37 32
37 35
37 36
37 38
37 41
37 42
37 43
37 47
37 48
37 51
37 52
37 56
37 58
37 61
38 21
38 24
38 26
38 28
38 30
38 35
38 36
38 37
38 42
38 43
38 47
38 48
38 51
38 52
38 56
39 18
39 22
39 23
39 25
39 26
39 29
39 31
39 32
39 33
39 34
39 35
39 36
39 40
39 41
39 42
39 44
39 45
39 46
39 47
39 49
39 50
39 52
39 54
39 55
39 57
39 58
39 59
40 19
40 20
40 23
40 25
40 27
40 29
40 31
40 33
40 34
40 39
40 41
40 44
40 45
40 46
40 49
40 50
40 53
40 55
40 57
40 60
41 22
41 25
41 26
41 29
41 31
41 32
41 34
41 35
41 36
41 37
41 39
41 40
41 42
41 43
41 44
41 45
41 46
41 47
41 48
41 49
41 52
41 54
41 55
41 57
41 58
41 59
41 62
41 64
42 24
42 26
42 28
42 29
42 30
42 32
42 35
42 36
42 37
42 38
42 39
42 41
42 43
42 44
42 46
42 47
42 48
42 51
42 52
42 54
42 56
42 58
42 59
42 61
42 62
42 67
43 21
43 24
43 26
43 28
43 30
43 32
43 35
43 36
43 37
43 38
43 41
43 42
43 47
43 48
43 51
43 52
43 56
43 58
43 61
43 62
43 66
43 67
44 22
44 25
44 26
44 29
44 31
44 32
44 33
44 34
44 35
44 36
44 39
44 40
44 41
44 42
44 45
44 46
44 47
44 49
44 50
44 52
44 53
44 54
44 55
44 57
44 58
44 59
44 60
44 64
44 65
45 23
45 25
45 27
45 29
45 31
45 32
45 33
45 34
45 39
45 40
45 41
45 44
45 46
45 49
45 50
45 53
45 54
45 55
45 57
45 60
45 63
45 64
45 65
46 29
46 31
46 32
46 34
46 35
46 36
46 39
46 40
46 41
46 42
46 44
46 45
46 47
46 48
46 49
46 50
46 52
46 54
46 55
46 56
46 57
46 58
46 59
46 60
46 62
46 64
46 65
46 68
46 71
47 26
47 29
47 30
47 32
47 35
47 36
47 37
47 38
47 39
47 41
47 42
47 43
47 44
47 46
47 48
47 51
47 52
47 54
47 55
47 56
47 58
47 59
47 61
47 62
47 64
47 66
47 67
47 68
48 24
48 28
48 30
48 35
48 36
48 37
48 38
48 41
48 42
48 43
48 46
48 47
48 51
48 52
48 54
48 56
48 58
48 61
48 62
48 66
48 67
48 72
48 74
49 31
49 32
49 33
49 34
49 39
49 40
49 41
49 44
49 45
49 46
49 50
49 53
49 54
49 55
49 57
49 59
49 60
49 63
49 64
49 65
49 69
49 70
49 71
50 27
50 31
50 33
50 34
50 39
50 40
50 44
50 45
50 46
50 49
50 53
50 55
50 57
50 60
50 63
50 64
50 65
50 69
50 70
50 75
51 28
51 30
51 35
51 37
51 38
51 42
51 43
51 47
51 48
51 52
51 56
51 58
51 61
51 62
51 66
51 67
51 72
52 30
52 32
52 35
52 36
52 37
52 38
52 39
52 41
52 42
52 43
52 44
52 46
52 47
52 48
52 51
52 54
52 55
52 56
52 58
52 59
52 61
52 62
52 64
52 66
52 67
52 68
52 72
52 73
52 74
53 33
53 34
53 40
53 44
53 45
53 49
53 50
53 55
53 57
53 60
53 63
53 65
53 69
53 70
53 75
54 32
54 34
54 35
54 36
54 39
54 41
54 42
54 44
54 45
54 46
54 47
54 48
54 49
54 52
54 55
54 56
54 57
54 58
54 59
54 60
54 61
54 62
54 64
54 65
54 67
54 68
54 70
54 71
54 73
54 77
55 31
55 34
55 36
55 39
55 40
55 41
55 44
55 45
55 46
55 47
55 49
55 50
55 52
55 53
55 54
55 57
55 58
55 59
55 60
55 62
55 63
55 64
55 65
55 68
55 69
55 70
55 71
55 76
55 77
56 35
56 36
56 37
56 38
56 42
56 43
56 46
56 47
56 48
56 51
56 52
56 54
56 58
56 59
56 61
56 62
56 66
56 67
56 68
56 72
56 73
56 74
57 33
57 34
57 39
57 40
57 41
57 44
57 45
57 46
57 49
57 50
57 53
57 54
57 55
57 59
57 60
57 63
57 64
57 65
57 69
57 70
57 71
57 75
57 76
58 35
58 36
58 37
58 39
58 41
58 42
58 43
58 44
58 46
58 47
58 48
58 51
58 52
58 54
58 55
58 56
58 59
58 61
58 62
58 64
58 66
58 67
58 68
58 71
58 72
58 73
58 74
58 77
59 39
59 41
59 42
59 44
59 46
59 47
59 49
59 52
59 54
59 55
59 56
59 57
59 58
59 60
59 61
59 62
59 64
59 65
59 67
59 68
59 70
59 71
59 73
59 74
59 76
59 77
60 40
60 44
60 45
60 46
60 49
60 50
60 53
60 54
60 55
60 57
60 59
60 63
60 64
60 65
60 69
60 70
60 71
60 75
60 76
61 37
61 42
61 43
61 47
61 48
61 51
61 52
61 54
61 56
61 58
61 59
61 62
61 66
61 67
61 68
61 72
61 73
61 74
62 41
62 42
62 43
62 46
62 47
62 48
62 51
62 52
62 54
62 55
62 56
62 58
62 59
62 61
62 64
62 66
62 67
62 68
62 71
62 72
62 73
62 74
62 77
63 45
63 49
63 50
63 53
63 55
63 57
63 60
63 64
63 65
63 69
63 70
63 75
63 76
64 41
64 44
64 45
64 46
64 47
64 49
64 50
64 52
64 54
64 55
64 57
64 58
64 59
64 60
64 62
64 63
64 65
64 67
64 68
64 69
64 70
64 71
64 73
64 75
64 76
64 77
65 44
65 45
65 46
65 49
65 50
65 53
65 54
65 55
65 57
65 59
65 60
65 63
65 64
65 68
65 69
65 70
65 71
65 75
65 76
65 77
66 43
66 47
66 48
66 51
66 52
66 56
66 58
66 61
66 62
66 67
66 68
66 72
66 73
66 74
67 42
67 43
67 47
67 48
67 51
67 52
67 54
67 56
67 58
67 59
67 61
67 62
67 64
67 66
67 68
67 71
67 72
67 73
67 74
67 77
68 46
68 47
68 52
68 54
68 55
68 56
68 58
68 59
68 61
68 62
68 64
68 65
68 66
68 67
68 70
68 71
68 72
68 73
68 74
68 76
68 77
69 49
69 50
69 53
69 55
69 57
69 60
69 63
69 64
69 65
69 70
69 71
69 75
69 76
69 77
70 49
70 50
70 53
70 54
70 55
70 57
70 59
70 60
70 63
70 64
70 65
70 68
70 69
70 71
70 75
70 76
70 77
71 46
71 49
71 54
71 55
71 57
71 58
71 59
71 60
71 62
71 64
71 65
71 67
71 68
71 69
71 70
71 73
71 74
71 75
71 76
71 77
72 48
72 51
72 52
72 56
72 58
72 61
72 62
72 66
72 67
72 68
72 73
72 74
73 52
73 54
73 56
73 58
73 59
73 61
73 62
73 64
73 66
73 67
73 68
73 71
73 72
73 74
73 77
74 48
74 52
74 56
74 58
74 59
74 61
74 62
74 66
74 67
74 68
74 71
74 72
74 73
74 77
75 50
75 53
75 57
75 60
75 63
75 64
75 65
75 69
75 70
75 71
75 76
76 55
76 57
76 59
76 60
76 63
76 64
76 65
76 68
76 69
76 70
76 71
76 75
76 77
77 54
77 55
77 58
77 59
77 62
77 64
77 65
77 67
77 68
77 69
77 70
77 71
77 73
77 74
77 76
