1 3
1 4
1 8
2 5
2 7
2 9
3 1
3 8
3 10
4 1
4 6
4 8
4 11
4 13
5 2
5 6
5 9
5 11
5 12
6 4
6 5
6 11
6 13
7 2
7 9
7 14
8 1
8 3
8 4
8 10
8 13
8 15
9 2
9 5
9 7
9 12
9 14
9 16
10 3
10 8
10 15
10 18
10 19
11 4
11 5
11 6
11 12
11 13
11 17
12 5
12 9
12 11
12 16
12 17
12 22
13 4
13 6
13 8
13 11
13 15
13 17
13 18
13 21
14 7
14 9
14 16
14 20
15 8
15 10
15 13
15 18
15 19
15 21
16 9
16 12
16 14
16 17
16 20
16 22
16 23
17 11
17 12
17 13
17 16
17 21
17 23
17 27
18 10
18 13
18 15
18 19
18 21
18 26
18 28
19 10
19 15
19 18
19 28
20 14
20 16
20 22
20 24
20 25
21 13
21 15
21 17
21 18
21 23
21 26
21 29
21 30
22 12
22 16
22 20
22 23
22 24
22 25
22 27
22 32
23 16
23 17
23 21
23 22
23 27
23 29
24 20
24 22
24 25
24 31
24 32
25 20
25 22
25 24
25 27
25 31
25 32
26 18
26 21
26 28
26 29
26 30
26 33
26 35
27 17
27 22
27 23
27 25
27 29
27 32
27 34
28 18
28 19
28 26
28 33
29 21
29 23
29 26
29 27
29 30
29 35
30 21
30 26
30 29
30 33
30 35
30 38
31 24
31 25
31 36
31 37
32 22
32 24
32 25
32 27
32 34
32 37
33 26
33 28
33 30
33 38
33 39
34 27
34 32
34 37
34 40
34 45
35 26
35 29
35 30
35 38
35 41
35 43
35 44
36 31
36 37
36 42
37 31
37 32
37 34
37 36
37 40
37 42
38 30
38 33
38 35
38 39
38 41
38 44
39 33
39 38
39 41
39 46
40 34
40 37
40 43
40 45
40 49
41 35
41 38
41 39
41 44
41 46
41 48
42 36
42 37
42 45
42 47
43 35
43 40
43 44
43 45
43 49
43 50
44 35
44 38
44 41
44 43
44 48
44 50
45 34
45 40
45 42
45 43
45 47
45 49
45 52
45 54
46 39
46 41
46 48
46 53
46 55
47 42
47 45
47 51
47 52
47 54
48 41
48 44
48 46
48 50
48 53
48 56
48 58
49 40
49 43
49 45
49 50
49 54
49 56
49 57
50 43
50 44
50 48
50 49
50 53
50 56
50 58
51 47
51 59
52 45
52 47
52 54
52 59
52 61
53 46
53 48
53 50
53 55
53 58
53 60
53 62
54 45
54 47
54 49
54 52
54 56
54 57
54 61
55 46
55 53
55 60
55 62
55 65
56 48
56 49
56 50
56 54
56 57
56 58
56 63
56 64
57 49
57 54
57 56
57 61
57 63
57 66
58 48
58 50
58 53
58 56
58 60
58 63
58 64
59 51
59 52
59 67
59 68
60 53
60 55
60 58
60 62
60 64
60 65
61 52
61 54
61 57
61 63
61 66
61 67
62 53
62 55
62 60
62 65
63 56
63 57
63 58
63 61
63 64
63 66
64 56
64 58
64 60
64 63
65 55
65 60
65 62
66 57
66 61
66 63
66 67
67 59
67 61
67 66
67 68
68 59
68 67
