1 4
1 8
1 10
1 14
1 17
2 3
2 5
2 6
2 7
2 9
2 11
2 12
2 13
2 16
3 2
3 4
3 5
3 6
3 8
3 10
3 11
3 13
3 14
3 15
3 18
3 19
4 1
4 3
4 5
4 8
4 10
4 13
4 14
4 15
4 17
4 20
5 2
5 3
5 4
5 6
5 7
5 9
5 10
5 11
5 12
5 13
5 15
5 18
5 19
6 2
6 3
6 5
6 7
6 9
6 11
6 12
6 13
6 15
6 16
6 18
6 19
7 2
7 5
7 6
7 9
7 11
7 12
7 16
7 23
8 1
8 3
8 4
8 10
8 14
8 15
8 17
8 20
8 24
9 2
9 5
9 6
9 7
9 11
9 12
9 13
9 16
9 18
9 21
9 23
9 25
10 1
10 3
10 4
10 5
10 8
10 11
10 13
10 14
10 15
10 17
10 18
10 19
10 20
10 22
10 24
10 26
11 2
11 3
11 5
11 6
11 7
11 9
11 10
11 12
11 13
11 15
11 16
11 18
11 19
11 21
11 22
11 23
11 25
11 29
12 2
12 5
12 6
12 7
12 9
12 11
12 13
12 16
12 18
12 19
12 21
12 23
12 25
12 29
13 2
13 3
13 4
13 5
13 6
13 9
13 10
13 11
13 12
13 14
13 15
13 16
13 18
13 19
13 20
13 21
13 22
13 24
13 26
13 28
13 29
14 1
14 3
14 4
14 8
14 10
14 13
14 15
14 17
14 19
14 20
14 22
14 24
14 26
14 27
14 30
15 3
15 4
15 5
15 6
15 8
15 10
15 11
15 13
15 14
15 17
15 18
15 19
15 20
15 22
15 24
15 26
15 28
16 2
16 6
16 7
16 9
16 11
16 12
16 13
16 18
16 19
16 21
16 23
16 25
16 29
16 31
17 1
17 4
17 8
17 10
17 14
17 15
17 20
17 22
17 24
17 26
17 27
17 30
18 3
18 5
18 6
18 9
18 10
18 11
18 12
18 13
18 15
18 16
18 19
18 20
18 21
18 22
18 23
18 24
18 25
18 26
18 28
18 29
18 34
19 3
19 5
19 6
19 10
19 11
19 12
19 13
19 14
19 15
19 16
19 18
19 20
19 21
19 22
19 24
19 25
19 26
19 28
19 29
19 32
19 34
20 4
20 8
20 10
20 13
20 14
20 15
20 17
20 18
20 19
20 22
20 24
20 26
20 27
20 28
20 30
20 32
20 33
21 9
21 11
21 12
21 13
21 16
21 18
21 19
21 22
21 23
21 25
21 28
21 29
21 31
21 34
21 37
22 10
22 11
22 13
22 14
22 15
22 17
22 18
22 19
22 20
22 21
22 24
22 26
22 27
22 28
22 29
22 30
22 32
22 33
22 34
22 35
22 38
23 7
23 9
23 11
23 12
23 16
23 18
23 21
23 25
23 29
23 31
24 8
24 10
24 13
24 14
24 15
24 17
24 18
24 19
24 20
24 22
24 26
24 27
24 28
24 30
24 32
24 33
24 35
24 36
24 38
25 9
25 11
25 12
25 16
25 18
25 19
25 21
25 23
25 28
25 29
25 31
25 34
25 37
26 10
26 13
26 14
26 15
26 17
26 18
26 19
26 20
26 22
26 24
26 27
26 28
26 29
26 30
26 32
26 33
26 34
26 35
26 36
26 38
27 14
27 17
27 20
27 22
27 24
27 26
27 30
27 32
27 33
27 36
27 38
28 13
28 15
28 18
28 19
28 20
28 21
28 22
28 24
28 25
28 26
28 29
28 30
28 31
28 32
28 33
28 34
28 35
28 37
28 38
29 11
29 12
29 13
29 16
29 18
29 19
29 21
29 22
29 23
29 25
29 26
29 28
29 31
29 32
29 34
29 35
29 37
29 39
30 14
30 17
30 20
30 22
30 24
30 26
30 27
30 28
30 32
30 33
30 35
30 36
30 38
30 40
30 41
30 43
31 16
31 21
31 23
31 25
31 28
31 29
31 34
31 37
31 39
31 42
31 46
32 19
32 20
32 22
32 24
32 26
32 27
32 28
32 29
32 30
32 33
32 34
32 35
32 36
32 37
32 38
32 40
32 43
32 44
32 45
33 20
33 22
33 24
33 26
33 27
33 28
33 30
33 32
33 34
33 35
33 36
33 38
33 40
33 41
33 43
34 18
34 19
34 21
34 22
34 25
34 26
34 28
34 29
34 31
34 32
34 33
34 35
34 37
34 38
34 39
34 40
34 42
34 44
34 45
35 22
35 24
35 26
35 28
35 29
35 30
35 32
35 33
35 34
35 36
35 37
35 38
35 40
35 42
35 43
35 44
35 45
35 50
36 24
36 26
36 27
36 30
36 32
36 33
36 35
36 38
36 40
36 41
36 43
36 47
36 48
37 21
37 25
37 28
37 29
37 31
37 32
37 34
37 35
37 38
37 39
37 42
37 44
37 45
37 46
37 49
38 22
38 24
38 26
38 27
38 28
38 30
38 32
38 33
38 34
38 35
38 36
38 37
38 40
38 41
38 42
38 43
38 44
38 45
38 48
38 50
38 51
39 29
39 31
39 34
39 37
39 42
39 44
39 45
39 46
39 49
39 52
39 54
40 30
40 32
40 33
40 34
40 35
40 36
40 38
40 41
40 43
40 44
40 45
40 47
40 48
40 50
40 51
40 52
40 53
40 55
40 56
41 30
41 33
41 36
41 38
41 40
41 43
41 47
41 48
41 50
41 53
41 55
42 31
42 34
42 35
42 37
42 38
42 39
42 44
42 45
42 46
42 49
42 51
42 52
42 54
43 30
43 32
43 33
43 35
43 36
43 38
43 40
43 41
43 44
43 47
43 48
43 50
43 51
43 53
43 55
43 56
44 32
44 34
44 35
44 37
44 38
44 39
44 40
44 42
44 43
44 45
44 49
44 50
44 51
44 52
44 55
44 56
45 32
45 34
45 35
45 37
45 38
45 39
45 40
45 42
45 44
45 46
45 49
45 50
45 51
45 52
45 54
46 31
46 37
46 39
46 42
46 45
46 49
46 52
46 54
47 36
47 40
47 41
47 43
47 48
47 50
47 53
47 55
48 36
48 38
48 40
48 41
48 43
48 47
48 50
48 51
48 53
48 55
48 56
49 37
49 39
49 42
49 44
49 45
49 46
49 51
49 52
49 54
50 35
50 38
50 40
50 41
50 43
50 44
50 45
50 47
50 48
50 51
50 52
50 53
50 55
50 56
51 38
51 40
51 42
51 43
51 44
51 45
51 48
51 49
51 50
51 52
51 53
51 55
51 56
52 39
52 40
52 42
52 44
52 45
52 46
52 49
52 50
52 51
52 53
52 54
52 55
52 56
53 40
53 41
53 43
53 47
53 48
53 50
53 51
53 52
53 55
53 56
54 39
54 42
54 45
54 46
54 49
54 52
55 40
55 41
55 43
55 44
55 47
55 48
55 50
55 51
55 52
55 53
55 56
56 40
56 43
56 44
56 48
56 50
56 51
56 52
56 53
56 55
