1 3
1 5
1 6
1 10
1 12
2 4
2 7
2 8
2 11
2 16
3 1
3 5
3 6
3 10
3 12
3 13
4 2
4 5
4 8
4 9
4 11
4 13
4 15
4 17
5 1
5 3
5 4
5 6
5 8
5 9
5 12
5 13
5 17
5 18
6 1
6 3
6 5
6 9
6 10
6 12
6 13
6 17
6 18
7 2
7 8
7 11
7 14
7 15
7 16
7 21
7 22
8 2
8 4
8 5
8 7
8 9
8 11
8 15
8 16
8 17
8 19
8 24
9 4
9 5
9 6
9 8
9 11
9 13
9 15
9 17
9 18
9 19
9 20
10 1
10 3
10 6
10 12
10 13
10 18
10 23
11 2
11 4
11 7
11 8
11 9
11 14
11 15
11 16
11 19
11 21
11 24
12 1
12 3
12 5
12 6
12 10
12 13
12 18
12 23
12 25
12 26
13 3
13 4
13 5
13 6
13 9
13 10
13 12
13 17
13 18
13 20
13 25
13 27
14 7
14 11
14 15
14 16
14 21
14 22
15 4
15 7
15 8
15 9
15 11
15 14
15 16
15 17
15 19
15 20
15 21
15 24
16 2
16 7
16 8
16 11
16 14
16 15
16 19
16 21
16 22
16 24
16 28
17 4
17 5
17 6
17 8
17 9
17 13
17 15
17 18
17 19
17 20
17 24
17 25
17 27
18 5
18 6
18 9
18 10
18 12
18 13
18 17
18 20
18 23
18 25
18 26
18 27
18 30
18 33
19 8
19 9
19 11
19 15
19 16
19 17
19 20
19 21
19 24
19 27
19 28
19 31
19 32
20 9
20 13
20 15
20 17
20 18
20 19
20 24
20 25
20 27
20 30
20 31
20 35
21 7
21 11
21 14
21 15
21 16
21 19
21 22
21 24
21 28
21 29
21 31
21 32
21 36
21 37
22 7
22 14
22 16
22 21
22 28
22 29
22 32
22 36
23 10
23 12
23 18
23 25
23 26
23 30
23 34
24 8
24 11
24 15
24 16
24 17
24 19
24 20
24 21
24 27
24 28
24 31
24 32
24 35
24 37
24 39
25 12
25 13
25 17
25 18
25 20
25 23
25 26
25 27
25 30
25 33
25 34
25 38
26 12
26 18
26 23
26 25
26 30
26 33
26 34
27 13
27 17
27 18
27 19
27 20
27 24
27 25
27 30
27 31
27 33
27 35
27 38
28 16
28 19
28 21
28 22
28 24
28 29
28 31
28 32
28 35
28 36
28 37
28 39
28 41
29 21
29 22
29 28
29 32
29 36
29 37
30 18
30 20
30 23
30 25
30 26
30 27
30 33
30 34
30 38
30 40
30 42
31 19
31 20
31 21
31 24
31 27
31 28
31 32
31 35
31 37
31 38
31 39
31 43
32 19
32 21
32 22
32 24
32 28
32 29
32 31
32 35
32 36
32 37
32 39
32 41
32 43
32 45
33 18
33 25
33 26
33 27
33 30
33 34
33 38
33 40
33 42
33 46
34 23
34 25
34 26
34 30
34 33
34 40
34 42
34 47
35 20
35 24
35 27
35 28
35 31
35 32
35 36
35 37
35 38
35 39
35 41
35 43
35 44
36 21
36 22
36 28
36 29
36 32
36 35
36 37
36 39
36 41
36 43
36 45
37 21
37 24
37 28
37 29
37 31
37 32
37 35
37 36
37 39
37 41
37 43
37 45
37 50
38 25
38 27
38 30
38 31
38 33
38 35
38 39
38 40
38 42
38 43
38 44
38 46
38 49
38 52
39 24
39 28
39 31
39 32
39 35
39 36
39 37
39 38
39 41
39 43
39 44
39 45
39 49
39 50
40 30
40 33
40 34
40 38
40 42
40 46
40 47
40 48
40 53
41 28
41 32
41 35
41 36
41 37
41 39
41 43
41 44
41 45
41 50
41 51
42 30
42 33
42 34
42 38
42 40
42 44
42 46
42 47
42 48
42 52
42 53
43 31
43 32
43 35
43 36
43 37
43 38
43 39
43 41
43 44
43 45
43 49
43 50
43 56
43 57
44 35
44 38
44 39
44 41
44 42
44 43
44 46
44 49
44 50
44 52
44 55
44 56
45 32
45 36
45 37
45 39
45 41
45 43
45 50
45 51
45 54
45 57
46 33
46 38
46 40
46 42
46 44
46 47
46 48
46 49
46 52
46 53
46 55
46 56
47 34
47 40
47 42
47 46
47 48
47 52
47 53
47 58
48 40
48 42
48 46
48 47
48 52
48 53
48 55
48 58
49 38
49 39
49 43
49 44
49 46
49 50
49 52
49 55
49 56
49 57
49 60
50 37
50 39
50 41
50 43
50 44
50 45
50 49
50 51
50 54
50 56
50 57
51 41
51 45
51 50
51 54
51 57
51 62
52 38
52 42
52 44
52 46
52 47
52 48
52 49
52 53
52 55
52 56
52 58
52 59
53 40
53 42
53 46
53 47
53 48
53 52
53 55
53 58
53 59
53 61
54 45
54 50
54 51
54 57
54 62
55 44
55 46
55 48
55 49
55 52
55 53
55 56
55 58
55 59
55 60
55 61
56 43
56 44
56 46
56 49
56 50
56 52
56 55
56 57
56 59
56 60
57 43
57 45
57 49
57 50
57 51
57 54
57 56
57 60
57 62
58 47
58 48
58 52
58 53
58 55
58 59
58 61
59 52
59 53
59 55
59 56
59 58
59 60
59 61
60 49
60 55
60 56
60 57
60 59
61 53
61 55
61 58
61 59
62 51
62 54
62 57
