1 2
1 4
1 5
1 7
1 10
1 11
1 12
1 13
1 15
1 18
1 20
1 21
1 24
2 1
2 7
2 10
2 11
2 13
2 15
2 18
2 20
3 4
3 5
3 6
3 8
3 9
3 12
3 14
3 16
3 17
3 19
3 22
3 23
4 1
4 3
4 5
4 7
4 8
4 10
4 11
4 12
4 15
4 16
4 21
4 22
4 24
5 1
5 3
5 4
5 7
5 8
5 9
5 11
5 12
5 14
5 15
5 16
5 19
5 21
5 22
6 3
6 8
6 9
6 14
6 17
6 19
6 25
7 1
7 2
7 4
7 5
7 8
7 10
7 11
7 12
7 13
7 15
7 16
7 20
7 21
7 22
7 24
8 3
8 4
8 5
8 6
8 7
8 9
8 11
8 12
8 14
8 16
8 17
8 19
8 21
8 22
8 23
8 25
8 27
8 28
9 3
9 5
9 6
9 8
9 12
9 14
9 16
9 17
9 19
9 22
9 23
9 25
9 28
10 1
10 2
10 4
10 7
10 11
10 12
10 13
10 15
10 18
10 20
10 21
10 24
10 26
10 29
11 1
11 2
11 4
11 5
11 7
11 8
11 10
11 12
11 13
11 15
11 16
11 18
11 20
11 21
11 22
11 24
11 30
12 1
12 3
12 4
12 5
12 7
12 8
12 9
12 10
12 11
12 14
12 15
12 16
12 19
12 20
12 21
12 22
12 23
12 24
12 27
12 30
13 1
13 2
13 7
13 10
13 11
13 15
13 18
13 20
13 24
13 26
13 29
13 33
14 3
14 5
14 6
14 8
14 9
14 12
14 16
14 17
14 19
14 22
14 23
14 25
14 27
14 28
14 31
14 32
15 1
15 2
15 4
15 5
15 7
15 10
15 11
15 12
15 13
15 16
15 18
15 20
15 21
15 22
15 24
15 26
15 29
15 30
15 33
16 3
16 4
16 5
16 7
16 8
16 9
16 11
16 12
16 14
16 15
16 19
16 21
16 22
16 23
16 24
16 25
16 27
16 28
16 30
16 31
16 34
17 3
17 6
17 8
17 9
17 14
17 19
17 23
17 25
17 28
17 32
18 1
18 2
18 10
18 11
18 13
18 15
18 20
18 24
18 26
18 29
18 33
18 35
19 3
19 5
19 6
19 8
19 9
19 12
19 14
19 16
19 17
19 21
19 22
19 23
19 25
19 27
19 28
19 31
19 32
19 38
20 1
20 2
20 7
20 10
20 11
20 12
20 13
20 15
20 18
20 21
20 24
20 26
20 29
20 30
20 33
20 35
20 36
21 1
21 4
21 5
21 7
21 8
21 10
21 11
21 12
21 15
21 16
21 19
21 20
21 22
21 23
21 24
21 27
21 29
21 30
21 31
21 34
21 36
21 37
21 39
22 3
22 4
22 5
22 7
22 8
22 9
22 11
22 12
22 14
22 15
22 16
22 19
22 21
22 23
22 24
22 25
22 27
22 28
22 30
22 31
22 34
22 37
22 39
23 3
23 8
23 9
23 12
23 14
23 16
23 17
23 19
23 21
23 22
23 25
23 27
23 28
23 31
23 32
23 34
23 37
23 38
24 1
24 4
24 7
24 10
24 11
24 12
24 13
24 15
24 16
24 18
24 20
24 21
24 22
24 26
24 27
24 29
24 30
24 33
24 34
24 36
24 39
25 6
25 8
25 9
25 14
25 16
25 17
25 19
25 22
25 23
25 27
25 28
25 31
25 32
25 38
25 42
26 10
26 13
26 15
26 18
26 20
26 24
26 29
26 33
26 35
26 36
26 40
27 8
27 12
27 14
27 16
27 19
27 21
27 22
27 23
27 24
27 25
27 28
27 30
27 31
27 32
27 34
27 37
27 38
27 39
27 41
27 43
28 8
28 9
28 14
28 16
28 17
28 19
28 22
28 23
28 25
28 27
28 31
28 32
28 34
28 37
28 38
28 42
28 43
29 10
29 13
29 15
29 18
29 20
29 21
29 24
29 26
29 30
29 33
29 35
29 36
29 40
29 44
30 11
30 12
30 15
30 16
30 20
30 21
30 22
30 24
30 27
30 29
30 31
30 33
30 34
30 36
30 37
30 39
30 41
30 45
30 46
31 14
31 16
31 19
31 21
31 22
31 23
31 25
31 27
31 28
31 30
31 32
31 34
31 37
31 38
31 39
31 41
31 42
31 43
31 46
31 47
31 49
32 14
32 17
32 19
32 23
32 25
32 27
32 28
32 31
32 37
32 38
32 42
32 43
32 47
33 13
33 15
33 18
33 20
33 24
33 26
33 29
33 30
33 35
33 36
33 39
33 40
33 44
33 45
33 48
34 16
34 21
34 22
34 23
34 24
34 27
34 28
34 30
34 31
34 36
34 37
34 38
34 39
34 41
34 43
34 45
34 46
34 49
34 50
35 18
35 20
35 26
35 29
35 33
35 36
35 40
35 44
35 48
35 52
36 20
36 21
36 24
36 26
36 29
36 30
36 33
36 34
36 35
36 39
36 40
36 41
36 44
36 45
36 46
36 48
36 50
36 51
36 52
37 21
37 22
37 23
37 27
37 28
37 30
37 31
37 32
37 34
37 38
37 39
37 41
37 42
37 43
37 45
37 46
37 47
37 49
37 50
37 53
37 54
38 19
38 23
38 25
38 27
38 28
38 31
38 32
38 34
38 37
38 41
38 42
38 43
38 47
38 49
38 54
38 55
38 56
39 21
39 22
39 24
39 27
39 30
39 31
39 33
39 34
39 36
39 37
39 40
39 41
39 43
39 44
39 45
39 46
39 49
39 50
39 51
39 53
40 26
40 29
40 33
40 35
40 36
40 39
40 44
40 45
40 48
40 51
40 52
40 57
41 27
41 30
41 31
41 34
41 36
41 37
41 38
41 39
41 42
41 43
41 45
41 46
41 47
41 49
41 50
41 51
41 53
41 54
42 25
42 28
42 31
42 32
42 37
42 38
42 41
42 43
42 47
42 49
42 54
42 55
42 56
42 59
43 27
43 28
43 31
43 32
43 34
43 37
43 38
43 39
43 41
43 42
43 45
43 46
43 47
43 49
43 53
43 54
43 55
43 56
43 59
44 29
44 33
44 35
44 36
44 39
44 40
44 45
44 48
44 50
44 51
44 52
44 57
44 58
44 60
45 30
45 33
45 34
45 36
45 37
45 39
45 40
45 41
45 43
45 44
45 46
45 49
45 50
45 51
45 53
45 54
45 57
45 60
45 61
46 30
46 31
46 34
46 36
46 37
46 39
46 41
46 43
46 45
46 47
46 49
46 50
46 51
46 53
46 54
46 60
46 61
46 62
47 31
47 32
47 37
47 38
47 41
47 42
47 43
47 46
47 49
47 54
47 55
47 56
47 59
47 63
47 65
48 33
48 35
48 36
48 40
48 44
48 51
48 52
48 57
48 58
48 60
48 64
49 31
49 34
49 37
49 38
49 39
49 41
49 42
49 43
49 45
49 46
49 47
49 50
49 53
49 54
49 55
49 56
49 59
49 62
49 65
50 34
50 36
50 37
50 39
50 41
50 44
50 45
50 46
50 49
50 51
50 53
50 54
50 57
50 60
50 61
50 62
50 66
51 36
51 39
51 40
51 41
51 44
51 45
51 46
51 48
51 50
51 52
51 53
51 57
51 58
51 60
51 61
51 64
51 66
52 35
52 36
52 40
52 44
52 48
52 51
52 57
52 58
52 60
52 64
52 66
52 68
53 37
53 39
53 41
53 43
53 45
53 46
53 49
53 50
53 51
53 54
53 59
53 60
53 61
53 62
53 65
53 66
53 69
54 37
54 38
54 41
54 42
54 43
54 45
54 46
54 47
54 49
54 50
54 53
54 55
54 56
54 59
54 61
54 62
54 63
54 65
54 67
54 69
55 38
55 42
55 43
55 47
55 49
55 54
55 56
55 59
55 62
55 63
55 65
55 67
56 38
56 42
56 43
56 47
56 49
56 54
56 55
56 59
56 63
56 65
56 67
57 40
57 44
57 45
57 48
57 50
57 51
57 52
57 58
57 60
57 61
57 64
57 66
57 68
57 70
58 44
58 48
58 51
58 52
58 57
58 60
58 64
58 66
58 68
58 70
58 75
59 42
59 43
59 47
59 49
59 53
59 54
59 55
59 56
59 62
59 63
59 65
59 67
59 69
59 73
59 74
60 44
60 45
60 46
60 48
60 50
60 51
60 52
60 53
60 57
60 58
60 61
60 62
60 64
60 66
60 68
60 70
60 71
60 72
60 77
60 78
61 45
61 46
61 50
61 51
61 53
61 54
61 57
61 60
61 62
61 64
61 65
61 66
61 69
61 70
61 71
61 72
61 77
61 78
61 80
62 46
62 49
62 50
62 53
62 54
62 55
62 59
62 60
62 61
62 65
62 66
62 67
62 69
62 71
62 72
62 73
62 79
62 80
63 47
63 54
63 55
63 56
63 59
63 65
63 67
63 73
63 74
63 81
64 48
64 51
64 52
64 57
64 58
64 60
64 61
64 66
64 68
64 70
64 71
64 75
64 76
64 78
65 47
65 49
65 53
65 54
65 55
65 56
65 59
65 61
65 62
65 63
65 67
65 69
65 72
65 73
65 74
65 79
66 50
66 51
66 52
66 53
66 57
66 58
66 60
66 61
66 62
66 64
66 68
66 69
66 70
66 71
66 72
66 76
66 77
66 78
66 80
67 54
67 55
67 56
67 59
67 62
67 63
67 65
67 69
67 73
67 74
67 79
67 81
68 52
68 57
68 58
68 60
68 64
68 66
68 70
68 71
68 75
68 76
68 77
68 78
69 53
69 54
69 59
69 61
69 62
69 65
69 66
69 67
69 71
69 72
69 73
69 74
69 77
69 79
69 80
70 57
70 58
70 60
70 61
70 64
70 66
70 68
70 71
70 72
70 75
70 76
70 77
70 78
70 80
71 60
71 61
71 62
71 64
71 66
71 68
71 69
71 70
71 72
71 76
71 77
71 78
71 79
71 80
72 60
72 61
72 62
72 65
72 66
72 69
72 70
72 71
72 73
72 77
72 78
72 79
72 80
73 59
73 62
73 63
73 65
73 67
73 69
73 72
73 74
73 79
73 80
73 81
74 59
74 63
74 65
74 67
74 69
74 73
74 79
74 81
75 58
75 64
75 68
75 70
75 76
75 78
76 64
76 66
76 68
76 70
76 71
76 75
76 77
76 78
76 80
77 60
77 61
77 66
77 68
77 69
77 70
77 71
77 72
77 76
77 78
77 79
77 80
78 60
78 61
78 64
78 66
78 68
78 70
78 71
78 72
78 75
78 76
78 77
78 80
79 62
79 65
79 67
79 69
79 71
79 72
79 73
79 74
79 77
79 80
79 81
80 61
80 62
80 66
80 69
80 70
80 71
80 72
80 73
80 76
80 77
80 78
80 79
81 63
81 67
81 73
81 74
81 79
