1 6
2 3
2 5
2 9
3 2
3 4
3 7
4 3
4 6
4 7
4 8
4 12
5 2
5 10
6 1
6 4
6 8
6 11
7 3
7 4
7 8
7 12
7 14
7 15
8 4
8 6
8 7
8 11
8 12
8 14
8 16
9 2
9 10
9 12
9 15
9 17
10 5
10 9
10 17
10 18
11 6
11 8
11 13
11 16
11 19
12 4
12 7
12 8
12 9
12 14
12 15
12 21
13 11
13 19
14 7
14 8
14 12
14 15
14 16
14 20
14 21
14 24
15 7
15 9
15 12
15 14
15 21
15 22
16 8
16 11
16 14
16 19
16 20
16 23
16 25
17 9
17 10
17 18
17 22
18 10
18 17
18 26
19 11
19 13
19 16
19 23
19 25
19 27
20 14
20 16
20 21
20 24
20 25
20 29
21 12
21 14
21 15
21 20
21 22
21 24
21 28
21 29
22 15
22 17
22 21
22 28
22 30
23 16
23 19
23 25
23 27
24 14
24 20
24 21
24 25
24 28
24 29
24 31
25 16
25 19
25 20
25 23
25 24
25 31
25 33
26 18
26 30
26 32
27 19
27 23
27 33
28 21
28 22
28 24
28 29
28 30
28 34
28 35
28 37
29 20
29 21
29 24
29 28
29 31
29 34
30 22
30 26
30 28
30 32
30 35
31 24
31 25
31 29
31 33
31 38
32 26
32 30
32 35
32 36
32 41
33 25
33 27
33 31
33 39
34 28
34 29
34 37
34 40
35 28
35 30
35 32
35 37
35 41
35 42
36 32
36 41
37 28
37 34
37 35
37 40
37 42
37 44
38 31
38 39
38 40
38 43
39 33
39 38
39 43
39 45
40 34
40 37
40 38
40 42
40 43
40 44
40 46
41 32
41 35
41 36
41 48
41 50
42 35
42 37
42 40
42 44
42 50
43 38
43 39
43 40
43 45
43 46
43 47
44 37
44 40
44 42
44 46
44 51
45 39
45 43
45 47
45 49
46 40
46 43
46 44
46 47
46 51
46 52
47 43
47 45
47 46
47 52
48 41
48 50
48 54
49 45
49 53
50 41
50 42
50 48
50 55
50 56
51 44
51 46
51 55
51 59
52 46
52 47
52 53
52 57
52 58
53 49
53 52
53 58
53 61
54 48
54 56
54 60
55 50
55 51
55 56
55 59
56 50
56 54
56 55
56 60
57 52
57 58
57 59
57 62
58 52
58 53
58 57
58 61
58 62
59 51
59 55
59 57
59 62
60 54
60 56
61 53
61 58
62 57
62 58
62 59
