1 2
1 5
1 6
1 7
1 8
1 10
1 13
1 14
1 15
2 1
2 3
2 5
2 7
2 8
2 10
2 12
2 13
2 15
2 18
3 2
3 4
3 8
3 9
3 11
3 12
3 16
3 17
4 3
4 9
4 11
4 12
4 16
4 17
4 20
5 1
5 2
5 6
5 7
5 10
5 13
5 14
5 15
5 19
5 21
6 1
6 5
6 7
6 10
6 13
6 14
6 15
6 19
6 22
7 1
7 2
7 5
7 6
7 8
7 10
7 12
7 13
7 14
7 15
7 18
7 19
7 21
8 1
8 2
8 3
8 7
8 9
8 10
8 11
8 12
8 15
8 17
8 18
8 23
9 3
9 4
9 8
9 11
9 12
9 16
9 17
9 20
10 1
10 2
10 5
10 6
10 7
10 8
10 12
10 13
10 14
10 15
10 18
10 19
10 21
10 22
10 23
10 24
10 27
10 28
11 3
11 4
11 8
11 9
11 12
11 16
11 17
11 20
11 25
12 2
12 3
12 4
12 7
12 8
12 9
12 10
12 11
12 15
12 16
12 17
12 18
12 20
12 23
12 26
13 1
13 2
13 5
13 6
13 7
13 10
13 14
13 15
13 18
13 19
13 21
13 22
13 24
13 27
14 1
14 5
14 6
14 7
14 10
14 13
14 15
14 19
14 21
14 22
14 24
15 1
15 2
15 5
15 6
15 7
15 8
15 10
15 12
15 13
15 14
15 18
15 19
15 21
15 22
15 23
15 24
15 27
15 28
16 3
16 4
16 9
16 11
16 12
16 17
16 20
16 25
16 26
16 29
16 30
17 3
17 4
17 8
17 9
17 11
17 12
17 16
17 18
17 20
17 23
17 25
17 26
17 29
17 30
18 2
18 7
18 8
18 10
18 12
18 13
18 15
18 17
18 19
18 21
18 23
18 24
18 26
18 27
18 28
18 31
18 33
18 34
19 5
19 6
19 7
19 10
19 13
19 14
19 15
19 18
19 21
19 22
19 24
19 27
19 28
19 32
20 4
20 9
20 11
20 12
20 16
20 17
20 23
20 25
20 26
20 29
20 30
20 35
21 5
21 7
21 10
21 13
21 14
21 15
21 18
21 19
21 22
21 23
21 24
21 27
21 28
21 31
21 32
21 33
22 6
22 10
22 13
22 14
22 15
22 19
22 21
22 24
22 27
22 28
22 32
22 33
23 8
23 10
23 12
23 15
23 17
23 18
23 20
23 21
23 25
23 26
23 27
23 28
23 30
23 31
23 33
23 34
23 36
24 10
24 13
24 14
24 15
24 18
24 19
24 21
24 22
24 27
24 28
24 31
24 32
24 33
25 11
25 16
25 17
25 20
25 23
25 26
25 29
25 30
25 35
25 38
26 12
26 16
26 17
26 18
26 20
26 23
26 25
26 28
26 29
26 30
26 31
26 34
26 35
26 36
26 39
27 10
27 13
27 15
27 18
27 19
27 21
27 22
27 23
27 24
27 28
27 31
27 32
27 33
27 34
27 37
27 41
28 10
28 15
28 18
28 19
28 21
28 22
28 23
28 24
28 26
28 27
28 31
28 32
28 33
28 34
28 36
28 37
28 40
29 16
29 17
29 20
29 25
29 26
29 30
29 35
29 36
29 38
29 39
30 16
30 17
30 20
30 23
30 25
30 26
30 29
30 31
30 34
30 35
30 36
30 38
30 39
31 18
31 21
31 23
31 24
31 26
31 27
31 28
31 30
31 33
31 34
31 36
31 37
31 39
31 40
31 44
32 19
32 21
32 22
32 24
32 27
32 28
32 33
32 37
32 41
32 43
33 18
33 21
33 22
33 23
33 24
33 27
33 28
33 31
33 32
33 34
33 36
33 37
33 40
33 41
33 43
34 18
34 23
34 26
34 27
34 28
34 30
34 31
34 33
34 35
34 36
34 37
34 39
34 40
34 44
34 45
35 20
35 25
35 26
35 29
35 30
35 34
35 36
35 38
35 39
35 42
35 45
36 23
36 26
36 28
36 29
36 30
36 31
36 33
36 34
36 35
36 37
36 38
36 39
36 40
36 42
36 44
36 45
37 27
37 28
37 31
37 32
37 33
37 34
37 36
37 40
37 41
37 43
37 44
37 45
37 46
37 49
37 50
38 25
38 29
38 30
38 35
38 36
38 39
38 42
38 45
38 48
38 52
39 26
39 29
39 30
39 31
39 34
39 35
39 36
39 38
39 40
39 42
39 44
39 45
39 48
39 51
40 28
40 31
40 33
40 34
40 36
40 37
40 39
40 41
40 42
40 43
40 44
40 45
40 46
40 50
40 51
41 27
41 32
41 33
41 37
41 40
41 43
41 46
41 47
41 49
41 53
42 35
42 36
42 38
42 39
42 40
42 44
42 45
42 48
42 51
42 52
42 55
43 32
43 33
43 37
43 40
43 41
43 44
43 46
43 47
43 49
43 50
43 53
43 54
43 56
43 57
44 31
44 34
44 36
44 37
44 39
44 40
44 42
44 43
44 45
44 46
44 48
44 50
44 51
44 53
44 54
44 55
44 57
45 34
45 35
45 36
45 37
45 38
45 39
45 40
45 42
45 44
45 46
45 48
45 50
45 51
45 52
45 54
45 55
46 37
46 40
46 41
46 43
46 44
46 45
46 47
46 49
46 50
46 51
46 53
46 54
46 57
47 41
47 43
47 46
47 49
47 53
47 56
48 38
48 39
48 42
48 44
48 45
48 51
48 52
48 54
48 55
48 58
49 37
49 41
49 43
49 46
49 47
49 50
49 53
49 54
49 56
49 57
50 37
50 40
50 43
50 44
50 45
50 46
50 49
50 51
50 53
50 54
50 55
50 57
51 39
51 40
51 42
51 44
51 45
51 46
51 48
51 50
51 52
51 53
51 54
51 55
51 57
51 58
52 38
52 42
52 45
52 48
52 51
52 55
52 58
53 41
53 43
53 44
53 46
53 47
53 49
53 50
53 51
53 54
53 56
53 57
54 43
54 44
54 45
54 46
54 48
54 49
54 50
54 51
54 53
54 55
54 57
55 42
55 44
55 45
55 48
55 50
55 51
55 52
55 54
55 58
56 43
56 47
56 49
56 53
56 57
57 43
57 44
57 46
57 49
57 50
57 51
57 53
57 54
57 56
58 48
58 51
58 52
58 55
