1 2
1 3
1 4
1 7
1 8
1 10
1 13
1 14
1 15
1 19
2 1
2 3
2 4
2 5
2 8
2 9
2 10
2 13
2 14
2 15
2 16
2 17
2 21
3 1
3 2
3 4
3 5
3 8
3 9
3 10
3 13
3 14
3 15
3 16
3 17
3 21
4 1
4 2
4 3
4 5
4 6
4 8
4 9
4 10
4 11
4 14
4 16
4 17
4 18
4 21
5 2
5 3
5 4
5 6
5 8
5 9
5 11
5 12
5 16
5 17
5 18
5 22
6 4
6 5
6 9
6 11
6 12
6 17
6 18
6 20
6 22
7 1
7 10
7 13
7 15
7 19
8 1
8 2
8 3
8 4
8 5
8 9
8 10
8 13
8 14
8 15
8 16
8 17
8 21
8 23
8 24
9 2
9 3
9 4
9 5
9 6
9 8
9 11
9 12
9 14
9 16
9 17
9 18
9 21
9 22
9 24
10 1
10 2
10 3
10 4
10 7
10 8
10 13
10 14
10 15
10 16
10 19
10 21
10 23
11 4
11 5
11 6
11 9
11 12
11 17
11 18
11 20
11 22
11 26
12 5
12 6
12 9
12 11
12 18
12 20
12 22
12 26
13 1
13 2
13 3
13 7
13 8
13 10
13 14
13 15
13 16
13 19
13 21
13 23
13 25
13 28
14 1
14 2
14 3
14 4
14 8
14 9
14 10
14 13
14 15
14 16
14 17
14 19
14 21
14 23
14 24
14 27
14 28
15 1
15 2
15 3
15 7
15 8
15 10
15 13
15 14
15 16
15 19
15 21
15 23
15 24
15 25
15 27
15 28
15 32
16 2
16 3
16 4
16 5
16 8
16 9
16 10
16 13
16 14
16 15
16 17
16 18
16 21
16 22
16 23
16 24
16 27
16 29
17 2
17 3
17 4
17 5
17 6
17 8
17 9
17 11
17 14
17 16
17 18
17 20
17 21
17 22
17 24
17 26
17 27
17 29
17 31
17 33
18 4
18 5
18 6
18 9
18 11
18 12
18 16
18 17
18 20
18 22
18 24
18 26
18 29
18 31
19 1
19 7
19 10
19 13
19 14
19 15
19 21
19 23
19 25
19 27
19 28
19 30
19 32
20 6
20 11
20 12
20 17
20 18
20 22
20 26
20 31
20 35
21 2
21 3
21 4
21 8
21 9
21 10
21 13
21 14
21 15
21 16
21 17
21 19
21 23
21 24
21 25
21 27
21 28
21 29
21 32
21 34
22 5
22 6
22 9
22 11
22 12
22 16
22 17
22 18
22 20
22 24
22 26
22 29
22 31
22 33
22 35
22 36
22 38
23 8
23 10
23 13
23 14
23 15
23 16
23 19
23 21
23 24
23 25
23 27
23 28
23 30
23 32
23 34
23 37
23 39
24 8
24 9
24 14
24 15
24 16
24 17
24 18
24 21
24 22
24 23
24 26
24 27
24 28
24 29
24 31
24 33
24 34
24 36
24 38
24 40
24 41
25 13
25 15
25 19
25 21
25 23
25 27
25 28
25 30
25 32
25 34
25 37
25 39
25 44
26 11
26 12
26 17
26 18
26 20
26 22
26 24
26 29
26 31
26 33
26 35
26 38
26 42
27 14
27 15
27 16
27 17
27 19
27 21
27 23
27 24
27 25
27 28
27 29
27 32
27 33
27 34
27 36
27 39
27 40
27 41
28 13
28 14
28 15
28 19
28 21
28 23
28 24
28 25
28 27
28 29
28 30
28 32
28 34
28 37
28 39
28 40
28 44
29 16
29 17
29 18
29 21
29 22
29 24
29 26
29 27
29 28
29 31
29 33
29 34
29 35
29 36
29 38
29 40
29 41
29 43
29 46
30 19
30 23
30 25
30 28
30 32
30 37
30 39
30 44
31 17
31 18
31 20
31 22
31 24
31 26
31 29
31 33
31 35
31 36
31 38
31 41
31 42
31 43
31 45
31 47
32 15
32 19
32 21
32 23
32 25
32 27
32 28
32 30
32 34
32 37
32 39
32 40
32 41
32 44
32 48
32 49
33 17
33 22
33 24
33 26
33 27
33 29
33 31
33 34
33 35
33 36
33 38
33 40
33 41
33 42
33 43
33 45
33 46
33 47
34 21
34 23
34 24
34 25
34 27
34 28
34 29
34 32
34 33
34 36
34 37
34 39
34 40
34 41
34 43
34 44
34 46
34 48
34 51
35 20
35 22
35 26
35 29
35 31
35 33
35 36
35 38
35 42
35 43
35 45
35 47
35 50
35 53
36 22
36 24
36 27
36 29
36 31
36 33
36 34
36 35
36 38
36 39
36 40
36 41
36 43
36 45
36 46
36 47
36 50
36 51
37 23
37 25
37 28
37 30
37 32
37 34
37 39
37 40
37 44
37 48
37 49
37 52
37 55
38 22
38 24
38 26
38 29
38 31
38 33
38 35
38 36
38 41
38 42
38 43
38 45
38 46
38 47
38 50
38 53
38 56
39 23
39 25
39 27
39 28
39 30
39 32
39 34
39 36
39 37
39 40
39 41
39 44
39 46
39 48
39 49
39 51
39 52
39 54
39 57
40 24
40 27
40 28
40 29
40 32
40 33
40 34
40 36
40 37
40 39
40 41
40 43
40 44
40 46
40 47
40 48
40 49
40 51
40 52
40 54
41 24
41 27
41 29
41 31
41 32
41 33
41 34
41 36
41 38
41 39
41 40
41 43
41 46
41 47
41 48
41 50
41 51
41 54
41 56
42 26
42 31
42 33
42 35
42 38
42 43
42 45
42 47
42 50
42 53
42 58
43 29
43 31
43 33
43 34
43 35
43 36
43 38
43 40
43 41
43 42
43 45
43 46
43 47
43 50
43 51
43 53
43 56
43 59
43 61
44 25
44 28
44 30
44 32
44 34
44 37
44 39
44 40
44 48
44 49
44 52
44 54
44 55
44 57
44 60
44 62
45 31
45 33
45 35
45 36
45 38
45 42
45 43
45 47
45 50
45 53
45 56
45 58
45 59
45 61
46 29
46 33
46 34
46 36
46 38
46 39
46 40
46 41
46 43
46 47
46 48
46 49
46 50
46 51
46 52
46 54
46 56
46 57
46 61
46 63
46 64
47 31
47 33
47 35
47 36
47 38
47 40
47 41
47 42
47 43
47 45
47 46
47 48
47 50
47 51
47 53
47 56
47 59
47 61
47 63
47 66
48 32
48 34
48 37
48 39
48 40
48 41
48 44
48 46
48 47
48 49
48 51
48 52
48 54
48 55
48 57
48 60
48 62
48 63
48 64
48 67
49 32
49 37
49 39
49 40
49 44
49 46
49 48
49 51
49 52
49 54
49 55
49 57
49 60
49 62
49 64
49 67
50 35
50 36
50 38
50 41
50 42
50 43
50 45
50 46
50 47
50 51
50 53
50 56
50 58
50 59
50 61
50 63
50 65
50 66
50 68
50 70
51 34
51 36
51 39
51 40
51 41
51 43
51 46
51 47
51 48
51 49
51 50
51 52
51 54
51 56
51 57
51 61
51 62
51 63
51 64
51 66
51 67
51 71
52 37
52 39
52 40
52 44
52 46
52 48
52 49
52 51
52 54
52 55
52 57
52 60
52 62
52 63
52 64
52 67
52 69
53 35
53 38
53 42
53 43
53 45
53 47
53 50
53 56
53 58
53 59
53 61
53 65
53 68
53 70
54 39
54 40
54 41
54 44
54 46
54 48
54 49
54 51
54 52
54 55
54 56
54 57
54 60
54 61
54 62
54 63
54 64
54 67
54 69
55 37
55 44
55 48
55 49
55 52
55 54
55 57
55 60
55 62
55 64
55 67
55 69
56 38
56 41
56 43
56 45
56 46
56 47
56 50
56 51
56 53
56 54
56 58
56 59
56 61
56 63
56 64
56 65
56 66
56 68
56 70
56 71
57 39
57 44
57 46
57 48
57 49
57 51
57 52
57 54
57 55
57 60
57 62
57 63
57 64
57 67
57 69
58 42
58 45
58 50
58 53
58 56
58 59
58 61
58 65
58 68
58 70
59 43
59 45
59 47
59 50
59 53
59 56
59 58
59 61
59 63
59 65
59 66
59 68
59 70
59 71
60 44
60 48
60 49
60 52
60 54
60 55
60 57
60 62
60 64
60 67
60 69
61 43
61 45
61 46
61 47
61 50
61 51
61 53
61 54
61 56
61 58
61 59
61 63
61 64
61 65
61 66
61 68
61 70
61 71
62 44
62 48
62 49
62 51
62 52
62 54
62 55
62 57
62 60
62 63
62 64
62 67
62 69
63 46
63 47
63 48
63 50
63 51
63 52
63 54
63 56
63 57
63 59
63 61
63 62
63 64
63 66
63 67
63 68
63 70
63 71
64 46
64 48
64 49
64 51
64 52
64 54
64 55
64 56
64 57
64 60
64 61
64 62
64 63
64 66
64 67
64 69
64 71
65 50
65 53
65 56
65 58
65 59
65 61
65 66
65 68
65 70
66 47
66 50
66 51
66 56
66 59
66 61
66 63
66 64
66 65
66 68
66 70
66 71
67 48
67 49
67 51
67 52
67 54
67 55
67 57
67 60
67 62
67 63
67 64
67 69
67 71
68 50
68 53
68 56
68 58
68 59
68 61
68 63
68 65
68 66
68 70
68 71
69 52
69 54
69 55
69 57
69 60
69 62
69 64
69 67
70 50
70 53
70 56
70 58
70 59
70 61
70 63
70 65
70 66
70 68
70 71
71 51
71 56
71 59
71 61
71 63
71 64
71 66
71 67
71 68
71 70
