1 3
1 6
1 9
1 11
1 13
2 5
2 6
2 7
2 10
2 12
3 1
3 6
3 7
3 9
3 11
3 13
4 5
4 8
4 12
5 2
5 4
5 7
5 8
5 10
5 12
5 14
6 1
6 2
6 3
6 7
6 10
6 11
6 13
6 15
7 2
7 3
7 5
7 6
7 10
7 11
7 12
7 14
7 15
7 20
8 4
8 5
8 10
8 12
8 14
8 16
8 18
9 1
9 3
9 11
9 13
9 17
9 19
10 2
10 5
10 6
10 7
10 8
10 12
10 14
10 15
10 20
11 1
11 3
11 6
11 7
11 9
11 13
11 15
11 19
11 20
11 21
11 24
12 2
12 4
12 5
12 7
12 8
12 10
12 14
12 16
12 18
12 23
13 1
13 3
13 6
13 9
13 11
13 15
13 17
13 19
13 22
13 24
14 5
14 7
14 8
14 10
14 12
14 15
14 18
14 20
14 21
14 23
14 25
14 26
15 6
15 7
15 10
15 11
15 13
15 14
15 20
15 21
15 23
15 24
15 27
16 8
16 12
16 18
16 25
16 26
16 28
17 9
17 13
17 19
17 22
17 24
17 29
17 30
18 8
18 12
18 14
18 16
18 23
18 25
18 26
18 28
19 9
19 11
19 13
19 17
19 21
19 22
19 24
19 29
19 30
20 7
20 10
20 11
20 14
20 15
20 21
20 23
20 24
20 26
20 27
20 31
21 11
21 14
21 15
21 19
21 20
21 23
21 24
21 27
21 31
21 35
22 13
22 17
22 19
22 24
22 29
22 30
23 12
23 14
23 15
23 18
23 20
23 21
23 25
23 26
23 27
23 32
23 34
24 11
24 13
24 15
24 17
24 19
24 20
24 21
24 22
24 27
24 29
24 31
24 35
24 36
25 14
25 16
25 18
25 23
25 26
25 28
25 32
25 33
25 34
26 14
26 16
26 18
26 20
26 23
26 25
26 27
26 28
26 32
26 33
26 34
27 15
27 20
27 21
27 23
27 24
27 26
27 31
27 32
27 35
28 16
28 18
28 25
28 26
28 33
28 34
29 17
29 19
29 22
29 24
29 30
29 31
29 36
30 17
30 19
30 22
30 29
30 36
30 37
31 20
31 21
31 24
31 27
31 29
31 35
31 36
31 38
32 23
32 25
32 26
32 27
32 33
32 34
32 35
32 39
32 40
32 42
33 25
33 26
33 28
33 32
33 34
33 39
33 41
34 23
34 25
34 26
34 28
34 32
34 33
34 39
34 40
34 41
35 21
35 24
35 27
35 31
35 32
35 36
35 38
35 40
35 42
35 43
36 24
36 29
36 30
36 31
36 35
36 37
36 38
37 30
37 36
37 38
37 43
37 45
37 46
37 49
38 31
38 35
38 36
38 37
38 42
38 43
38 45
38 46
38 49
39 32
39 33
39 34
39 40
39 41
39 42
39 44
39 47
39 48
40 32
40 34
40 35
40 39
40 41
40 42
40 44
40 47
40 48
41 33
41 34
41 39
41 40
41 47
41 48
41 51
42 32
42 35
42 38
42 39
42 40
42 43
42 44
42 48
42 50
43 35
43 37
43 38
43 42
43 44
43 46
43 49
43 50
43 52
44 39
44 40
44 42
44 43
44 47
44 48
44 50
44 52
44 55
44 56
45 37
45 38
45 46
45 49
45 54
45 59
46 37
46 38
46 43
46 45
46 49
46 50
46 52
46 54
46 57
46 58
47 39
47 40
47 41
47 44
47 48
47 51
47 53
47 55
48 39
48 40
48 41
48 42
48 44
48 47
48 50
48 51
48 53
48 55
48 56
49 37
49 38
49 43
49 45
49 46
49 52
49 54
49 57
49 59
50 42
50 43
50 44
50 46
50 48
50 52
50 55
50 56
50 57
50 58
51 41
51 47
51 48
51 53
51 55
52 43
52 44
52 46
52 49
52 50
52 54
52 55
52 56
52 57
52 58
53 47
53 48
53 51
53 55
53 56
54 45
54 46
54 49
54 52
54 57
54 58
54 59
55 44
55 47
55 48
55 50
55 51
55 52
55 53
55 56
55 58
56 44
56 48
56 50
56 52
56 53
56 55
56 57
56 58
57 46
57 49
57 50
57 52
57 54
57 56
57 58
57 59
58 46
58 50
58 52
58 54
58 55
58 56
58 57
59 45
59 49
59 54
59 57
