1 3
1 4
1 6
1 8
1 10
1 11
1 13
1 15
1 18
2 5
2 6
2 7
2 9
2 11
2 12
2 14
2 16
2 20
2 22
3 1
3 4
3 8
3 10
3 13
3 15
3 18
3 19
4 1
4 3
4 5
4 6
4 8
4 9
4 10
4 11
4 12
4 13
4 15
4 17
4 18
4 21
5 2
5 4
5 6
5 7
5 9
5 11
5 12
5 13
5 14
5 16
5 17
5 20
5 22
5 23
6 1
6 2
6 4
6 5
6 8
6 9
6 11
6 12
6 13
6 15
6 16
6 17
6 18
6 21
6 22
6 23
7 2
7 5
7 9
7 12
7 14
7 16
7 20
7 22
7 24
7 25
8 1
8 3
8 4
8 6
8 10
8 11
8 13
8 15
8 17
8 18
8 19
8 21
8 26
9 2
9 4
9 5
9 6
9 7
9 11
9 12
9 14
9 16
9 17
9 20
9 22
9 23
9 24
9 25
9 27
10 1
10 3
10 4
10 8
10 13
10 15
10 18
10 19
10 21
10 26
10 28
11 1
11 2
11 4
11 5
11 6
11 8
11 9
11 12
11 13
11 15
11 16
11 17
11 18
11 21
11 22
11 23
11 26
11 27
11 29
12 2
12 4
12 5
12 6
12 7
12 9
12 11
12 13
12 14
12 16
12 17
12 20
12 21
12 22
12 23
12 24
12 25
12 27
13 1
13 3
13 4
13 5
13 6
13 8
13 10
13 11
13 12
13 15
13 16
13 17
13 18
13 19
13 21
13 23
13 26
13 29
13 30
14 2
14 5
14 7
14 9
14 12
14 16
14 17
14 20
14 22
14 24
14 25
14 27
14 31
14 32
15 1
15 3
15 4
15 6
15 8
15 10
15 11
15 13
15 17
15 18
15 19
15 21
15 23
15 26
15 28
15 30
15 33
16 2
16 5
16 6
16 7
16 9
16 11
16 12
16 13
16 14
16 17
16 20
16 21
16 22
16 23
16 24
16 25
16 27
16 29
16 32
16 34
17 4
17 5
17 6
17 8
17 9
17 11
17 12
17 13
17 14
17 15
17 16
17 18
17 20
17 21
17 22
17 23
17 25
17 26
17 27
17 29
17 30
17 32
17 34
17 35
18 1
18 3
18 4
18 6
18 8
18 10
18 11
18 13
18 15
18 17
18 19
18 21
18 23
18 26
18 28
18 29
18 30
18 33
18 35
18 38
19 3
19 8
19 10
19 13
19 15
19 18
19 21
19 26
19 28
19 30
19 33
19 39
20 2
20 5
20 7
20 9
20 12
20 14
20 16
20 17
20 22
20 23
20 24
20 25
20 27
20 31
20 32
20 34
20 36
20 37
21 4
21 6
21 8
21 10
21 11
21 12
21 13
21 15
21 16
21 17
21 18
21 19
21 22
21 23
21 26
21 27
21 28
21 29
21 30
21 33
21 35
21 38
22 2
22 5
22 6
22 7
22 9
22 11
22 12
22 14
22 16
22 17
22 20
22 21
22 23
22 24
22 25
22 27
22 29
22 31
22 32
22 34
22 36
22 37
23 5
23 6
23 9
23 11
23 12
23 13
23 15
23 16
23 17
23 18
23 20
23 21
23 22
23 24
23 25
23 26
23 27
23 29
23 30
23 32
23 34
23 35
23 37
23 40
24 7
24 9
24 12
24 14
24 16
24 20
24 22
24 23
24 25
24 27
24 31
24 32
24 34
24 36
24 37
24 42
25 7
25 9
25 12
25 14
25 16
25 17
25 20
25 22
25 23
25 24
25 27
25 29
25 31
25 32
25 34
25 36
25 37
25 40
25 42
26 8
26 10
26 11
26 13
26 15
26 17
26 18
26 19
26 21
26 23
26 27
26 28
26 29
26 30
26 33
26 35
26 38
26 39
26 41
26 43
26 44
27 9
27 11
27 12
27 14
27 16
27 17
27 20
27 21
27 22
27 23
27 24
27 25
27 26
27 29
27 30
27 31
27 32
27 34
27 35
27 36
27 37
27 40
27 42
27 43
27 45
28 10
28 15
28 18
28 19
28 21
28 26
28 29
28 30
28 33
28 35
28 38
28 39
28 41
28 46
29 11
29 13
29 16
29 17
29 18
29 21
29 22
29 23
29 25
29 26
29 27
29 28
29 30
29 32
29 33
29 34
29 35
29 37
29 38
29 40
29 41
29 43
29 44
29 45
30 13
30 15
30 17
30 18
30 19
30 21
30 23
30 26
30 27
30 28
30 29
30 33
30 34
30 35
30 38
30 39
30 40
30 41
30 43
30 44
30 46
30 48
31 14
31 20
31 22
31 24
31 25
31 27
31 32
31 34
31 36
31 37
31 42
31 47
32 14
32 16
32 17
32 20
32 22
32 23
32 24
32 25
32 27
32 29
32 31
32 34
32 36
32 37
32 40
32 42
32 43
32 45
32 47
33 15
33 18
33 19
33 21
33 26
33 28
33 29
33 30
33 35
33 38
33 39
33 41
33 44
33 46
34 16
34 17
34 20
34 22
34 23
34 24
34 25
34 27
34 29
34 30
34 31
34 32
34 35
34 36
34 37
34 40
34 42
34 43
34 44
34 45
34 47
34 49
34 52
34 54
35 17
35 18
35 21
35 23
35 26
35 27
35 28
35 29
35 30
35 33
35 34
35 38
35 39
35 40
35 41
35 43
35 44
35 45
35 46
35 48
35 49
35 50
35 53
36 20
36 22
36 24
36 25
36 27
36 31
36 32
36 34
36 37
36 40
36 42
36 45
36 47
36 51
36 52
37 20
37 22
37 23
37 24
37 25
37 27
37 29
37 31
37 32
37 34
37 36
37 40
37 42
37 43
37 45
37 47
37 49
37 51
37 52
37 54
38 18
38 21
38 26
38 28
38 29
38 30
38 33
38 35
38 39
38 40
38 41
38 43
38 44
38 46
38 48
38 50
38 53
38 55
39 19
39 26
39 28
39 30
39 33
39 35
39 38
39 41
39 44
39 46
39 48
39 53
39 55
40 23
40 25
40 27
40 29
40 30
40 32
40 34
40 35
40 36
40 37
40 38
40 41
40 42
40 43
40 44
40 45
40 47
40 48
40 49
40 50
40 52
40 54
40 56
40 57
41 26
41 28
41 29
41 30
41 33
41 35
41 38
41 39
41 40
41 43
41 44
41 46
41 48
41 49
41 50
41 53
41 55
41 56
41 58
41 60
42 24
42 25
42 27
42 31
42 32
42 34
42 36
42 37
42 40
42 43
42 45
42 47
42 49
42 51
42 52
42 54
42 59
42 61
43 26
43 27
43 29
43 30
43 32
43 34
43 35
43 37
43 38
43 40
43 41
43 42
43 44
43 45
43 46
43 47
43 48
43 49
43 50
43 52
43 53
43 54
43 56
43 57
43 58
44 26
44 29
44 30
44 33
44 34
44 35
44 38
44 39
44 40
44 41
44 43
44 45
44 46
44 48
44 49
44 50
44 53
44 54
44 55
44 56
44 57
44 58
44 60
45 27
45 29
45 32
45 34
45 35
45 36
45 37
45 40
45 42
45 43
45 44
45 47
45 48
45 49
45 50
45 51
45 52
45 54
45 56
45 57
45 59
45 61
46 28
46 30
46 33
46 35
46 38
46 39
46 41
46 43
46 44
46 48
46 50
46 53
46 55
46 56
46 58
46 60
46 62
46 65
47 31
47 32
47 34
47 36
47 37
47 40
47 42
47 43
47 45
47 49
47 51
47 52
47 54
47 57
47 59
47 61
47 67
48 30
48 35
48 38
48 39
48 40
48 41
48 43
48 44
48 45
48 46
48 49
48 50
48 53
48 54
48 55
48 56
48 57
48 58
48 60
48 62
48 63
48 64
49 34
49 35
49 37
49 40
49 41
49 42
49 43
49 44
49 45
49 47
49 48
49 50
49 52
49 53
49 54
49 56
49 57
49 58
49 61
49 63
49 64
49 66
50 35
50 38
50 40
50 41
50 43
50 44
50 45
50 46
50 48
50 49
50 53
50 54
50 55
50 56
50 57
50 58
50 60
50 61
50 62
50 63
50 64
51 36
51 37
51 42
51 45
51 47
51 52
51 54
51 59
51 61
51 67
51 68
52 34
52 36
52 37
52 40
52 42
52 43
52 45
52 47
52 49
52 51
52 54
52 56
52 57
52 59
52 61
52 63
52 66
52 67
52 68
53 35
53 38
53 39
53 41
53 43
53 44
53 46
53 48
53 49
53 50
53 55
53 56
53 57
53 58
53 60
53 62
53 63
53 64
53 65
54 34
54 37
54 40
54 42
54 43
54 44
54 45
54 47
54 48
54 49
54 50
54 51
54 52
54 56
54 57
54 58
54 59
54 61
54 63
54 64
54 66
54 67
55 38
55 39
55 41
55 44
55 46
55 48
55 50
55 53
55 56
55 58
55 60
55 62
55 64
55 65
56 40
56 41
56 43
56 44
56 45
56 46
56 48
56 49
56 50
56 52
56 53
56 54
56 55
56 57
56 58
56 60
56 61
56 62
56 63
56 64
56 66
57 40
57 43
57 44
57 45
57 47
57 48
57 49
57 50
57 52
57 53
57 54
57 56
57 58
57 59
57 60
57 61
57 63
57 64
57 66
57 67
58 41
58 43
58 44
58 46
58 48
58 49
58 50
58 53
58 54
58 55
58 56
58 57
58 60
58 61
58 62
58 63
58 64
58 65
58 66
59 42
59 45
59 47
59 51
59 52
59 54
59 57
59 61
59 66
59 67
59 68
60 41
60 44
60 46
60 48
60 50
60 53
60 55
60 56
60 57
60 58
60 62
60 63
60 64
60 65
61 42
61 45
61 47
61 49
61 50
61 51
61 52
61 54
61 56
61 57
61 58
61 59
61 63
61 64
61 66
61 67
61 68
62 46
62 48
62 50
62 53
62 55
62 56
62 58
62 60
62 64
62 65
63 48
63 49
63 50
63 52
63 53
63 54
63 56
63 57
63 58
63 60
63 61
63 64
63 66
63 67
64 48
64 49
64 50
64 53
64 54
64 55
64 56
64 57
64 58
64 60
64 61
64 62
64 63
64 65
64 66
65 46
65 53
65 55
65 58
65 60
65 62
65 64
66 49
66 52
66 54
66 56
66 57
66 58
66 59
66 61
66 63
66 64
66 67
66 68
67 47
67 51
67 52
67 54
67 57
67 59
67 61
67 63
67 66
67 68
68 51
68 52
68 59
68 61
68 66
68 67
