1 2
1 4
1 5
1 7
1 10
1 11
1 12
1 15
2 1
2 10
2 13
2 18
3 5
3 6
3 8
3 9
3 14
3 16
3 19
4 1
4 5
4 7
4 8
4 11
4 12
4 16
5 1
5 3
5 4
5 7
5 8
5 11
5 12
5 16
6 3
6 9
6 14
6 17
7 1
7 4
7 5
7 10
7 11
7 12
7 15
7 21
8 3
8 4
8 5
8 9
8 12
8 14
8 16
8 19
8 22
8 23
9 3
9 6
9 8
9 14
9 17
9 19
9 23
9 25
10 1
10 2
10 7
10 11
10 13
10 15
10 18
10 20
11 1
11 4
11 5
11 7
11 10
11 12
11 15
11 16
11 20
11 21
11 24
12 1
12 4
12 5
12 7
12 8
12 11
12 15
12 16
12 21
12 22
12 24
13 2
13 10
13 15
13 18
13 20
13 26
13 29
14 3
14 6
14 8
14 9
14 16
14 17
14 19
14 23
14 25
14 28
15 1
15 7
15 10
15 11
15 12
15 13
15 18
15 20
15 21
15 24
15 29
15 30
16 3
16 4
16 5
16 8
16 11
16 12
16 14
16 19
16 21
16 22
16 23
16 27
17 6
17 9
17 14
17 19
17 23
17 25
17 28
17 32
18 2
18 10
18 13
18 15
18 20
18 26
18 29
19 3
19 8
19 9
19 14
19 16
19 17
19 22
19 23
19 25
19 27
19 28
19 31
20 10
20 11
20 13
20 15
20 18
20 24
20 26
20 29
20 33
21 7
21 11
21 12
21 15
21 16
21 22
21 24
21 27
21 30
21 34
22 8
22 12
22 16
22 19
22 21
22 23
22 24
22 27
22 28
22 30
22 31
22 34
23 8
23 9
23 14
23 16
23 17
23 19
23 22
23 25
23 27
23 28
23 31
23 32
24 11
24 12
24 15
24 20
24 21
24 22
24 29
24 30
24 33
24 36
25 9
25 14
25 17
25 19
25 23
25 28
25 32
26 13
26 18
26 20
26 29
26 33
26 35
27 16
27 19
27 21
27 22
27 23
27 28
27 30
27 31
27 34
27 37
28 14
28 17
28 19
28 22
28 23
28 25
28 27
28 31
28 32
28 37
28 38
29 13
29 15
29 18
29 20
29 24
29 26
29 33
29 35
29 36
29 40
30 15
30 21
30 22
30 24
30 27
30 34
30 36
30 39
31 19
31 22
31 23
31 27
31 28
31 32
31 34
31 37
31 38
31 41
31 43
32 17
32 23
32 25
32 28
32 31
32 38
32 42
33 20
33 24
33 26
33 29
33 35
33 36
33 40
33 44
34 21
34 22
34 27
34 30
34 31
34 37
34 39
34 41
34 45
34 46
35 26
35 29
35 33
35 40
35 44
35 48
36 24
36 29
36 30
36 33
36 39
36 40
36 44
36 45
37 27
37 28
37 31
37 34
37 38
37 39
37 41
37 43
37 46
37 49
38 28
38 31
38 32
38 37
38 42
38 43
38 47
38 49
39 30
39 34
39 36
39 37
39 41
39 45
39 46
39 50
40 29
40 33
40 35
40 36
40 44
40 48
40 52
41 31
41 34
41 37
41 39
41 43
41 45
41 46
41 49
41 50
41 53
42 32
42 38
42 43
42 47
42 49
42 55
42 56
43 31
43 37
43 38
43 41
43 42
43 46
43 47
43 49
43 54
43 55
44 33
44 35
44 36
44 40
44 45
44 48
44 51
44 52
44 57
45 34
45 36
45 39
45 41
45 44
45 46
45 50
45 51
45 53
46 34
46 37
46 39
46 41
46 43
46 45
46 49
46 50
46 53
46 54
47 38
47 42
47 43
47 49
47 54
47 55
47 56
47 59
48 35
48 40
48 44
48 51
48 52
48 57
48 58
49 37
49 38
49 41
49 42
49 43
49 46
49 47
49 53
49 54
49 55
49 59
50 39
50 41
50 45
50 46
50 51
50 53
50 60
50 61
51 44
51 45
51 48
51 50
51 52
51 53
51 57
51 60
51 61
52 40
52 44
52 48
52 51
52 57
52 58
52 64
53 41
53 45
53 46
53 49
53 50
53 51
53 54
53 60
53 61
53 62
54 43
54 46
54 47
54 49
54 53
54 55
54 59
54 62
54 65
55 42
55 43
55 47
55 49
55 54
55 56
55 59
55 63
55 65
55 67
56 42
56 47
56 55
56 59
56 63
57 44
57 48
57 51
57 52
57 58
57 60
57 64
57 66
57 68
58 48
58 52
58 57
58 64
58 68
59 47
59 49
59 54
59 55
59 56
59 62
59 63
59 65
59 67
59 73
60 50
60 51
60 53
60 57
60 61
60 64
60 66
61 50
61 51
61 53
61 60
61 62
61 66
61 69
61 71
61 72
62 53
62 54
62 59
62 61
62 65
62 69
62 72
62 73
63 55
63 56
63 59
63 65
63 67
64 52
64 57
64 58
64 60
64 66
64 68
64 70
64 75
64 76
65 54
65 55
65 59
65 62
65 63
65 67
65 69
65 73
66 57
66 60
66 61
66 64
66 68
66 70
66 71
66 77
66 78
67 55
67 59
67 63
67 65
67 73
67 74
67 81
68 57
68 58
68 64
68 66
68 70
68 75
68 76
69 61
69 62
69 65
69 71
69 72
69 73
69 79
69 80
70 64
70 66
70 68
70 71
70 75
70 76
70 77
70 78
71 61
71 66
71 69
71 70
71 72
71 76
71 77
71 78
71 80
72 61
72 62
72 69
72 71
72 73
72 77
72 79
72 80
73 59
73 62
73 65
73 67
73 69
73 72
73 74
73 79
73 81
74 67
74 73
74 81
75 64
75 68
75 70
75 76
76 64
76 68
76 70
76 71
76 75
76 77
76 78
77 66
77 70
77 71
77 72
77 76
77 78
77 80
78 66
78 70
78 71
78 76
78 77
78 80
79 69
79 72
79 73
79 80
80 69
80 71
80 72
80 77
80 78
80 79
81 67
81 73
81 74
