1 2
1 3
1 4
1 6
1 10
1 13
1 15
1 16
2 1
2 3
2 4
2 6
2 7
2 9
2 10
2 13
2 14
2 15
2 18
3 1
3 2
3 5
3 7
3 9
3 10
3 11
3 14
3 15
3 17
4 1
4 2
4 6
4 10
4 13
4 16
5 3
5 7
5 8
5 9
5 11
5 12
5 21
6 1
6 2
6 4
6 10
6 13
6 15
6 16
6 18
6 20
7 2
7 3
7 5
7 8
7 9
7 10
7 11
7 12
7 14
7 15
7 17
7 19
8 5
8 7
8 11
8 12
8 21
9 2
9 3
9 5
9 7
9 10
9 11
9 14
9 15
9 17
9 18
9 19
9 23
9 24
10 1
10 2
10 3
10 4
10 6
10 7
10 9
10 13
10 14
10 15
10 16
10 17
10 18
10 22
10 23
11 3
11 5
11 7
11 8
11 9
11 12
11 14
11 17
11 19
11 21
11 25
12 5
12 7
12 8
12 11
12 14
12 19
12 21
12 26
13 1
13 2
13 4
13 6
13 10
13 15
13 16
13 18
13 20
13 22
13 23
13 27
14 2
14 3
14 7
14 9
14 10
14 11
14 12
14 15
14 17
14 18
14 19
14 21
14 23
14 24
14 25
15 1
15 2
15 3
15 6
15 7
15 9
15 10
15 13
15 14
15 16
15 17
15 18
15 19
15 22
15 23
15 24
15 30
16 1
16 4
16 6
16 10
16 13
16 15
16 18
16 20
16 22
16 27
16 29
17 3
17 7
17 9
17 10
17 11
17 14
17 15
17 18
17 19
17 22
17 23
17 24
17 25
17 28
17 30
17 31
18 2
18 6
18 9
18 10
18 13
18 14
18 15
18 16
18 17
18 20
18 22
18 23
18 24
18 29
18 30
19 7
19 9
19 11
19 12
19 14
19 15
19 17
19 21
19 23
19 24
19 25
19 26
19 28
19 31
20 6
20 13
20 16
20 18
20 22
20 27
20 29
20 33
21 5
21 8
21 11
21 12
21 14
21 19
21 24
21 25
21 26
21 28
21 32
22 10
22 13
22 15
22 16
22 17
22 18
22 20
22 23
22 24
22 27
22 29
22 30
22 33
22 34
22 38
22 39
23 9
23 10
23 13
23 14
23 15
23 17
23 18
23 19
23 22
23 24
23 25
23 29
23 30
23 31
23 34
24 9
24 14
24 15
24 17
24 18
24 19
24 21
24 22
24 23
24 25
24 26
24 28
24 30
24 31
24 34
24 35
24 40
25 11
25 14
25 17
25 19
25 21
25 23
25 24
25 26
25 28
25 30
25 31
25 32
25 35
25 36
25 41
26 12
26 19
26 21
26 24
26 25
26 28
26 31
26 32
26 35
26 36
26 42
27 13
27 16
27 20
27 22
27 29
27 33
27 37
27 38
28 17
28 19
28 21
28 24
28 25
28 26
28 31
28 32
28 35
28 36
28 41
28 42
29 16
29 18
29 20
29 22
29 23
29 27
29 30
29 33
29 34
29 37
29 38
29 39
29 44
30 15
30 17
30 18
30 22
30 23
30 24
30 25
30 29
30 31
30 33
30 34
30 38
30 39
30 40
30 43
30 45
31 17
31 19
31 23
31 24
31 25
31 26
31 28
31 30
31 32
31 34
31 35
31 40
31 41
31 43
31 45
31 46
32 21
32 25
32 26
32 28
32 31
32 35
32 36
32 41
32 42
33 20
33 22
33 27
33 29
33 30
33 34
33 37
33 38
33 39
33 44
33 47
34 22
34 23
34 24
34 29
34 30
34 31
34 33
34 35
34 38
34 39
34 40
34 41
34 43
34 45
34 47
34 49
35 24
35 25
35 26
35 28
35 31
35 32
35 34
35 36
35 40
35 41
35 42
35 45
35 46
35 51
35 52
36 25
36 26
36 28
36 32
36 35
36 41
36 42
36 46
36 48
36 51
37 27
37 29
37 33
37 38
37 39
37 44
37 47
37 50
38 22
38 27
38 29
38 30
38 33
38 34
38 37
38 39
38 43
38 44
38 47
38 50
39 22
39 29
39 30
39 33
39 34
39 37
39 38
39 40
39 43
39 44
39 45
39 47
39 49
39 50
40 24
40 30
40 31
40 34
40 35
40 39
40 41
40 43
40 45
40 46
40 47
40 49
40 52
40 53
41 25
41 28
41 31
41 32
41 34
41 35
41 36
41 40
41 42
41 43
41 45
41 46
41 48
41 49
41 51
41 52
41 55
42 26
42 28
42 32
42 35
42 36
42 41
42 46
42 48
42 51
42 52
43 30
43 31
43 34
43 38
43 39
43 40
43 41
43 44
43 45
43 46
43 47
43 49
43 52
43 53
43 56
44 29
44 33
44 37
44 38
44 39
44 43
44 47
44 50
44 54
44 56
45 30
45 31
45 34
45 35
45 39
45 40
45 41
45 43
45 46
45 47
45 49
45 51
45 52
45 53
45 55
45 56
45 59
46 31
46 35
46 36
46 40
46 41
46 42
46 43
46 45
46 48
46 49
46 51
46 52
46 53
46 55
46 57
46 61
47 33
47 34
47 37
47 38
47 39
47 40
47 43
47 44
47 45
47 49
47 50
47 53
47 54
47 56
47 60
48 36
48 41
48 42
48 46
48 51
48 52
48 55
48 57
48 58
48 61
49 34
49 39
49 40
49 41
49 43
49 45
49 46
49 47
49 51
49 52
49 53
49 55
49 56
49 59
49 63
49 64
50 37
50 38
50 39
50 44
50 47
50 54
50 56
50 60
50 62
51 35
51 36
51 41
51 42
51 45
51 46
51 48
51 49
51 52
51 55
51 57
51 58
51 61
52 35
52 40
52 41
52 42
52 43
52 45
52 46
52 48
52 49
52 51
52 53
52 55
52 57
52 58
52 59
52 61
52 64
52 65
53 40
53 43
53 45
53 46
53 47
53 49
53 52
53 54
53 55
53 56
53 59
53 60
53 61
53 63
53 64
54 44
54 47
54 50
54 53
54 56
54 60
54 62
54 63
54 66
54 68
55 41
55 45
55 46
55 48
55 49
55 51
55 52
55 53
55 57
55 58
55 59
55 61
55 64
55 65
55 67
56 43
56 44
56 45
56 47
56 49
56 50
56 53
56 54
56 59
56 60
56 62
56 63
56 64
56 66
56 68
57 46
57 48
57 51
57 52
57 55
57 58
57 59
57 61
57 65
57 67
58 48
58 51
58 52
58 55
58 57
58 61
58 65
58 67
59 45
59 49
59 52
59 53
59 55
59 56
59 57
59 60
59 61
59 63
59 64
59 65
60 47
60 50
60 53
60 54
60 56
60 59
60 62
60 63
60 64
60 66
60 68
61 46
61 48
61 51
61 52
61 53
61 55
61 57
61 58
61 59
61 64
61 65
61 67
62 50
62 54
62 56
62 60
62 63
62 66
62 68
63 49
63 53
63 54
63 56
63 59
63 60
63 62
63 64
63 66
63 68
64 49
64 52
64 53
64 55
64 56
64 59
64 60
64 61
64 63
64 65
64 66
65 52
65 55
65 57
65 58
65 59
65 61
65 64
65 67
66 54
66 56
66 60
66 62
66 63
66 64
66 68
67 55
67 57
67 58
67 61
67 65
68 54
68 56
68 60
68 62
68 63
68 66
