1 4
1 5
1 9
2 3
2 7
2 8
3 2
3 6
3 7
3 8
4 1
4 7
4 9
4 11
5 1
5 9
5 10
6 3
6 8
7 2
7 3
7 4
7 11
7 13
8 2
8 3
8 6
8 12
9 1
9 4
9 5
9 10
9 11
9 15
10 5
10 9
10 14
10 17
11 4
11 7
11 9
11 13
11 15
12 8
12 13
12 16
12 18
13 7
13 11
13 12
13 18
13 19
14 10
14 20
15 9
15 11
15 17
15 21
16 12
16 18
16 25
17 10
17 15
17 20
17 21
17 22
17 24
17 28
18 12
18 13
18 16
18 19
18 23
18 25
18 26
19 13
19 18
19 21
19 23
19 26
20 14
20 17
20 22
20 24
21 15
21 17
21 19
21 22
21 23
21 27
21 28
21 31
22 17
22 20
22 21
22 24
22 28
23 18
23 19
23 21
23 26
23 30
23 31
24 17
24 20
24 22
24 35
25 16
25 18
25 26
25 29
25 30
25 33
26 18
26 19
26 23
26 25
26 30
26 31
26 33
27 21
27 28
27 31
27 32
27 34
28 17
28 21
28 22
28 27
28 34
29 25
29 30
29 33
30 23
30 25
30 26
30 29
30 31
30 33
30 36
31 21
31 23
31 26
31 27
31 30
31 32
31 36
31 38
32 27
32 31
32 34
32 36
32 38
32 39
33 25
33 26
33 29
33 30
33 36
33 40
34 27
34 28
34 32
34 37
34 39
35 24
35 37
35 41
36 30
36 31
36 32
36 33
36 38
36 40
36 42
37 34
37 35
37 41
38 31
38 32
38 36
38 39
38 42
38 43
39 32
39 34
39 38
39 43
39 45
39 48
40 33
40 36
40 42
40 44
40 49
41 35
41 37
41 45
41 46
41 50
42 36
42 38
42 40
42 43
42 52
43 38
43 39
43 42
43 48
43 51
44 40
44 47
44 49
44 53
44 54
45 39
45 41
45 46
45 48
45 50
45 55
46 41
46 45
46 50
46 55
47 44
47 49
47 54
48 39
48 43
48 45
48 50
48 51
48 55
48 56
49 40
49 44
49 47
49 53
49 54
49 57
49 59
50 41
50 45
50 46
50 48
50 55
50 60
51 43
51 48
51 52
51 56
51 58
52 42
52 51
52 53
52 57
52 58
52 61
53 44
53 49
53 52
53 54
53 57
53 58
54 44
54 47
54 49
54 53
54 57
54 59
55 45
55 46
55 48
55 50
55 56
55 60
56 48
56 51
56 55
56 60
57 49
57 52
57 53
57 54
57 58
57 59
57 61
58 51
58 52
58 53
58 57
58 61
59 49
59 54
59 57
60 50
60 55
60 56
61 52
61 57
61 58
