1 5
1 6
1 10
1 11
1 12
2 3
2 5
2 8
2 9
2 13
2 14
3 2
3 7
3 8
3 9
3 13
4 6
4 11
4 15
5 1
5 2
5 6
5 8
5 10
5 12
5 16
6 1
6 4
6 5
6 10
6 11
6 15
6 16
7 3
7 9
7 13
8 2
8 3
8 5
8 9
8 10
8 12
8 13
8 14
9 2
9 3
9 7
9 8
9 13
9 14
9 17
9 19
10 1
10 5
10 6
10 8
10 11
10 12
10 14
10 16
11 1
11 4
11 6
11 10
11 15
11 16
11 18
11 21
12 1
12 5
12 8
12 10
12 14
12 16
12 20
12 22
13 2
13 3
13 7
13 8
13 9
13 14
13 17
13 19
13 20
14 2
14 8
14 9
14 10
14 12
14 13
14 16
14 17
14 19
14 20
14 24
15 4
15 6
15 11
15 18
15 21
15 25
16 5
16 6
16 10
16 11
16 12
16 14
16 18
16 20
16 22
16 23
17 9
17 13
17 14
17 19
17 20
17 26
17 27
17 30
18 11
18 15
18 16
18 21
18 22
18 23
18 25
18 29
19 9
19 13
19 14
19 17
19 20
19 24
19 26
19 27
19 31
20 12
20 13
20 14
20 16
20 17
20 19
20 22
20 24
20 26
20 27
20 28
20 31
20 32
21 11
21 15
21 18
21 23
21 25
22 12
22 16
22 18
22 20
22 23
22 24
22 28
22 29
22 32
22 33
23 16
23 18
23 21
23 22
23 25
23 28
23 29
23 35
24 14
24 19
24 20
24 22
24 26
24 27
24 28
24 31
24 32
24 33
24 37
25 15
25 18
25 21
25 23
25 29
25 36
25 38
26 17
26 19
26 20
26 24
26 27
26 30
26 31
26 34
27 17
27 19
27 20
27 24
27 26
27 30
27 31
27 32
27 34
27 37
28 20
28 22
28 23
28 24
28 29
28 32
28 33
28 35
28 39
28 40
29 18
29 22
29 23
29 25
29 28
29 33
29 35
29 38
29 40
30 17
30 26
30 27
30 31
30 34
30 41
31 19
31 20
31 24
31 26
31 27
31 30
31 32
31 34
31 37
31 41
32 20
32 22
32 24
32 27
32 28
32 31
32 33
32 37
32 39
32 40
33 22
33 24
33 28
33 29
33 32
33 35
33 37
33 39
33 40
33 43
33 44
34 26
34 27
34 30
34 31
34 37
34 41
34 45
35 23
35 28
35 29
35 33
35 36
35 38
35 39
35 40
35 42
35 46
36 25
36 35
36 38
36 42
37 24
37 27
37 31
37 32
37 33
37 34
37 39
37 41
37 43
37 44
38 25
38 29
38 35
38 36
38 40
38 42
38 46
38 47
39 28
39 32
39 33
39 35
39 37
39 40
39 43
39 44
39 49
40 28
40 29
40 32
40 33
40 35
40 38
40 39
40 42
40 44
40 46
40 49
40 52
41 30
41 31
41 34
41 37
41 43
41 45
41 48
41 50
41 54
42 35
42 36
42 38
42 40
42 46
42 47
42 51
43 33
43 37
43 39
43 41
43 44
43 45
43 50
43 52
43 53
43 54
44 33
44 37
44 39
44 40
44 43
44 46
44 49
44 52
44 53
44 57
45 34
45 41
45 43
45 48
45 50
45 53
45 54
45 55
45 58
46 35
46 38
46 40
46 42
46 44
46 47
46 49
46 51
46 52
46 56
46 57
47 38
47 42
47 46
47 49
47 51
47 56
48 41
48 45
48 50
48 54
48 55
48 60
49 39
49 40
49 44
49 46
49 47
49 51
49 52
49 56
49 57
49 61
50 41
50 43
50 45
50 48
50 53
50 54
50 55
50 58
50 60
51 42
51 46
51 47
51 49
51 56
51 57
51 61
52 40
52 43
52 44
52 46
52 49
52 53
52 56
52 57
52 59
52 61
53 43
53 44
53 45
53 50
53 52
53 54
53 57
53 58
53 59
53 62
54 41
54 43
54 45
54 48
54 50
54 53
54 55
54 58
54 59
54 60
54 62
55 45
55 48
55 50
55 54
55 58
55 60
56 46
56 47
56 49
56 51
56 52
56 57
56 61
57 44
57 46
57 49
57 51
57 52
57 53
57 56
57 59
57 61
58 45
58 50
58 53
58 54
58 55
58 59
58 60
58 62
59 52
59 53
59 54
59 57
59 58
59 62
60 48
60 50
60 54
60 55
60 58
60 62
61 49
61 51
61 52
61 56
61 57
62 53
62 54
62 58
62 59
62 60
