1 3
1 6
1 7
1 8
1 11
1 12
1 15
1 17
1 18
2 4
2 6
2 7
2 9
2 10
2 11
2 13
2 14
2 16
2 17
2 19
2 21
3 1
3 6
3 8
3 11
3 12
3 15
3 18
3 23
4 2
4 5
4 6
4 7
4 9
4 10
4 13
4 14
4 16
4 19
4 21
4 24
5 4
5 9
5 10
5 13
5 16
5 19
5 20
6 1
6 2
6 3
6 4
6 7
6 10
6 11
6 12
6 14
6 15
6 17
6 18
6 21
6 22
6 25
7 1
7 2
7 4
7 6
7 9
7 10
7 11
7 13
7 14
7 15
7 16
7 17
7 19
7 21
7 22
7 27
8 1
8 3
8 11
8 12
8 15
8 18
8 23
9 2
9 4
9 5
9 7
9 10
9 13
9 14
9 16
9 19
9 20
9 21
9 24
9 28
10 2
10 4
10 5
10 6
10 7
10 9
10 11
10 13
10 14
10 16
10 17
10 19
10 21
10 24
10 26
10 27
11 1
11 2
11 3
11 6
11 7
11 8
11 10
11 12
11 14
11 15
11 17
11 18
11 21
11 22
11 23
11 25
11 27
11 29
12 1
12 3
12 6
12 8
12 11
12 15
12 17
12 18
12 22
12 23
12 25
12 30
13 2
13 4
13 5
13 7
13 9
13 10
13 14
13 16
13 17
13 19
13 20
13 21
13 24
13 26
13 28
14 2
14 4
14 6
14 7
14 9
14 10
14 11
14 13
14 15
14 16
14 17
14 18
14 19
14 21
14 22
14 24
14 25
14 26
14 27
14 29
14 32
15 1
15 3
15 6
15 7
15 8
15 11
15 12
15 14
15 17
15 18
15 21
15 22
15 23
15 25
15 27
15 29
15 30
15 31
16 2
16 4
16 5
16 7
16 9
16 10
16 13
16 14
16 19
16 20
16 21
16 24
16 26
16 28
16 33
17 1
17 2
17 6
17 7
17 10
17 11
17 12
17 13
17 14
17 15
17 18
17 19
17 21
17 22
17 23
17 24
17 25
17 26
17 27
17 29
17 30
17 31
17 32
17 34
18 1
18 3
18 6
18 8
18 11
18 12
18 14
18 15
18 17
18 22
18 23
18 25
18 29
18 30
18 31
19 2
19 4
19 5
19 7
19 9
19 10
19 13
19 14
19 16
19 17
19 20
19 21
19 24
19 26
19 27
19 28
19 32
19 33
19 35
20 5
20 9
20 13
20 16
20 19
20 24
20 28
20 33
20 38
21 2
21 4
21 6
21 7
21 9
21 10
21 11
21 13
21 14
21 15
21 16
21 17
21 19
21 22
21 24
21 25
21 26
21 27
21 28
21 29
21 31
21 32
21 33
21 34
21 35
22 6
22 7
22 11
22 12
22 14
22 15
22 17
22 18
22 21
22 23
22 25
22 26
22 27
22 29
22 30
22 31
22 32
22 34
22 35
22 36
22 40
23 3
23 8
23 11
23 12
23 15
23 17
23 18
23 22
23 25
23 29
23 30
23 31
23 36
23 37
24 4
24 9
24 10
24 13
24 14
24 16
24 17
24 19
24 20
24 21
24 26
24 27
24 28
24 32
24 33
24 34
24 35
24 38
24 39
24 41
25 6
25 11
25 12
25 14
25 15
25 17
25 18
25 21
25 22
25 23
25 27
25 29
25 30
25 31
25 32
25 34
25 36
25 37
25 40
25 42
26 10
26 13
26 14
26 16
26 17
26 19
26 21
26 22
26 24
26 27
26 28
26 29
26 32
26 33
26 34
26 35
26 39
26 40
26 41
26 43
27 7
27 10
27 11
27 14
27 15
27 17
27 19
27 21
27 22
27 24
27 25
27 26
27 29
27 31
27 32
27 33
27 34
27 35
27 36
27 40
27 41
27 43
28 9
28 13
28 16
28 19
28 20
28 21
28 24
28 26
28 32
28 33
28 35
28 38
28 39
28 44
29 11
29 14
29 15
29 17
29 18
29 21
29 22
29 23
29 25
29 26
29 27
29 30
29 31
29 32
29 34
29 35
29 36
29 37
29 40
29 42
29 43
30 12
30 15
30 17
30 18
30 22
30 23
30 25
30 29
30 31
30 34
30 36
30 37
30 40
30 42
30 45
31 15
31 17
31 18
31 21
31 22
31 23
31 25
31 27
31 29
31 30
31 32
31 34
31 35
31 36
31 37
31 40
31 42
31 43
31 48
31 49
32 14
32 17
32 19
32 21
32 22
32 24
32 25
32 26
32 27
32 28
32 29
32 31
32 33
32 34
32 35
32 36
32 39
32 40
32 41
32 43
32 44
33 16
33 19
33 20
33 21
33 24
33 26
33 27
33 28
33 32
33 34
33 35
33 38
33 39
33 40
33 41
33 43
33 44
33 46
33 47
33 50
34 17
34 21
34 22
34 24
34 25
34 26
34 27
34 29
34 30
34 31
34 32
34 33
34 35
34 36
34 40
34 41
34 42
34 43
34 48
34 51
35 19
35 21
35 22
35 24
35 26
35 27
35 28
35 29
35 31
35 32
35 33
35 34
35 36
35 38
35 39
35 40
35 41
35 43
35 44
35 47
35 50
35 51
36 22
36 23
36 25
36 27
36 29
36 30
36 31
36 32
36 34
36 35
36 37
36 40
36 42
36 43
36 45
36 48
36 49
36 51
36 52
37 23
37 25
37 29
37 30
37 31
37 36
37 40
37 42
37 45
37 48
37 49
37 52
38 20
38 24
38 28
38 33
38 35
38 39
38 41
38 44
38 46
38 47
38 53
38 54
39 24
39 26
39 28
39 32
39 33
39 35
39 38
39 41
39 43
39 44
39 46
39 47
39 50
39 53
40 22
40 25
40 26
40 27
40 29
40 30
40 31
40 32
40 33
40 34
40 35
40 36
40 37
40 41
40 42
40 43
40 48
40 49
40 50
40 51
40 57
41 24
41 26
41 27
41 32
41 33
41 34
41 35
41 38
41 39
41 40
41 43
41 44
41 46
41 47
41 50
41 51
41 53
41 55
41 57
42 25
42 29
42 30
42 31
42 34
42 36
42 37
42 40
42 43
42 45
42 48
42 49
42 51
42 52
42 56
42 58
42 59
43 26
43 27
43 29
43 31
43 32
43 33
43 34
43 35
43 36
43 39
43 40
43 41
43 42
43 44
43 47
43 48
43 50
43 51
43 55
43 57
44 28
44 32
44 33
44 35
44 38
44 39
44 41
44 43
44 46
44 47
44 50
44 53
44 54
44 55
44 60
44 61
45 30
45 36
45 37
45 42
45 48
45 49
45 52
45 56
45 58
45 63
46 33
46 38
46 39
46 41
46 44
46 47
46 50
46 53
46 54
46 60
46 61
47 33
47 35
47 38
47 39
47 41
47 43
47 44
47 46
47 50
47 51
47 53
47 54
47 55
47 57
47 60
47 61
47 64
48 31
48 34
48 36
48 37
48 40
48 42
48 43
48 45
48 49
48 51
48 52
48 56
48 57
48 58
48 59
48 65
48 66
49 31
49 36
49 37
49 40
49 42
49 45
49 48
49 51
49 52
49 56
49 57
49 58
49 59
49 63
49 65
50 33
50 35
50 39
50 40
50 41
50 43
50 44
50 46
50 47
50 51
50 53
50 54
50 55
50 57
50 60
50 61
50 62
50 64
50 67
51 34
51 35
51 36
51 40
51 41
51 42
51 43
51 47
51 48
51 49
51 50
51 55
51 56
51 57
51 58
51 59
51 62
51 66
52 36
52 37
52 42
52 45
52 48
52 49
52 56
52 58
52 59
52 63
52 65
52 69
53 38
53 39
53 41
53 44
53 46
53 47
53 50
53 54
53 55
53 60
53 61
53 62
53 64
53 67
53 68
54 38
54 44
54 46
54 47
54 50
54 53
54 55
54 60
54 61
54 64
54 68
54 73
55 41
55 43
55 44
55 47
55 50
55 51
55 53
55 54
55 57
55 59
55 60
55 61
55 62
55 64
55 66
55 67
55 70
55 71
56 42
56 45
56 48
56 49
56 51
56 52
56 57
56 58
56 59
56 63
56 65
56 66
56 69
57 40
57 41
57 43
57 47
57 48
57 49
57 50
57 51
57 55
57 56
57 58
57 59
57 60
57 62
57 65
57 66
57 67
57 70
57 71
57 72
57 75
58 42
58 45
58 48
58 49
58 51
58 52
58 56
58 57
58 59
58 63
58 65
58 66
58 69
58 72
58 76
59 42
59 48
59 49
59 51
59 52
59 55
59 56
59 57
59 58
59 62
59 63
59 65
59 66
59 69
59 70
59 72
59 75
60 44
60 46
60 47
60 50
60 53
60 54
60 55
60 57
60 61
60 62
60 64
60 67
60 68
60 70
60 71
60 73
60 74
61 44
61 46
61 47
61 50
61 53
61 54
61 55
61 60
61 64
61 67
61 68
61 71
61 73
61 74
62 50
62 51
62 53
62 55
62 57
62 59
62 60
62 64
62 66
62 67
62 70
62 71
62 72
62 74
62 75
63 45
63 49
63 52
63 56
63 58
63 59
63 65
63 69
63 72
63 76
64 47
64 50
64 53
64 54
64 55
64 60
64 61
64 62
64 67
64 68
64 70
64 71
64 73
64 74
64 75
65 48
65 49
65 52
65 56
65 57
65 58
65 59
65 63
65 66
65 69
65 70
65 72
65 76
66 48
66 51
66 55
66 56
66 57
66 58
66 59
66 62
66 65
66 67
66 69
66 70
66 71
66 72
66 75
66 76
67 50
67 53
67 55
67 57
67 60
67 61
67 62
67 64
67 66
67 68
67 70
67 71
67 73
67 74
67 75
68 53
68 54
68 60
68 61
68 64
68 67
68 71
68 73
68 74
69 52
69 56
69 58
69 59
69 63
69 65
69 66
69 70
69 72
69 76
70 55
70 57
70 59
70 60
70 62
70 64
70 65
70 66
70 67
70 69
70 71
70 72
70 74
70 75
71 55
71 57
71 60
71 61
71 62
71 64
71 66
71 67
71 68
71 70
71 72
71 73
71 74
71 75
72 57
72 58
72 59
72 62
72 63
72 65
72 66
72 69
72 70
72 71
72 75
72 76
73 54
73 60
73 61
73 64
73 67
73 68
73 71
73 74
74 60
74 61
74 62
74 64
74 67
74 68
74 70
74 71
74 73
74 75
75 57
75 59
75 62
75 64
75 66
75 67
75 70
75 71
75 72
75 74
76 58
76 63
76 65
76 66
76 69
76 72
