1 2
1 3
1 4
1 7
1 8
1 9
1 10
1 12
1 13
1 14
1 15
1 17
1 20
1 21
1 22
1 25
1 28
2 1
2 3
2 4
2 5
2 6
2 8
2 9
2 10
2 11
2 12
2 13
2 14
2 17
2 18
2 19
2 20
2 21
2 22
2 23
2 25
3 1
3 2
3 4
3 7
3 8
3 9
3 10
3 13
3 14
3 15
3 16
3 17
3 21
3 22
3 26
3 28
4 1
4 2
4 3
4 5
4 7
4 8
4 9
4 10
4 12
4 13
4 14
4 15
4 17
4 18
4 20
4 21
4 22
4 23
4 25
4 28
5 2
5 4
5 6
5 10
5 11
5 12
5 14
5 18
5 19
5 20
5 23
5 27
5 29
6 2
6 5
6 11
6 12
6 18
6 19
6 27
7 1
7 3
7 4
7 8
7 9
7 13
7 15
7 16
7 17
7 21
7 22
7 24
7 26
8 1
8 2
8 3
8 4
8 7
8 9
8 10
8 13
8 14
8 15
8 16
8 17
8 21
8 22
8 24
8 26
8 28
9 1
9 2
9 3
9 4
9 7
9 8
9 10
9 12
9 13
9 14
9 15
9 17
9 18
9 20
9 21
9 22
9 23
9 25
9 26
9 28
9 31
10 1
10 2
10 3
10 4
10 5
10 8
10 9
10 11
10 12
10 13
10 14
10 17
10 18
10 19
10 20
10 21
10 22
10 23
10 25
10 28
10 30
10 31
11 2
11 5
11 6
11 10
11 12
11 14
11 18
11 19
11 20
11 23
11 27
11 29
11 30
12 1
12 2
12 4
12 5
12 6
12 9
12 10
12 11
12 14
12 17
12 18
12 19
12 20
12 23
12 25
12 27
12 29
12 30
13 1
13 2
13 3
13 4
13 7
13 8
13 9
13 10
13 14
13 15
13 16
13 17
13 20
13 21
13 22
13 24
13 25
13 26
13 28
13 31
13 33
13 34
14 1
14 2
14 3
14 4
14 5
14 8
14 9
14 10
14 11
14 12
14 13
14 17
14 18
14 19
14 20
14 21
14 22
14 23
14 25
14 28
14 29
14 30
14 31
14 35
14 38
15 1
15 3
15 4
15 7
15 8
15 9
15 13
15 16
15 17
15 21
15 22
15 24
15 25
15 26
15 28
15 31
15 32
15 33
15 34
16 3
16 7
16 8
16 13
16 15
16 21
16 22
16 24
16 26
16 28
16 32
16 33
16 39
17 1
17 2
17 3
17 4
17 7
17 8
17 9
17 10
17 12
17 13
17 14
17 15
17 18
17 20
17 21
17 22
17 23
17 25
17 26
17 28
17 31
17 33
17 34
17 35
17 38
18 2
18 4
18 5
18 6
18 9
18 10
18 11
18 12
18 14
18 17
18 19
18 20
18 23
18 25
18 27
18 29
18 30
18 31
18 35
18 36
18 37
19 2
19 5
19 6
19 10
19 11
19 12
19 14
19 18
19 20
19 23
19 25
19 27
19 29
19 30
19 36
19 37
20 1
20 2
20 4
20 5
20 9
20 10
20 11
20 12
20 13
20 14
20 17
20 18
20 19
20 21
20 22
20 23
20 25
20 27
20 28
20 29
20 30
20 31
20 35
20 36
20 37
20 38
21 1
21 2
21 3
21 4
21 7
21 8
21 9
21 10
21 13
21 14
21 15
21 16
21 17
21 20
21 22
21 23
21 24
21 25
21 26
21 28
21 31
21 32
21 33
21 34
21 35
21 38
21 40
21 44
22 1
22 2
22 3
22 4
22 7
22 8
22 9
22 10
22 13
22 14
22 15
22 16
22 17
22 20
22 21
22 23
22 24
22 25
22 26
22 28
22 31
22 32
22 33
22 34
22 35
22 38
22 40
22 44
22 46
23 2
23 4
23 5
23 9
23 10
23 11
23 12
23 14
23 17
23 18
23 19
23 20
23 21
23 22
23 25
23 27
23 28
23 29
23 30
23 31
23 34
23 35
23 36
23 37
23 38
23 41
23 44
23 45
23 47
24 7
24 8
24 13
24 15
24 16
24 21
24 22
24 26
24 28
24 32
24 33
24 34
24 39
24 40
24 42
25 1
25 2
25 4
25 9
25 10
25 12
25 13
25 14
25 15
25 17
25 18
25 19
25 20
25 21
25 22
25 23
25 26
25 28
25 29
25 30
25 31
25 33
25 34
25 35
25 36
25 37
25 38
25 40
25 41
25 44
25 46
25 47
25 50
26 3
26 7
26 8
26 9
26 13
26 15
26 16
26 17
26 21
26 22
26 24
26 25
26 28
26 31
26 32
26 33
26 34
26 38
26 39
26 40
26 42
26 46
26 48
26 49
27 5
27 6
27 11
27 12
27 18
27 19
27 20
27 23
27 29
27 30
27 35
27 36
27 37
27 41
27 43
27 45
28 1
28 3
28 4
28 8
28 9
28 10
28 13
28 14
28 15
28 16
28 17
28 20
28 21
28 22
28 23
28 24
28 25
28 26
28 30
28 31
28 32
28 33
28 34
28 35
28 38
28 40
28 42
28 44
28 46
28 48
28 50
29 5
29 11
29 12
29 14
29 18
29 19
29 20
29 23
29 25
29 27
29 30
29 31
29 35
29 36
29 37
29 38
29 41
29 43
29 45
29 47
30 10
30 11
30 12
30 14
30 18
30 19
30 20
30 23
30 25
30 27
30 28
30 29
30 31
30 35
30 36
30 37
30 38
30 41
30 43
30 44
30 45
30 47
30 50
30 51
30 53
31 9
31 10
31 13
31 14
31 15
31 17
31 18
31 20
31 21
31 22
31 23
31 25
31 26
31 28
31 29
31 30
31 33
31 34
31 35
31 36
31 37
31 38
31 40
31 41
31 44
31 46
31 47
31 48
31 50
31 54
32 15
32 16
32 21
32 22
32 24
32 26
32 28
32 33
32 34
32 39
32 40
32 42
32 48
32 49
32 52
32 55
33 13
33 15
33 16
33 17
33 21
33 22
33 24
33 25
33 26
33 28
33 31
33 32
33 34
33 38
33 39
33 40
33 42
33 44
33 46
33 48
33 49
33 52
33 55
34 13
34 15
34 17
34 21
34 22
34 23
34 24
34 25
34 26
34 28
34 31
34 32
34 33
34 35
34 38
34 39
34 40
34 42
34 44
34 46
34 47
34 48
34 49
34 50
34 52
34 54
34 56
35 14
35 17
35 18
35 20
35 21
35 22
35 23
35 25
35 27
35 28
35 29
35 30
35 31
35 34
35 36
35 37
35 38
35 40
35 41
35 43
35 44
35 45
35 46
35 47
35 50
35 51
35 53
35 54
36 18
36 19
36 20
36 23
36 25
36 27
36 29
36 30
36 31
36 35
36 37
36 38
36 41
36 43
36 44
36 45
36 47
36 50
36 51
36 53
36 57
36 58
37 18
37 19
37 20
37 23
37 25
37 27
37 29
37 30
37 31
37 35
37 36
37 38
37 41
37 43
37 44
37 45
37 46
37 47
37 50
37 51
37 53
37 54
37 58
38 14
38 17
38 20
38 21
38 22
38 23
38 25
38 26
38 28
38 29
38 30
38 31
38 33
38 34
38 35
38 36
38 37
38 40
38 41
38 42
38 44
38 45
38 46
38 47
38 48
38 50
38 52
38 53
38 54
38 56
38 59
39 16
39 24
39 26
39 32
39 33
39 34
39 40
39 42
39 48
39 49
39 52
39 55
39 60
40 21
40 22
40 24
40 25
40 26
40 28
40 31
40 32
40 33
40 34
40 35
40 38
40 39
40 42
40 44
40 46
40 47
40 48
40 49
40 50
40 52
40 54
40 55
40 56
40 59
40 60
41 23
41 25
41 27
41 29
41 30
41 31
41 35
41 36
41 37
41 38
41 43
41 44
41 45
41 46
41 47
41 50
41 51
41 53
41 54
41 57
41 58
41 61
41 62
42 24
42 26
42 28
42 32
42 33
42 34
42 38
42 39
42 40
42 44
42 46
42 48
42 49
42 52
42 55
42 56
42 60
42 64
43 27
43 29
43 30
43 35
43 36
43 37
43 41
43 45
43 47
43 51
43 53
43 57
43 58
43 62
44 21
44 22
44 23
44 25
44 28
44 30
44 31
44 33
44 34
44 35
44 36
44 37
44 38
44 40
44 41
44 42
44 45
44 46
44 47
44 48
44 49
44 50
44 52
44 53
44 54
44 56
44 58
44 59
44 61
44 63
44 67
45 23
45 27
45 29
45 30
45 35
45 36
45 37
45 38
45 41
45 43
45 44
45 47
45 50
45 51
45 53
45 54
45 57
45 58
45 61
45 62
45 66
46 22
46 25
46 26
46 28
46 31
46 33
46 34
46 35
46 37
46 38
46 40
46 41
46 42
46 44
46 47
46 48
46 49
46 50
46 52
46 53
46 54
46 55
46 56
46 59
46 60
46 61
46 65
46 67
46 69
47 23
47 25
47 29
47 30
47 31
47 34
47 35
47 36
47 37
47 38
47 40
47 41
47 43
47 44
47 45
47 46
47 48
47 50
47 51
47 53
47 54
47 56
47 57
47 58
47 59
47 61
47 62
47 63
47 67
47 71
48 26
48 28
48 31
48 32
48 33
48 34
48 38
48 39
48 40
48 42
48 44
48 46
48 47
48 49
48 50
48 52
48 54
48 55
48 56
48 59
48 60
48 64
48 65
48 67
48 68
48 69
49 26
49 32
49 33
49 34
49 39
49 40
49 42
49 44
49 46
49 48
49 52
49 55
49 56
49 59
49 60
49 64
49 65
49 68
49 69
50 25
50 28
50 30
50 31
50 34
50 35
50 36
50 37
50 38
50 40
50 41
50 44
50 45
50 46
50 47
50 48
50 51
50 52
50 53
50 54
50 56
50 58
50 59
50 61
50 62
50 63
50 65
50 67
50 71
51 30
51 35
51 36
51 37
51 41
51 43
51 45
51 47
51 50
51 53
51 54
51 57
51 58
51 61
51 62
51 63
51 66
51 70
51 71
51 73
51 76
52 32
52 33
52 34
52 38
52 39
52 40
52 42
52 44
52 46
52 48
52 49
52 50
52 54
52 55
52 56
52 59
52 60
52 64
52 65
52 67
52 68
52 69
52 72
52 75
53 30
53 35
53 36
53 37
53 38
53 41
53 43
53 44
53 45
53 46
53 47
53 50
53 51
53 54
53 56
53 57
53 58
53 59
53 61
53 62
53 63
53 65
53 66
53 67
53 70
53 71
53 73
53 74
53 76
54 31
54 34
54 35
54 37
54 38
54 40
54 41
54 44
54 45
54 46
54 47
54 48
54 50
54 51
54 52
54 53
54 56
54 58
54 59
54 61
54 62
54 63
54 65
54 67
54 69
54 70
54 71
54 74
54 75
54 76
54 77
55 32
55 33
55 39
55 40
55 42
55 46
55 48
55 49
55 52
55 56
55 60
55 64
55 65
55 68
55 69
55 72
56 34
56 38
56 40
56 42
56 44
56 46
56 47
56 48
56 49
56 50
56 52
56 53
56 54
56 55
56 59
56 60
56 61
56 63
56 64
56 65
56 67
56 68
56 69
56 71
56 72
56 74
56 75
56 77
57 36
57 41
57 43
57 45
57 47
57 51
57 53
57 58
57 61
57 62
57 63
57 66
57 70
57 71
57 73
57 78
58 36
58 37
58 41
58 43
58 44
58 45
58 47
58 50
58 51
58 53
58 54
58 57
58 59
58 61
58 62
58 63
58 66
58 67
58 70
58 71
58 73
58 76
58 78
59 38
59 40
59 44
59 46
59 47
59 48
59 49
59 50
59 52
59 53
59 54
59 56
59 58
59 60
59 61
59 63
59 64
59 65
59 67
59 69
59 70
59 71
59 72
59 74
59 75
59 76
59 77
59 80
59 82
60 39
60 40
60 42
60 46
60 48
60 49
60 52
60 55
60 56
60 59
60 64
60 65
60 67
60 68
60 69
60 72
60 75
60 79
60 80
60 81
61 41
61 44
61 45
61 46
61 47
61 50
61 51
61 53
61 54
61 56
61 57
61 58
61 59
61 62
61 63
61 65
61 66
61 67
61 69
61 70
61 71
61 73
61 74
61 75
61 76
61 77
61 78
61 82
61 83
62 41
62 43
62 45
62 47
62 50
62 51
62 53
62 54
62 57
62 58
62 61
62 63
62 66
62 67
62 70
62 71
62 73
62 76
62 78
62 83
63 44
63 47
63 50
63 51
63 53
63 54
63 56
63 57
63 58
63 59
63 61
63 62
63 65
63 66
63 67
63 69
63 70
63 71
63 73
63 74
63 75
63 76
63 77
63 78
63 82
63 83
64 42
64 48
64 49
64 52
64 55
64 56
64 59
64 60
64 65
64 67
64 68
64 69
64 72
64 74
64 75
64 79
64 80
64 81
64 82
64 84
65 46
65 48
65 49
65 50
65 52
65 53
65 54
65 55
65 56
65 59
65 60
65 61
65 63
65 64
65 67
65 68
65 69
65 71
65 72
65 74
65 75
65 76
65 77
65 79
65 80
65 81
65 82
66 45
66 51
66 53
66 57
66 58
66 61
66 62
66 63
66 70
66 71
66 73
66 76
66 78
66 83
67 44
67 46
67 47
67 48
67 50
67 52
67 53
67 54
67 56
67 58
67 59
67 60
67 61
67 62
67 63
67 64
67 65
67 69
67 70
67 71
67 72
67 74
67 75
67 76
67 77
67 80
67 82
67 83
68 48
68 49
68 52
68 55
68 56
68 60
68 64
68 65
68 69
68 72
68 75
68 79
68 80
68 81
68 84
69 46
69 48
69 49
69 52
69 54
69 55
69 56
69 59
69 60
69 61
69 63
69 64
69 65
69 67
69 68
69 71
69 72
69 74
69 75
69 76
69 77
69 79
69 80
69 81
69 82
69 84
70 51
70 53
70 54
70 57
70 58
70 59
70 61
70 62
70 63
70 66
70 67
70 71
70 73
70 74
70 76
70 77
70 78
70 83
71 47
71 50
71 51
71 53
71 54
71 56
71 57
71 58
71 59
71 61
71 62
71 63
71 65
71 66
71 67
71 69
71 70
71 73
71 74
71 75
71 76
71 77
71 78
71 82
71 83
72 52
72 55
72 56
72 59
72 60
72 64
72 65
72 67
72 68
72 69
72 74
72 75
72 77
72 79
72 80
72 81
72 82
72 84
73 51
73 53
73 57
73 58
73 61
73 62
73 63
73 66
73 70
73 71
73 76
73 77
73 78
73 83
74 53
74 54
74 56
74 59
74 61
74 63
74 64
74 65
74 67
74 69
74 70
74 71
74 72
74 75
74 76
74 77
74 80
74 81
74 82
74 83
75 52
75 54
75 56
75 59
75 60
75 61
75 63
75 64
75 65
75 67
75 68
75 69
75 71
75 72
75 74
75 76
75 77
75 79
75 80
75 81
75 82
75 84
76 51
76 53
76 54
76 58
76 59
76 61
76 62
76 63
76 65
76 66
76 67
76 69
76 70
76 71
76 73
76 74
76 75
76 77
76 78
76 82
76 83
77 54
77 56
77 59
77 61
77 63
77 65
77 67
77 69
77 70
77 71
77 72
77 73
77 74
77 75
77 76
77 78
77 80
77 81
77 82
77 83
78 57
78 58
78 61
78 62
78 63
78 66
78 70
78 71
78 73
78 76
78 77
78 83
79 60
79 64
79 65
79 68
79 69
79 72
79 75
79 80
79 81
79 84
80 59
80 60
80 64
80 65
80 67
80 68
80 69
80 72
80 74
80 75
80 77
80 79
80 81
80 82
80 84
81 60
81 64
81 65
81 68
81 69
81 72
81 74
81 75
81 77
81 79
81 80
81 82
81 84
82 59
82 61
82 63
82 64
82 65
82 67
82 69
82 71
82 72
82 74
82 75
82 76
82 77
82 80
82 81
82 83
82 84
83 61
83 62
83 63
83 66
83 67
83 70
83 71
83 73
83 74
83 76
83 77
83 78
83 82
84 64
84 68
84 69
84 72
84 75
84 79
84 80
84 81
84 82
