1 3
1 4
1 6
1 8
1 10
1 12
2 7
2 9
3 1
3 6
3 7
3 11
3 12
3 15
3 16
4 1
4 5
4 8
4 10
4 13
4 14
5 4
5 10
5 13
5 14
5 19
6 1
6 3
6 8
6 11
6 12
6 16
6 17
7 2
7 3
7 9
7 11
7 15
7 16
7 18
7 20
8 1
8 4
8 6
8 10
8 12
8 14
8 17
9 2
9 7
9 18
9 20
10 1
10 4
10 5
10 8
10 13
10 14
10 19
11 3
11 6
11 7
11 12
11 15
11 16
11 17
12 1
12 3
12 6
12 8
12 11
12 15
12 16
12 17
12 26
13 4
13 5
13 10
13 14
13 19
13 23
13 25
14 4
14 5
14 8
14 10
14 13
14 17
14 19
14 21
14 25
15 3
15 7
15 11
15 12
15 16
15 18
15 20
15 22
15 26
15 28
16 3
16 6
16 7
16 11
16 12
16 15
16 17
16 18
16 22
16 26
16 28
17 6
17 8
17 11
17 12
17 14
17 16
17 21
17 26
17 27
17 29
18 7
18 9
18 15
18 16
18 20
18 22
18 24
18 32
19 5
19 10
19 13
19 14
19 21
19 23
19 25
19 30
20 7
20 9
20 15
20 18
20 22
20 24
20 32
21 14
21 17
21 19
21 23
21 25
21 27
21 29
21 30
21 38
22 15
22 16
22 18
22 20
22 24
22 26
22 28
22 31
22 32
22 36
22 37
23 13
23 19
23 21
23 25
23 30
23 34
23 39
24 18
24 20
24 22
24 28
24 32
24 35
24 37
24 42
25 13
25 14
25 19
25 21
25 23
25 29
25 30
25 34
25 38
25 39
26 12
26 15
26 16
26 17
26 22
26 27
26 28
26 29
26 31
26 33
26 36
26 41
27 17
27 21
27 26
27 29
27 30
27 31
27 33
27 36
27 38
27 40
27 41
28 15
28 16
28 22
28 24
28 26
28 31
28 32
28 33
28 36
28 37
28 41
28 43
29 17
29 21
29 25
29 26
29 27
29 30
29 31
29 33
29 38
29 40
30 19
30 21
30 23
30 25
30 27
30 29
30 34
30 38
30 39
30 40
30 45
31 22
31 26
31 27
31 28
31 29
31 33
31 36
31 37
31 40
31 41
31 43
31 46
31 48
32 18
32 20
32 22
32 24
32 28
32 35
32 36
32 37
32 42
32 43
32 44
33 26
33 27
33 28
33 29
33 31
33 36
33 38
33 40
33 41
33 46
33 48
34 23
34 25
34 30
34 39
34 45
34 47
35 24
35 32
35 37
35 42
35 44
35 51
36 22
36 26
36 27
36 28
36 31
36 32
36 33
36 37
36 40
36 41
36 43
36 44
36 46
36 48
36 49
36 53
37 22
37 24
37 28
37 31
37 32
37 35
37 36
37 41
37 42
37 43
37 44
37 48
37 49
37 51
38 21
38 25
38 27
38 29
38 30
38 33
38 39
38 40
38 45
38 46
38 50
38 52
39 23
39 25
39 30
39 34
39 38
39 45
39 47
39 52
39 56
40 27
40 29
40 30
40 31
40 33
40 36
40 38
40 41
40 45
40 46
40 48
40 50
40 55
41 26
41 27
41 28
41 31
41 33
41 36
41 37
41 40
41 43
41 46
41 48
41 49
41 53
41 55
42 24
42 32
42 35
42 37
42 43
42 44
42 49
42 51
42 54
42 58
43 28
43 31
43 32
43 36
43 37
43 41
43 42
43 44
43 46
43 48
43 49
43 51
43 53
43 54
43 57
44 32
44 35
44 36
44 37
44 42
44 43
44 48
44 49
44 51
44 53
44 54
44 57
44 58
45 30
45 34
45 38
45 39
45 40
45 47
45 50
45 52
45 56
45 59
45 60
46 31
46 33
46 36
46 38
46 40
46 41
46 43
46 48
46 50
46 53
46 55
46 59
46 61
47 34
47 39
47 45
47 52
47 56
47 60
47 63
48 31
48 33
48 36
48 37
48 40
48 41
48 43
48 44
48 46
48 49
48 53
48 55
48 57
48 61
49 36
49 37
49 41
49 42
49 43
49 44
49 48
49 51
49 53
49 54
49 57
49 58
49 62
50 38
50 40
50 45
50 46
50 52
50 55
50 59
50 60
50 64
51 35
51 37
51 42
51 43
51 44
51 49
51 54
51 58
51 65
52 38
52 39
52 45
52 47
52 50
52 56
52 59
52 60
52 63
52 64
52 69
53 36
53 41
53 43
53 44
53 46
53 48
53 49
53 54
53 55
53 57
53 61
53 62
53 68
54 42
54 43
54 44
54 49
54 51
54 53
54 57
54 58
54 62
54 65
54 66
55 40
55 41
55 46
55 48
55 50
55 53
55 57
55 59
55 61
55 67
55 68
56 39
56 45
56 47
56 52
56 60
56 63
56 69
56 70
57 43
57 44
57 48
57 49
57 53
57 54
57 55
57 61
57 62
57 66
57 68
57 72
58 42
58 44
58 49
58 51
58 54
58 65
58 66
59 45
59 46
59 50
59 52
59 55
59 60
59 61
59 64
59 67
59 69
59 71
60 45
60 47
60 50
60 52
60 56
60 59
60 63
60 64
60 69
60 70
60 71
60 75
60 77
61 46
61 48
61 53
61 55
61 57
61 59
61 62
61 67
61 68
61 72
61 74
62 49
62 53
62 54
62 57
62 61
62 65
62 66
62 68
62 72
62 73
62 74
62 79
63 47
63 52
63 56
63 60
63 69
63 70
63 75
64 50
64 52
64 59
64 60
64 67
64 69
64 71
64 75
64 77
64 78
65 51
65 54
65 58
65 62
65 66
65 72
65 73
65 76
65 79
66 54
66 57
66 58
66 62
66 65
66 72
66 73
66 76
66 79
66 82
67 55
67 59
67 61
67 64
67 68
67 71
67 74
67 77
67 78
67 80
68 53
68 55
68 57
68 61
68 62
68 67
68 72
68 74
68 78
68 79
68 80
69 52
69 56
69 59
69 60
69 63
69 64
69 70
69 71
69 75
69 77
69 81
70 56
70 60
70 63
70 69
70 75
70 77
70 81
71 59
71 60
71 64
71 67
71 69
71 75
71 77
71 78
72 57
72 61
72 62
72 65
72 66
72 68
72 73
72 74
72 79
72 80
72 82
72 83
73 62
73 65
73 66
73 72
73 76
73 79
73 82
73 86
74 61
74 62
74 67
74 68
74 72
74 78
74 79
74 80
74 83
74 84
75 60
75 63
75 64
75 69
75 70
75 71
75 77
75 81
75 85
75 87
76 65
76 66
76 73
76 79
76 82
76 86
77 60
77 64
77 67
77 69
77 70
77 71
77 75
77 78
77 81
77 85
77 87
77 88
78 64
78 67
78 68
78 71
78 74
78 77
78 80
78 84
78 85
78 88
79 62
79 65
79 66
79 68
79 72
79 73
79 74
79 76
79 82
79 83
79 86
79 90
80 67
80 68
80 72
80 74
80 78
80 83
80 84
80 88
81 69
81 70
81 75
81 77
81 85
81 87
81 89
82 66
82 72
82 73
82 76
82 79
82 83
82 86
82 90
83 72
83 74
83 79
83 80
83 82
83 84
83 86
83 90
84 74
84 78
84 80
84 83
84 88
85 75
85 77
85 78
85 81
85 87
85 88
85 89
86 73
86 76
86 79
86 82
86 83
86 90
87 75
87 77
87 81
87 85
87 88
87 89
88 77
88 78
88 80
88 84
88 85
88 87
89 81
89 85
89 87
90 79
90 82
90 83
90 86
