1 4
1 5
1 6
1 8
1 10
1 11
1 12
1 16
2 3
2 5
2 7
2 8
2 9
2 10
2 12
2 13
2 14
3 2
3 5
3 7
3 8
3 9
3 12
3 13
3 14
3 17
4 1
4 6
4 11
4 15
5 1
5 2
5 3
5 6
5 8
5 10
5 11
5 12
5 14
5 16
6 1
6 4
6 5
6 10
6 11
6 12
6 15
6 16
6 18
7 2
7 3
7 9
7 13
7 17
8 1
8 2
8 3
8 5
8 9
8 10
8 12
8 13
8 14
8 16
8 17
8 19
8 20
9 2
9 3
9 7
9 8
9 12
9 13
9 14
9 17
9 19
9 20
10 1
10 2
10 5
10 6
10 8
10 11
10 12
10 14
10 16
10 18
10 20
10 22
10 23
11 1
11 4
11 5
11 6
11 10
11 12
11 15
11 16
11 18
11 21
11 22
11 23
11 25
12 1
12 2
12 3
12 5
12 6
12 8
12 9
12 10
12 11
12 13
12 14
12 16
12 18
12 19
12 20
12 22
12 24
13 2
13 3
13 7
13 8
13 9
13 12
13 14
13 17
13 19
13 20
13 24
13 26
13 27
14 2
14 3
14 5
14 8
14 9
14 10
14 12
14 13
14 16
14 17
14 19
14 20
14 22
14 24
14 26
14 27
15 4
15 6
15 11
15 16
15 18
15 21
15 23
15 25
16 1
16 5
16 6
16 8
16 10
16 11
16 12
16 14
16 15
16 18
16 19
16 20
16 22
16 23
16 24
16 28
16 29
17 3
17 7
17 8
17 9
17 13
17 14
17 19
17 20
17 24
17 26
17 27
17 30
17 31
17 34
18 6
18 10
18 11
18 12
18 15
18 16
18 21
18 22
18 23
18 25
18 28
18 29
18 35
19 8
19 9
19 12
19 13
19 14
19 16
19 17
19 20
19 22
19 24
19 26
19 27
19 30
19 31
19 32
19 34
20 8
20 9
20 10
20 12
20 13
20 14
20 16
20 17
20 19
20 22
20 24
20 26
20 27
20 28
20 31
20 32
20 33
20 37
21 11
21 15
21 18
21 23
21 25
21 29
21 36
21 38
22 10
22 11
22 12
22 14
22 16
22 18
22 19
22 20
22 23
22 24
22 25
22 27
22 28
22 29
22 31
22 32
22 33
22 35
22 39
22 40
23 10
23 11
23 15
23 16
23 18
23 21
23 22
23 25
23 28
23 29
23 32
23 33
23 35
23 36
23 38
24 12
24 13
24 14
24 16
24 17
24 19
24 20
24 22
24 26
24 27
24 28
24 29
24 30
24 31
24 32
24 33
24 34
24 37
24 39
25 11
25 15
25 18
25 21
25 22
25 23
25 28
25 29
25 35
25 36
25 38
25 42
26 13
26 14
26 17
26 19
26 20
26 24
26 27
26 30
26 31
26 32
26 34
26 37
26 41
27 13
27 14
27 17
27 19
27 20
27 22
27 24
27 26
27 28
27 30
27 31
27 32
27 33
27 34
27 37
27 39
27 41
28 16
28 18
28 20
28 22
28 23
28 24
28 25
28 27
28 29
28 31
28 32
28 33
28 35
28 37
28 38
28 39
28 40
28 44
29 16
29 18
29 21
29 22
29 23
29 24
29 25
29 28
29 32
29 33
29 35
29 36
29 38
29 39
29 40
29 42
29 46
30 17
30 19
30 24
30 26
30 27
30 31
30 34
30 37
30 41
30 45
31 17
31 19
31 20
31 22
31 24
31 26
31 27
31 28
31 30
31 32
31 33
31 34
31 37
31 39
31 41
31 43
31 45
32 19
32 20
32 22
32 23
32 24
32 26
32 27
32 28
32 29
32 31
32 33
32 34
32 35
32 37
32 39
32 40
32 41
32 43
32 44
33 20
33 22
33 23
33 24
33 27
33 28
33 29
33 31
33 32
33 34
33 35
33 37
33 39
33 40
33 43
33 44
33 46
33 49
34 17
34 19
34 24
34 26
34 27
34 30
34 31
34 32
34 33
34 37
34 39
34 41
34 43
34 45
34 48
34 50
35 18
35 22
35 23
35 25
35 28
35 29
35 32
35 33
35 36
35 38
35 39
35 40
35 42
35 44
35 46
35 47
35 49
36 21
36 23
36 25
36 29
36 35
36 38
36 40
36 42
36 46
36 47
37 20
37 24
37 26
37 27
37 28
37 30
37 31
37 32
37 33
37 34
37 39
37 40
37 41
37 43
37 44
37 45
37 50
37 53
37 54
38 21
38 23
38 25
38 28
38 29
38 35
38 36
38 40
38 42
38 46
38 47
38 49
38 51
39 22
39 24
39 27
39 28
39 29
39 31
39 32
39 33
39 34
39 35
39 37
39 40
39 41
39 43
39 44
39 46
39 49
39 52
39 53
39 54
40 22
40 28
40 29
40 32
40 33
40 35
40 36
40 37
40 38
40 39
40 42
40 43
40 44
40 46
40 47
40 49
40 51
40 52
40 53
40 57
41 26
41 27
41 30
41 31
41 32
41 34
41 37
41 39
41 43
41 45
41 48
41 50
41 53
41 54
41 55
41 58
42 25
42 29
42 35
42 36
42 38
42 40
42 46
42 47
42 49
42 51
42 56
43 31
43 32
43 33
43 34
43 37
43 39
43 40
43 41
43 44
43 45
43 48
43 49
43 50
43 52
43 53
43 54
43 58
43 59
44 28
44 32
44 33
44 35
44 37
44 39
44 40
44 43
44 46
44 49
44 51
44 52
44 53
44 54
44 56
44 57
44 59
45 30
45 31
45 34
45 37
45 41
45 43
45 48
45 50
45 53
45 54
45 55
45 58
45 59
45 60
46 29
46 33
46 35
46 36
46 38
46 39
46 40
46 42
46 44
46 47
46 49
46 51
46 52
46 56
46 57
46 61
47 35
47 36
47 38
47 40
47 42
47 46
47 49
47 51
47 52
47 56
47 57
47 61
48 34
48 41
48 43
48 45
48 50
48 54
48 55
48 58
48 60
49 33
49 35
49 38
49 39
49 40
49 42
49 43
49 44
49 46
49 47
49 51
49 52
49 53
49 56
49 57
49 59
49 61
50 34
50 37
50 41
50 43
50 45
50 48
50 53
50 54
50 55
50 58
50 59
50 60
50 62
51 38
51 40
51 42
51 44
51 46
51 47
51 49
51 52
51 56
51 57
51 61
52 39
52 40
52 43
52 44
52 46
52 47
52 49
52 51
52 53
52 54
52 56
52 57
52 58
52 59
52 61
52 62
53 37
53 39
53 40
53 41
53 43
53 44
53 45
53 49
53 50
53 52
53 54
53 55
53 57
53 58
53 59
53 60
53 62
54 37
54 39
54 41
54 43
54 44
54 45
54 48
54 50
54 52
54 53
54 55
54 58
54 59
54 60
54 62
55 41
55 45
55 48
55 50
55 53
55 54
55 58
55 59
55 60
55 62
56 42
56 44
56 46
56 47
56 49
56 51
56 52
56 57
56 61
57 40
57 44
57 46
57 47
57 49
57 51
57 52
57 53
57 56
57 59
57 61
57 62
58 41
58 43
58 45
58 48
58 50
58 52
58 53
58 54
58 55
58 59
58 60
58 62
59 43
59 44
59 45
59 49
59 50
59 52
59 53
59 54
59 55
59 57
59 58
59 60
59 62
60 45
60 48
60 50
60 53
60 54
60 55
60 58
60 59
60 62
61 46
61 47
61 49
61 51
61 52
61 56
61 57
62 50
62 52
62 53
62 54
62 55
62 57
62 58
62 59
62 60
