1 4
1 6
1 8
1 11
1 13
1 16
1 19
2 3
2 4
2 5
2 7
2 9
2 10
2 12
2 15
2 17
3 2
3 4
3 5
3 6
3 7
3 8
3 9
3 10
3 12
3 14
3 15
4 1
4 2
4 3
4 6
4 7
4 8
4 9
4 11
4 12
4 14
4 15
4 16
4 20
4 21
5 2
5 3
5 9
5 10
5 17
5 18
6 1
6 3
6 4
6 7
6 8
6 11
6 12
6 13
6 14
6 16
6 19
6 20
7 2
7 3
7 4
7 6
7 8
7 9
7 11
7 12
7 14
7 15
7 16
7 20
7 21
8 1
8 3
8 4
8 6
8 7
8 11
8 12
8 14
8 15
8 16
8 19
8 20
8 21
8 23
8 24
8 25
9 2
9 3
9 4
9 5
9 7
9 10
9 12
9 14
9 15
9 17
9 18
9 21
9 22
10 2
10 3
10 5
10 9
10 15
10 17
10 18
10 22
10 26
11 1
11 4
11 6
11 7
11 8
11 12
11 13
11 14
11 16
11 19
11 20
11 23
11 25
11 27
12 2
12 3
12 4
12 6
12 7
12 8
12 9
12 11
12 14
12 15
12 16
12 17
12 20
12 21
12 22
12 24
12 28
12 29
13 1
13 6
13 11
13 16
13 19
13 23
13 25
13 27
14 3
14 4
14 6
14 7
14 8
14 9
14 11
14 12
14 15
14 16
14 17
14 20
14 21
14 22
14 23
14 24
14 25
14 28
14 29
15 2
15 3
15 4
15 7
15 8
15 9
15 10
15 12
15 14
15 16
15 17
15 20
15 21
15 22
15 24
15 28
15 29
15 30
16 1
16 4
16 6
16 7
16 8
16 11
16 12
16 13
16 14
16 15
16 19
16 20
16 21
16 23
16 24
16 25
16 27
16 29
16 31
17 2
17 5
17 9
17 10
17 12
17 14
17 15
17 18
17 21
17 22
17 26
17 28
17 30
17 32
18 5
18 9
18 10
18 17
18 22
18 26
18 30
18 32
19 1
19 6
19 8
19 11
19 13
19 16
19 20
19 23
19 24
19 25
19 27
19 31
19 33
20 4
20 6
20 7
20 8
20 11
20 12
20 14
20 15
20 16
20 19
20 21
20 22
20 23
20 24
20 25
20 28
20 29
20 31
20 34
21 4
21 7
21 8
21 9
21 12
21 14
21 15
21 16
21 17
21 20
21 22
21 24
21 25
21 28
21 29
21 30
21 31
21 34
21 37
22 9
22 10
22 12
22 14
22 15
22 17
22 18
22 20
22 21
22 24
22 26
22 28
22 29
22 30
22 32
22 34
22 35
22 37
23 8
23 11
23 13
23 14
23 16
23 19
23 20
23 24
23 25
23 27
23 29
23 31
23 33
23 38
23 39
24 8
24 12
24 14
24 15
24 16
24 19
24 20
24 21
24 22
24 23
24 25
24 28
24 29
24 30
24 31
24 33
24 34
24 37
24 38
25 8
25 11
25 13
25 14
25 16
25 19
25 20
25 21
25 23
25 24
25 27
25 29
25 31
25 33
25 34
25 38
25 39
26 10
26 17
26 18
26 22
26 28
26 30
26 32
26 35
26 36
26 41
27 11
27 13
27 16
27 19
27 23
27 25
27 31
27 33
27 39
28 12
28 14
28 15
28 17
28 20
28 21
28 22
28 24
28 26
28 29
28 30
28 31
28 32
28 34
28 35
28 37
28 40
28 42
29 12
29 14
29 15
29 16
29 20
29 21
29 22
29 23
29 24
29 25
29 28
29 30
29 31
29 33
29 34
29 35
29 37
29 38
29 40
29 42
29 43
30 15
30 17
30 18
30 21
30 22
30 24
30 26
30 28
30 29
30 32
30 34
30 35
30 36
30 37
30 41
30 42
31 16
31 19
31 20
31 21
31 23
31 24
31 25
31 27
31 28
31 29
31 33
31 34
31 37
31 38
31 39
31 40
31 43
32 17
32 18
32 22
32 26
32 28
32 30
32 35
32 36
32 41
32 42
32 48
33 19
33 23
33 24
33 25
33 27
33 29
33 31
33 38
33 39
33 43
33 45
33 47
34 20
34 21
34 22
34 24
34 25
34 28
34 29
34 30
34 31
34 35
34 37
34 38
34 40
34 42
34 43
34 44
34 46
35 22
35 26
35 28
35 29
35 30
35 32
35 34
35 36
35 37
35 40
35 41
35 42
35 44
35 48
35 50
36 26
36 30
36 32
36 35
36 41
36 42
36 48
36 50
37 21
37 22
37 24
37 28
37 29
37 30
37 31
37 34
37 35
37 38
37 40
37 41
37 42
37 43
37 44
37 46
37 50
37 51
38 23
38 24
38 25
38 29
38 31
38 33
38 34
38 37
38 39
38 40
38 42
38 43
38 44
38 45
38 46
38 47
38 52
39 23
39 25
39 27
39 31
39 33
39 38
39 40
39 43
39 45
39 46
39 47
39 49
39 52
39 53
40 28
40 29
40 31
40 34
40 35
40 37
40 38
40 39
40 42
40 43
40 44
40 46
40 47
40 50
40 51
40 55
41 26
41 30
41 32
41 35
41 36
41 37
41 42
41 44
41 48
41 50
41 54
41 56
42 28
42 29
42 30
42 32
42 34
42 35
42 36
42 37
42 38
42 40
42 41
42 44
42 46
42 48
42 50
42 51
42 55
43 29
43 31
43 33
43 34
43 37
43 38
43 39
43 40
43 44
43 45
43 46
43 47
43 49
43 51
43 52
43 53
43 57
43 58
44 34
44 35
44 37
44 38
44 40
44 41
44 42
44 43
44 46
44 47
44 50
44 51
44 55
44 57
44 59
45 33
45 38
45 39
45 43
45 46
45 47
45 49
45 52
45 53
45 58
45 61
46 34
46 37
46 38
46 39
46 40
46 42
46 43
46 44
46 45
46 47
46 51
46 52
46 55
46 57
46 58
46 59
46 62
47 33
47 38
47 39
47 40
47 43
47 44
47 45
47 46
47 49
47 51
47 52
47 53
47 57
47 58
47 61
47 62
48 32
48 35
48 36
48 41
48 42
48 50
48 54
48 55
48 56
48 60
49 39
49 43
49 45
49 47
49 52
49 53
49 58
49 61
50 35
50 36
50 37
50 40
50 41
50 42
50 44
50 48
50 51
50 54
50 55
50 56
50 60
51 37
51 40
51 42
51 43
51 44
51 46
51 47
51 50
51 52
51 55
51 56
51 57
51 59
51 60
51 62
52 38
52 39
52 43
52 45
52 46
52 47
52 49
52 51
52 53
52 57
52 58
52 59
52 61
52 62
53 39
53 43
53 45
53 47
53 49
53 52
53 57
53 58
53 61
53 62
54 41
54 48
54 50
54 55
54 56
54 60
55 40
55 42
55 44
55 46
55 48
55 50
55 51
55 54
55 56
55 57
55 59
55 60
55 62
56 41
56 48
56 50
56 51
56 54
56 55
56 59
56 60
57 43
57 44
57 46
57 47
57 51
57 52
57 53
57 55
57 58
57 59
57 61
57 62
58 43
58 45
58 46
58 47
58 49
58 52
58 53
58 57
58 59
58 61
58 62
59 44
59 46
59 51
59 52
59 55
59 56
59 57
59 58
59 60
59 62
60 48
60 50
60 51
60 54
60 55
60 56
60 59
61 45
61 47
61 49
61 52
61 53
61 57
61 58
61 62
62 46
62 47
62 51
62 52
62 53
62 55
62 57
62 58
62 59
62 61
