1 6
1 11
1 13
2 3
2 5
2 9
2 10
3 2
3 4
3 7
3 9
3 12
4 3
4 6
4 7
4 8
4 12
4 14
5 2
5 9
5 10
6 1
6 4
6 7
6 8
6 11
6 16
7 3
7 4
7 6
7 8
7 9
7 12
7 14
7 15
8 4
8 6
8 7
8 11
8 12
8 14
8 16
8 20
9 2
9 3
9 5
9 7
9 10
9 12
9 15
9 17
9 21
9 22
10 2
10 5
10 9
10 17
10 18
11 1
11 6
11 8
11 13
11 16
11 19
11 20
11 23
12 3
12 4
12 7
12 8
12 9
12 14
12 15
12 16
12 20
12 21
13 1
13 11
13 19
14 4
14 7
14 8
14 12
14 15
14 16
14 20
14 21
14 24
15 7
15 9
15 12
15 14
15 17
15 20
15 21
15 22
15 24
15 28
16 6
16 8
16 11
16 12
16 14
16 19
16 20
16 23
16 24
16 25
17 9
17 10
17 15
17 18
17 21
17 22
17 26
17 30
18 10
18 17
18 26
19 11
19 13
19 16
19 23
19 25
19 27
20 8
20 11
20 12
20 14
20 15
20 16
20 21
20 23
20 24
20 25
20 29
20 31
21 9
21 12
21 14
21 15
21 17
21 20
21 22
21 24
21 28
21 29
22 9
22 15
22 17
22 21
22 26
22 28
22 30
22 35
23 11
23 16
23 19
23 20
23 24
23 25
23 27
23 31
23 33
24 14
24 15
24 16
24 20
24 21
24 23
24 25
24 28
24 29
24 31
24 34
25 16
25 19
25 20
25 23
25 24
25 27
25 29
25 31
25 33
26 17
26 18
26 22
26 30
26 32
26 35
26 36
27 19
27 23
27 25
27 33
28 15
28 21
28 22
28 24
28 29
28 30
28 34
28 35
28 37
29 20
29 21
29 24
29 25
29 28
29 31
29 34
29 37
29 38
30 17
30 22
30 26
30 28
30 32
30 34
30 35
30 36
30 37
31 20
31 23
31 24
31 25
31 29
31 33
31 34
31 38
31 39
31 40
31 43
32 26
32 30
32 35
32 36
32 41
33 23
33 25
33 27
33 31
33 38
33 39
33 43
34 24
34 28
34 29
34 30
34 31
34 35
34 37
34 38
34 40
34 42
34 44
35 22
35 26
35 28
35 30
35 32
35 34
35 36
35 37
35 41
35 42
36 26
36 30
36 32
36 35
36 41
36 48
37 28
37 29
37 30
37 34
37 35
37 38
37 40
37 42
37 44
38 29
38 31
38 33
38 34
38 37
38 39
38 40
38 43
38 44
38 45
38 46
38 47
39 31
39 33
39 38
39 43
39 45
39 47
39 49
40 31
40 34
40 37
40 38
40 42
40 43
40 44
40 46
40 47
40 51
41 32
41 35
41 36
41 42
41 48
41 50
42 34
42 35
42 37
42 40
42 41
42 44
42 50
42 51
43 31
43 33
43 38
43 39
43 40
43 44
43 45
43 46
43 47
43 52
44 34
44 37
44 38
44 40
44 42
44 43
44 46
44 50
44 51
44 55
45 38
45 39
45 43
45 47
45 49
45 52
45 53
46 38
46 40
46 43
46 44
46 47
46 51
46 52
46 57
47 38
47 39
47 40
47 43
47 45
47 46
47 49
47 52
47 53
47 57
47 58
48 36
48 41
48 50
48 54
48 56
49 39
49 45
49 47
49 52
49 53
50 41
50 42
50 44
50 48
50 51
50 54
50 55
50 56
50 60
51 40
51 42
51 44
51 46
51 50
51 55
51 57
51 59
52 43
52 45
52 46
52 47
52 49
52 53
52 57
52 58
52 61
52 62
53 45
53 47
53 49
53 52
53 58
53 61
54 48
54 50
54 56
54 60
55 44
55 50
55 51
55 56
55 59
55 60
56 48
56 50
56 54
56 55
56 60
57 46
57 47
57 51
57 52
57 58
57 59
57 62
58 47
58 52
58 53
58 57
58 61
58 62
59 51
59 55
59 57
59 62
60 50
60 54
60 55
60 56
61 52
61 53
61 58
61 62
62 52
62 57
62 58
62 59
62 61
