1 3
1 4
1 6
1 7
1 8
1 9
1 11
1 13
1 14
2 3
2 5
2 6
2 8
2 10
2 12
2 15
3 1
3 2
3 5
3 6
3 7
3 8
3 9
3 10
3 13
3 17
3 19
4 1
4 7
4 9
4 11
4 14
4 16
4 20
5 2
5 3
5 6
5 8
5 10
5 12
5 15
5 17
5 21
5 22
6 1
6 2
6 3
6 5
6 7
6 8
6 9
6 10
6 13
6 14
6 17
6 18
6 19
6 23
7 1
7 3
7 4
7 6
7 8
7 9
7 11
7 13
7 14
7 16
7 17
7 18
7 19
7 23
7 24
7 25
8 1
8 2
8 3
8 5
8 6
8 7
8 9
8 10
8 12
8 13
8 17
8 18
8 19
8 23
8 26
9 1
9 3
9 4
9 6
9 7
9 8
9 11
9 13
9 14
9 16
9 18
9 19
9 20
9 24
9 25
9 28
10 2
10 3
10 5
10 6
10 8
10 12
10 13
10 15
10 17
10 19
10 21
10 22
10 23
10 26
11 1
11 4
11 7
11 9
11 13
11 14
11 16
11 18
11 20
11 24
11 28
12 2
12 5
12 8
12 10
12 15
12 17
12 21
12 22
12 26
13 1
13 3
13 6
13 7
13 8
13 9
13 10
13 11
13 14
13 17
13 18
13 19
13 23
13 24
13 25
13 26
13 27
14 1
14 4
14 6
14 7
14 9
14 11
14 13
14 16
14 18
14 19
14 20
14 23
14 24
14 25
14 27
14 28
15 2
15 5
15 10
15 12
15 17
15 21
15 22
15 30
16 4
16 7
16 9
16 11
16 14
16 18
16 20
16 24
16 25
16 28
16 31
17 3
17 5
17 6
17 7
17 8
17 10
17 12
17 13
17 15
17 18
17 19
17 21
17 22
17 23
17 25
17 26
17 27
17 29
17 32
18 6
18 7
18 8
18 9
18 11
18 13
18 14
18 16
18 17
18 19
18 20
18 23
18 24
18 25
18 27
18 28
18 33
18 34
19 3
19 6
19 7
19 8
19 9
19 10
19 13
19 14
19 17
19 18
19 23
19 24
19 25
19 26
19 27
19 28
19 32
19 33
19 34
19 36
20 4
20 9
20 11
20 14
20 16
20 18
20 24
20 25
20 28
20 31
20 34
21 5
21 10
21 12
21 15
21 17
21 22
21 26
21 29
21 30
21 35
21 38
22 5
22 10
22 12
22 15
22 17
22 21
22 23
22 26
22 27
22 29
22 30
22 32
22 35
22 37
23 6
23 7
23 8
23 10
23 13
23 14
23 17
23 18
23 19
23 22
23 24
23 25
23 26
23 27
23 29
23 32
23 33
23 36
23 37
24 7
24 9
24 11
24 13
24 14
24 16
24 18
24 19
24 20
24 23
24 25
24 27
24 28
24 31
24 33
24 34
24 39
24 40
25 7
25 9
25 13
25 14
25 16
25 17
25 18
25 19
25 20
25 23
25 24
25 26
25 27
25 28
25 31
25 32
25 33
25 34
25 36
25 39
25 40
26 8
26 10
26 12
26 13
26 17
26 19
26 21
26 22
26 23
26 25
26 27
26 29
26 30
26 32
26 33
26 35
26 36
26 37
27 13
27 14
27 17
27 18
27 19
27 22
27 23
27 24
27 25
27 26
27 28
27 29
27 32
27 33
27 34
27 36
27 37
27 40
27 42
28 9
28 11
28 14
28 16
28 18
28 19
28 20
28 24
28 25
28 27
28 31
28 33
28 34
28 39
28 40
29 17
29 21
29 22
29 23
29 26
29 27
29 30
29 32
29 35
29 36
29 37
29 38
29 41
29 42
29 43
30 15
30 21
30 22
30 26
30 29
30 32
30 35
30 37
30 38
30 41
31 16
31 20
31 24
31 25
31 28
31 33
31 34
31 39
31 40
31 44
31 45
32 17
32 19
32 22
32 23
32 25
32 26
32 27
32 29
32 30
32 33
32 35
32 36
32 37
32 40
32 41
32 42
32 43
32 47
33 18
33 19
33 23
33 24
33 25
33 26
33 27
33 28
33 31
33 32
33 34
33 36
33 37
33 39
33 40
33 42
33 44
33 46
33 47
34 18
34 19
34 20
34 24
34 25
34 27
34 28
34 31
34 33
34 36
34 39
34 40
34 42
34 44
34 45
34 46
35 21
35 22
35 26
35 29
35 30
35 32
35 37
35 38
35 41
35 43
35 48
36 19
36 23
36 25
36 26
36 27
36 29
36 32
36 33
36 34
36 37
36 40
36 42
36 43
36 44
36 46
36 47
36 50
37 22
37 23
37 26
37 27
37 29
37 30
37 32
37 33
37 35
37 36
37 38
37 40
37 41
37 42
37 43
37 46
37 47
37 48
37 50
37 51
38 21
38 29
38 30
38 35
38 37
38 41
38 43
38 48
38 54
39 24
39 25
39 28
39 31
39 33
39 34
39 40
39 44
39 45
39 46
39 49
39 53
40 24
40 25
40 27
40 28
40 31
40 32
40 33
40 34
40 36
40 37
40 39
40 42
40 44
40 45
40 46
40 47
40 49
40 50
40 52
41 29
41 30
41 32
41 35
41 37
41 38
41 42
41 43
41 48
41 50
41 51
41 54
42 27
42 29
42 32
42 33
42 34
42 36
42 37
42 40
42 41
42 43
42 44
42 46
42 47
42 49
42 50
42 51
42 52
43 29
43 32
43 35
43 36
43 37
43 38
43 41
43 42
43 46
43 47
43 48
43 50
43 51
43 54
43 55
43 57
44 31
44 33
44 34
44 36
44 39
44 40
44 42
44 45
44 46
44 47
44 49
44 50
44 52
44 53
44 56
44 58
44 59
45 31
45 34
45 39
45 40
45 44
45 46
45 49
45 52
45 53
45 56
45 59
46 33
46 34
46 36
46 37
46 39
46 40
46 42
46 43
46 44
46 45
46 47
46 49
46 50
46 52
46 53
46 55
46 56
46 57
46 58
46 59
47 32
47 33
47 36
47 37
47 40
47 42
47 43
47 44
47 46
47 49
47 50
47 51
47 52
47 55
47 57
47 58
48 35
48 37
48 38
48 41
48 43
48 50
48 51
48 54
48 55
49 39
49 40
49 42
49 44
49 45
49 46
49 47
49 50
49 52
49 53
49 56
49 57
49 58
49 59
50 36
50 37
50 40
50 41
50 42
50 43
50 44
50 46
50 47
50 48
50 49
50 51
50 52
50 54
50 55
50 57
50 58
51 37
51 41
51 42
51 43
51 47
51 48
51 50
51 54
51 55
51 57
52 40
52 42
52 44
52 45
52 46
52 47
52 49
52 50
52 53
52 55
52 56
52 57
52 58
52 59
53 39
53 44
53 45
53 46
53 49
53 52
53 56
53 58
53 59
54 38
54 41
54 43
54 48
54 50
54 51
54 55
54 57
55 43
55 46
55 47
55 48
55 50
55 51
55 52
55 54
55 57
55 58
56 44
56 45
56 46
56 49
56 52
56 53
56 57
56 58
56 59
57 43
57 46
57 47
57 49
57 50
57 51
57 52
57 54
57 55
57 56
57 58
57 59
58 44
58 46
58 47
58 49
58 50
58 52
58 53
58 55
58 56
58 57
58 59
59 44
59 45
59 46
59 49
59 52
59 53
59 56
59 57
59 58
