1 2
1 3
1 4
1 7
1 8
1 9
1 10
1 13
1 14
1 15
1 17
1 20
1 21
1 22
2 1
2 3
2 4
2 5
2 9
2 10
2 12
2 13
2 14
2 17
2 18
2 20
2 23
3 1
3 2
3 4
3 7
3 8
3 9
3 10
3 13
3 15
3 16
3 17
3 21
3 22
4 1
4 2
4 3
4 8
4 9
4 10
4 12
4 13
4 14
4 17
4 20
4 21
4 22
5 2
5 6
5 10
5 11
5 12
5 14
5 18
5 19
5 20
6 5
6 11
6 12
6 18
6 19
7 1
7 3
7 8
7 9
7 13
7 15
7 16
7 24
8 1
8 3
8 4
8 7
8 9
8 13
8 15
8 16
8 17
8 21
8 22
8 26
9 1
9 2
9 3
9 4
9 7
9 8
9 10
9 12
9 13
9 14
9 15
9 17
9 20
9 21
9 22
9 25
9 28
10 1
10 2
10 3
10 4
10 5
10 9
10 12
10 13
10 14
10 17
10 18
10 20
10 21
10 22
10 23
10 25
11 5
11 6
11 12
11 18
11 19
11 20
11 27
11 29
12 2
12 4
12 5
12 6
12 9
12 10
12 11
12 14
12 18
12 19
12 20
12 23
12 25
12 27
12 29
12 30
13 1
13 2
13 3
13 4
13 7
13 8
13 9
13 10
13 14
13 15
13 16
13 17
13 21
13 22
13 25
13 26
13 28
14 1
14 2
14 4
14 5
14 9
14 10
14 12
14 13
14 17
14 18
14 19
14 20
14 21
14 22
14 23
14 25
14 28
14 29
14 30
14 31
14 35
15 1
15 3
15 7
15 8
15 9
15 13
15 16
15 17
15 21
15 22
15 24
15 26
15 28
15 32
15 33
15 34
16 3
16 7
16 8
16 13
16 15
16 21
16 24
16 26
16 32
16 33
17 1
17 2
17 3
17 4
17 8
17 9
17 10
17 13
17 14
17 15
17 20
17 21
17 22
17 23
17 25
17 26
17 28
17 31
17 34
18 2
18 5
18 6
18 10
18 11
18 12
18 14
18 19
18 20
18 23
18 25
18 27
18 29
18 30
18 36
18 37
19 5
19 6
19 11
19 12
19 14
19 18
19 20
19 23
19 27
19 29
19 30
19 36
20 1
20 2
20 4
20 5
20 9
20 10
20 11
20 12
20 14
20 17
20 18
20 19
20 21
20 22
20 23
20 25
20 28
20 29
20 30
20 31
20 35
20 37
21 1
21 3
21 4
21 8
21 9
21 10
21 13
21 14
21 15
21 16
21 17
21 20
21 22
21 25
21 26
21 28
21 31
21 33
21 34
21 38
22 1
22 3
22 4
22 8
22 9
22 10
22 13
22 14
22 15
22 17
22 20
22 21
22 23
22 25
22 26
22 28
22 31
22 33
22 34
22 35
22 38
22 40
23 2
23 10
23 12
23 14
23 17
23 18
23 19
23 20
23 22
23 25
23 27
23 28
23 29
23 30
23 31
23 35
23 36
23 37
23 38
23 41
24 7
24 15
24 16
24 26
24 32
24 33
24 39
24 42
25 9
25 10
25 12
25 13
25 14
25 17
25 18
25 20
25 21
25 22
25 23
25 26
25 28
25 29
25 30
25 31
25 34
25 35
25 37
25 38
25 44
26 8
26 13
26 15
26 16
26 17
26 21
26 22
26 24
26 25
26 28
26 31
26 32
26 33
26 34
26 39
26 40
26 42
27 11
27 12
27 18
27 19
27 23
27 29
27 30
27 36
27 37
27 41
27 43
27 45
28 9
28 13
28 14
28 15
28 17
28 20
28 21
28 22
28 23
28 25
28 26
28 31
28 33
28 34
28 35
28 38
28 40
28 44
28 46
29 11
29 12
29 14
29 18
29 19
29 20
29 23
29 25
29 27
29 30
29 35
29 36
29 37
29 41
29 43
29 45
30 12
30 14
30 18
30 19
30 20
30 23
30 25
30 27
30 29
30 31
30 35
30 36
30 37
30 38
30 41
30 43
30 45
30 47
31 14
31 17
31 20
31 21
31 22
31 23
31 25
31 26
31 28
31 30
31 33
31 34
31 35
31 37
31 38
31 40
31 41
31 44
31 46
31 47
31 48
31 50
32 15
32 16
32 24
32 26
32 33
32 34
32 39
32 40
32 42
32 48
32 49
33 15
33 16
33 21
33 22
33 24
33 26
33 28
33 31
33 32
33 34
33 38
33 39
33 40
33 42
33 46
33 48
33 49
33 52
34 15
34 17
34 21
34 22
34 25
34 26
34 28
34 31
34 32
34 33
34 35
34 38
34 39
34 40
34 42
34 44
34 46
34 48
34 49
34 50
35 14
35 20
35 22
35 23
35 25
35 28
35 29
35 30
35 31
35 34
35 36
35 37
35 38
35 41
35 44
35 45
35 46
35 47
35 50
35 53
35 54
36 18
36 19
36 23
36 27
36 29
36 30
36 35
36 37
36 41
36 43
36 45
36 47
36 51
37 18
37 20
37 23
37 25
37 27
37 29
37 30
37 31
37 35
37 36
37 38
37 41
37 43
37 44
37 45
37 47
37 50
37 51
37 53
37 58
38 21
38 22
38 23
38 25
38 28
38 30
38 31
38 33
38 34
38 35
38 37
38 40
38 41
38 44
38 46
38 47
38 48
38 50
38 53
38 54
39 24
39 26
39 32
39 33
39 34
39 40
39 42
39 48
39 49
39 52
39 55
40 22
40 26
40 28
40 31
40 32
40 33
40 34
40 38
40 39
40 42
40 44
40 46
40 48
40 49
40 50
40 52
40 54
40 55
40 56
41 23
41 27
41 29
41 30
41 31
41 35
41 36
41 37
41 38
41 43
41 44
41 45
41 47
41 50
41 51
41 53
41 54
41 58
42 24
42 26
42 32
42 33
42 34
42 39
42 40
42 46
42 48
42 49
42 52
42 55
42 56
42 60
43 27
43 29
43 30
43 36
43 37
43 41
43 45
43 47
43 51
43 53
43 57
43 58
43 62
44 25
44 28
44 31
44 34
44 35
44 37
44 38
44 40
44 41
44 46
44 47
44 48
44 50
44 52
44 53
44 54
44 56
44 59
44 61
45 27
45 29
45 30
45 35
45 36
45 37
45 41
45 43
45 47
45 50
45 51
45 53
45 57
45 58
45 62
46 28
46 31
46 33
46 34
46 35
46 38
46 40
46 42
46 44
46 47
46 48
46 49
46 50
46 52
46 53
46 54
46 56
46 59
47 30
47 31
47 35
47 36
47 37
47 38
47 41
47 43
47 44
47 45
47 46
47 50
47 51
47 53
47 54
47 58
47 59
47 61
47 62
47 63
48 31
48 32
48 33
48 34
48 38
48 39
48 40
48 42
48 44
48 46
48 49
48 50
48 52
48 54
48 55
48 56
48 59
48 60
48 64
48 65
49 32
49 33
49 34
49 39
49 40
49 42
49 46
49 48
49 52
49 55
49 56
49 60
49 64
49 68
50 31
50 34
50 35
50 37
50 38
50 40
50 41
50 44
50 45
50 46
50 47
50 48
50 51
50 53
50 54
50 56
50 58
50 59
50 61
50 63
50 67
51 36
51 37
51 41
51 43
51 45
51 47
51 50
51 53
51 54
51 57
51 58
51 61
51 62
51 63
51 66
51 70
51 71
51 73
52 33
52 39
52 40
52 42
52 44
52 46
52 48
52 49
52 54
52 55
52 56
52 59
52 60
52 64
52 65
52 68
52 69
52 72
53 35
53 37
53 38
53 41
53 43
53 44
53 45
53 46
53 47
53 50
53 51
53 54
53 56
53 57
53 58
53 59
53 61
53 62
53 63
53 67
53 70
53 71
54 35
54 38
54 40
54 41
54 44
54 46
54 47
54 48
54 50
54 51
54 52
54 53
54 56
54 58
54 59
54 61
54 63
54 65
54 67
54 69
54 71
54 74
55 39
55 40
55 42
55 48
55 49
55 52
55 56
55 60
55 64
55 68
56 40
56 42
56 44
56 46
56 48
56 49
56 50
56 52
56 53
56 54
56 55
56 59
56 60
56 61
56 63
56 64
56 65
56 67
56 69
56 72
56 74
56 75
57 43
57 45
57 51
57 53
57 58
57 62
57 66
57 70
57 73
58 37
58 41
58 43
58 45
58 47
58 50
58 51
58 53
58 54
58 57
58 59
58 61
58 62
58 63
58 66
58 67
58 70
58 71
58 73
58 76
59 44
59 46
59 47
59 48
59 50
59 52
59 53
59 54
59 56
59 58
59 61
59 63
59 64
59 65
59 67
59 69
59 71
59 74
59 75
59 77
60 42
60 48
60 49
60 52
60 55
60 56
60 64
60 65
60 68
60 69
60 72
60 75
60 81
61 44
61 47
61 50
61 51
61 53
61 54
61 56
61 58
61 59
61 62
61 63
61 65
61 67
61 70
61 71
61 74
61 76
61 77
62 43
62 45
62 47
62 51
62 53
62 57
62 58
62 61
62 63
62 66
62 70
62 71
62 73
62 76
62 78
63 47
63 50
63 51
63 53
63 54
63 56
63 58
63 59
63 61
63 62
63 65
63 67
63 69
63 70
63 71
63 73
63 74
63 76
63 77
63 78
63 82
63 83
64 48
64 49
64 52
64 55
64 56
64 59
64 60
64 65
64 67
64 68
64 69
64 72
64 74
64 75
64 79
64 80
64 81
64 84
65 48
65 52
65 54
65 56
65 59
65 60
65 61
65 63
65 64
65 67
65 68
65 69
65 71
65 72
65 74
65 75
65 77
65 80
65 81
65 82
66 51
66 57
66 58
66 62
66 70
66 71
66 73
66 76
66 78
66 83
67 50
67 53
67 54
67 56
67 58
67 59
67 61
67 63
67 64
67 65
67 69
67 70
67 71
67 72
67 74
67 75
67 76
67 77
67 80
67 82
68 49
68 52
68 55
68 60
68 64
68 65
68 69
68 72
68 75
68 79
68 80
68 81
68 84
69 52
69 54
69 56
69 59
69 60
69 63
69 64
69 65
69 67
69 68
69 72
69 74
69 75
69 77
69 79
69 80
69 81
69 82
70 51
70 53
70 57
70 58
70 61
70 62
70 63
70 66
70 67
70 71
70 73
70 76
70 77
70 78
70 83
71 51
71 53
71 54
71 58
71 59
71 61
71 62
71 63
71 65
71 66
71 67
71 70
71 73
71 74
71 76
71 77
71 78
71 82
71 83
72 52
72 56
72 60
72 64
72 65
72 67
72 68
72 69
72 74
72 75
72 79
72 80
72 81
72 82
72 84
73 51
73 57
73 58
73 62
73 63
73 66
73 70
73 71
73 76
73 78
73 83
74 54
74 56
74 59
74 61
74 63
74 64
74 65
74 67
74 69
74 71
74 72
74 75
74 76
74 77
74 80
74 82
75 56
75 59
75 60
75 64
75 65
75 67
75 68
75 69
75 72
75 74
75 77
75 79
75 80
75 81
75 82
75 84
76 58
76 61
76 62
76 63
76 66
76 67
76 70
76 71
76 73
76 74
76 77
76 78
76 82
76 83
77 59
77 61
77 63
77 65
77 67
77 69
77 70
77 71
77 74
77 75
77 76
77 80
77 82
77 83
78 62
78 63
78 66
78 70
78 71
78 73
78 76
78 83
79 64
79 68
79 69
79 72
79 75
79 80
79 81
79 84
80 64
80 65
80 67
80 68
80 69
80 72
80 74
80 75
80 77
80 79
80 81
80 82
80 84
81 60
81 64
81 65
81 68
81 69
81 72
81 75
81 79
81 80
81 82
81 84
82 63
82 65
82 67
82 69
82 71
82 72
82 74
82 75
82 76
82 77
82 80
82 81
83 63
83 66
83 70
83 71
83 73
83 76
83 77
83 78
84 64
84 68
84 72
84 75
84 79
84 80
84 81
