1 2
1 4
1 6
1 10
1 13
2 1
2 3
2 6
2 9
2 10
2 15
3 2
3 7
3 9
3 10
3 14
4 1
4 6
4 13
5 7
5 8
5 11
5 12
6 1
6 2
6 4
6 10
6 13
6 16
7 3
7 5
7 9
7 11
7 12
7 14
8 5
8 11
8 12
9 2
9 3
9 7
9 10
9 11
9 14
9 15
9 17
9 19
10 1
10 2
10 3
10 6
10 9
10 13
10 15
10 18
11 5
11 7
11 8
11 9
11 12
11 14
11 19
12 5
12 7
12 8
12 11
12 21
13 1
13 4
13 6
13 10
13 15
13 16
13 18
13 20
13 22
14 3
14 7
14 9
14 11
14 15
14 17
14 19
14 24
15 2
15 9
15 10
15 13
15 14
15 17
15 18
15 22
15 23
16 6
16 13
16 18
16 20
16 22
16 27
17 9
17 14
17 15
17 18
17 19
17 23
17 24
17 25
18 10
18 13
18 15
18 16
18 17
18 22
18 23
19 9
19 11
19 14
19 17
19 21
19 24
19 25
19 28
20 13
20 16
20 27
21 12
21 19
21 25
21 26
21 28
22 13
22 15
22 16
22 18
22 23
22 29
22 30
23 15
23 17
23 18
23 22
23 24
23 30
23 31
24 14
24 17
24 19
24 23
24 25
24 28
24 30
24 31
25 17
25 19
25 21
25 24
25 26
25 28
25 31
25 35
26 21
26 25
26 28
26 32
26 36
27 16
27 20
27 29
27 33
27 37
28 19
28 21
28 24
28 25
28 26
28 31
28 32
28 35
28 36
29 22
29 27
29 30
29 33
29 38
29 39
30 22
30 23
30 24
30 29
30 31
30 34
30 39
30 40
31 23
31 24
31 25
31 28
31 30
31 34
31 35
31 40
31 41
32 26
32 28
32 35
32 36
32 42
33 27
33 29
33 37
33 38
33 39
33 44
34 30
34 31
34 38
34 39
34 40
34 43
34 45
35 25
35 28
35 31
35 32
35 36
35 40
35 41
35 42
35 46
36 26
36 28
36 32
36 35
36 41
36 42
36 48
37 27
37 33
37 38
37 44
38 29
38 33
38 34
38 37
38 39
38 43
38 44
38 47
39 29
39 30
39 33
39 34
39 38
39 43
39 44
39 47
40 30
40 31
40 34
40 35
40 41
40 43
40 45
40 46
40 49
41 31
41 35
41 36
41 40
41 42
41 45
41 46
41 51
41 52
42 32
42 35
42 36
42 41
42 48
42 51
43 34
43 38
43 39
43 40
43 45
43 47
43 49
43 53
44 33
44 37
44 38
44 39
44 47
44 50
45 34
45 40
45 41
45 43
45 46
45 49
45 52
45 53
46 35
46 40
46 41
46 45
46 49
46 51
46 52
46 55
47 38
47 39
47 43
47 44
47 50
47 53
47 54
47 56
48 36
48 42
48 51
48 57
48 58
49 40
49 43
49 45
49 46
49 52
49 53
49 56
49 59
50 44
50 47
50 54
50 62
51 41
51 42
51 46
51 48
51 52
51 55
51 57
51 58
51 61
52 41
52 45
52 46
52 49
52 51
52 53
52 55
52 57
52 59
52 61
53 43
53 45
53 47
53 49
53 52
53 56
53 59
53 63
54 47
54 50
54 56
54 60
54 62
54 66
55 46
55 51
55 52
55 57
55 59
55 61
55 65
56 47
56 49
56 53
56 54
56 60
56 63
56 66
57 48
57 51
57 52
57 55
57 58
57 61
57 65
57 67
58 48
58 51
58 57
58 61
58 67
59 49
59 52
59 53
59 55
59 61
59 63
59 64
59 65
60 54
60 56
60 62
60 63
60 66
60 68
61 51
61 52
61 55
61 57
61 58
61 59
61 64
61 65
61 67
62 50
62 54
62 60
62 66
62 68
63 53
63 56
63 59
63 60
63 64
63 66
64 59
64 61
64 63
64 65
65 55
65 57
65 59
65 61
65 64
65 67
66 54
66 56
66 60
66 62
66 63
66 68
67 57
67 58
67 61
67 65
68 60
68 62
68 66
