1 3
1 6
1 8
1 11
1 12
1 15
1 18
2 4
2 6
2 7
2 10
2 13
2 14
3 1
3 8
3 12
4 2
4 5
4 7
4 9
4 10
4 13
4 14
4 16
4 19
5 4
5 9
5 13
5 16
5 20
6 1
6 2
6 7
6 11
6 14
6 15
6 17
7 2
7 4
7 6
7 10
7 11
7 14
7 17
7 21
8 1
8 3
8 12
8 18
9 4
9 5
9 10
9 13
9 16
9 19
9 20
10 2
10 4
10 7
10 9
10 13
10 14
10 16
10 19
10 21
11 1
11 6
11 7
11 12
11 14
11 15
11 17
11 18
11 22
12 1
12 3
12 8
12 11
12 15
12 18
12 23
13 2
13 4
13 5
13 9
13 10
13 14
13 16
13 19
13 20
13 21
13 24
14 2
14 4
14 6
14 7
14 10
14 11
14 13
14 17
14 19
14 21
14 22
14 26
14 27
15 1
15 6
15 11
15 12
15 17
15 18
15 22
15 23
15 25
16 4
16 5
16 9
16 10
16 13
16 19
16 20
16 24
16 28
17 6
17 7
17 11
17 14
17 15
17 18
17 21
17 22
17 25
17 27
17 29
18 1
18 8
18 11
18 12
18 15
18 17
18 22
18 23
18 25
18 30
18 31
19 4
19 9
19 10
19 13
19 14
19 16
19 20
19 21
19 24
19 26
19 28
20 5
20 9
20 13
20 16
20 19
20 24
20 28
21 7
21 10
21 13
21 14
21 17
21 19
21 22
21 24
21 26
21 27
21 29
21 32
22 11
22 14
22 15
22 17
22 18
22 21
22 23
22 25
22 27
22 29
22 30
22 31
22 32
22 34
23 12
23 15
23 18
23 22
23 25
23 30
23 31
23 37
24 13
24 16
24 19
24 20
24 21
24 26
24 27
24 28
24 32
24 33
24 35
25 15
25 17
25 18
25 22
25 23
25 27
25 29
25 30
25 31
25 34
25 36
26 14
26 19
26 21
26 24
26 27
26 32
26 33
26 34
26 35
27 14
27 17
27 21
27 22
27 24
27 25
27 26
27 29
27 31
27 32
27 34
27 35
27 40
28 16
28 19
28 20
28 24
28 33
28 38
28 39
29 17
29 21
29 22
29 25
29 27
29 30
29 31
29 32
29 34
29 36
29 40
30 18
30 22
30 23
30 25
30 29
30 31
30 36
30 37
31 18
31 22
31 23
31 25
31 27
31 29
31 30
31 34
31 36
31 37
31 40
31 42
32 21
32 22
32 24
32 26
32 27
32 29
32 33
32 34
32 35
32 40
32 41
32 43
33 24
33 26
33 28
33 32
33 35
33 38
33 39
33 41
33 44
34 22
34 25
34 26
34 27
34 29
34 31
34 32
34 35
34 36
34 40
34 41
34 43
35 24
35 26
35 27
35 32
35 33
35 34
35 39
35 40
35 41
35 43
36 25
36 29
36 30
36 31
36 34
36 37
36 40
36 42
36 48
36 49
37 23
37 30
37 31
37 36
37 42
37 45
37 49
38 28
38 33
38 39
38 44
38 46
38 47
39 28
39 33
39 35
39 38
39 41
39 44
39 46
39 47
40 27
40 29
40 31
40 32
40 34
40 35
40 36
40 41
40 42
40 43
40 48
40 51
41 32
41 33
41 34
41 35
41 39
41 40
41 43
41 44
41 47
41 50
42 31
42 36
42 37
42 40
42 45
42 48
42 49
42 52
43 32
43 34
43 35
43 40
43 41
43 47
43 48
43 50
43 51
43 57
44 33
44 38
44 39
44 41
44 46
44 47
44 50
44 53
45 37
45 42
45 49
45 52
45 56
46 38
46 39
46 44
46 47
46 53
46 54
47 38
47 39
47 41
47 43
47 44
47 46
47 50
47 53
47 55
47 60
48 36
48 40
48 42
48 43
48 49
48 51
48 52
48 56
48 57
48 58
48 59
49 36
49 37
49 42
49 45
49 48
49 52
49 56
49 58
49 59
50 41
50 43
50 44
50 47
50 51
50 53
50 55
50 57
50 60
51 40
51 43
51 48
51 50
51 55
51 57
51 59
52 42
52 45
52 48
52 49
52 56
52 58
52 63
53 44
53 46
53 47
53 50
53 54
53 55
53 60
53 61
53 64
54 46
54 53
54 60
54 61
54 64
54 68
55 47
55 50
55 51
55 53
55 57
55 60
55 62
55 64
55 67
56 45
56 48
56 49
56 52
56 58
56 59
56 63
56 65
56 69
57 43
57 48
57 50
57 51
57 55
57 59
57 62
57 66
57 70
58 48
58 49
58 52
58 56
58 59
58 63
58 65
58 69
59 48
59 49
59 51
59 56
59 57
59 58
59 65
59 66
59 69
59 72
60 47
60 50
60 53
60 54
60 55
60 61
60 62
60 64
60 67
61 53
61 54
61 60
61 64
61 68
61 73
61 74
62 55
62 57
62 60
62 64
62 66
62 67
62 70
62 71
62 75
63 52
63 56
63 58
63 65
63 69
64 53
64 54
64 55
64 60
64 61
64 62
64 67
64 68
64 71
64 73
64 74
65 56
65 58
65 59
65 63
65 66
65 69
65 72
65 76
66 57
66 59
66 62
66 65
66 70
66 72
66 75
67 55
67 60
67 62
67 64
67 70
67 71
67 74
67 75
68 54
68 61
68 64
68 73
68 74
69 56
69 58
69 59
69 63
69 65
69 72
69 76
70 57
70 62
70 66
70 67
70 71
70 72
70 75
71 62
71 64
71 67
71 70
71 74
71 75
72 59
72 65
72 66
72 69
72 70
72 75
72 76
73 61
73 64
73 68
73 74
74 61
74 64
74 67
74 68
74 71
74 73
75 62
75 66
75 67
75 70
75 71
75 72
76 65
76 69
76 72
