1 4
1 5
1 8
1 9
1 12
2 4
2 7
2 8
2 13
3 6
3 10
3 11
3 16
4 1
4 2
4 5
4 8
4 9
4 12
4 15
4 18
5 1
5 4
5 6
5 9
5 12
5 15
5 17
6 3
6 5
6 9
6 10
6 11
6 16
6 17
7 2
7 8
7 13
7 14
7 19
7 20
8 1
8 2
8 4
8 7
8 12
8 13
8 18
8 19
9 1
9 4
9 5
9 6
9 11
9 12
9 15
9 17
10 3
10 6
10 11
10 16
10 21
11 3
11 6
11 9
11 10
11 16
11 17
11 21
12 1
12 4
12 5
12 8
12 9
12 13
12 15
12 18
12 22
13 2
13 7
13 8
13 12
13 14
13 18
13 19
13 20
13 23
14 7
14 13
14 19
14 20
14 23
15 4
15 5
15 9
15 12
15 17
15 18
15 22
16 3
16 6
16 10
16 11
16 17
16 21
16 24
16 28
17 5
17 6
17 9
17 11
17 15
17 16
17 21
17 24
17 26
18 4
18 8
18 12
18 13
18 15
18 19
18 22
18 25
18 29
19 7
19 8
19 13
19 14
19 18
19 20
19 23
19 25
19 27
20 7
20 13
20 14
20 19
20 23
20 27
21 10
21 11
21 16
21 17
21 24
21 28
21 30
22 12
22 15
22 18
22 25
22 26
22 29
22 31
22 32
23 13
23 14
23 19
23 20
23 25
23 27
23 33
24 16
24 17
24 21
24 26
24 28
24 30
24 35
24 37
25 18
25 19
25 22
25 23
25 27
25 29
25 31
25 33
25 34
26 17
26 22
26 24
26 29
26 30
26 32
26 35
26 36
27 19
27 20
27 23
27 25
27 33
27 40
28 16
28 21
28 24
28 30
28 37
28 38
29 18
29 22
29 25
29 26
29 31
29 32
29 34
29 36
29 39
29 41
30 21
30 24
30 26
30 28
30 35
30 37
30 38
30 43
31 22
31 25
31 29
31 32
31 33
31 34
31 39
31 41
31 44
32 22
32 26
32 29
32 31
32 34
32 35
32 36
32 39
32 41
32 44
33 23
33 25
33 27
33 31
33 34
33 40
33 45
34 25
34 29
34 31
34 32
34 33
34 39
34 40
34 41
34 44
34 45
34 49
35 24
35 26
35 30
35 32
35 36
35 37
35 41
35 42
35 43
35 47
36 26
36 29
36 32
36 35
36 39
36 41
36 42
36 46
36 47
37 24
37 28
37 30
37 35
37 38
37 42
37 43
37 48
37 51
38 28
38 30
38 37
38 43
38 48
38 51
39 29
39 31
39 32
39 34
39 36
39 41
39 44
39 46
40 27
40 33
40 34
40 45
40 49
40 50
41 29
41 31
41 32
41 34
41 35
41 36
41 39
41 42
41 44
41 46
41 47
41 54
42 35
42 36
42 37
42 41
42 43
42 47
42 48
42 52
42 56
42 58
43 30
43 35
43 37
43 38
43 42
43 47
43 48
43 51
43 52
43 56
44 31
44 32
44 34
44 39
44 41
44 45
44 46
44 49
44 54
44 55
45 33
45 34
45 40
45 44
45 49
45 50
45 53
45 55
45 57
46 36
46 39
46 41
46 44
46 47
46 49
46 54
46 55
46 58
46 59
47 35
47 36
47 41
47 42
47 43
47 46
47 48
47 52
47 54
47 56
47 58
47 62
48 37
48 38
48 42
48 43
48 47
48 51
48 52
48 56
48 58
48 61
49 34
49 40
49 44
49 45
49 46
49 50
49 53
49 55
49 57
49 60
49 65
50 40
50 45
50 49
50 53
50 57
50 60
50 63
51 37
51 38
51 43
51 48
51 56
51 61
52 42
52 43
52 47
52 48
52 54
52 56
52 58
52 61
52 62
52 67
53 45
53 49
53 50
53 57
53 60
53 63
54 41
54 44
54 46
54 47
54 52
54 55
54 58
54 59
54 62
54 64
55 44
55 45
55 46
55 49
55 54
55 57
55 59
55 60
55 64
55 65
56 42
56 43
56 47
56 48
56 51
56 52
56 58
56 61
56 62
56 66
56 67
57 45
57 49
57 50
57 53
57 55
57 60
57 63
57 65
58 42
58 46
58 47
58 48
58 52
58 54
58 56
58 59
58 61
58 62
58 67
58 68
59 46
59 54
59 55
59 58
59 62
59 64
59 65
59 68
59 71
60 49
60 50
60 53
60 55
60 57
60 63
60 64
60 65
60 69
60 70
61 48
61 51
61 52
61 56
61 58
61 62
61 66
61 67
61 72
61 73
61 74
62 47
62 52
62 54
62 56
62 58
62 59
62 61
62 66
62 67
62 68
62 73
62 74
63 50
63 53
63 57
63 60
63 69
63 75
64 54
64 55
64 59
64 60
64 65
64 68
64 70
64 71
64 76
64 77
65 49
65 55
65 57
65 59
65 60
65 64
65 69
65 70
65 71
65 76
66 56
66 61
66 62
66 67
66 72
66 74
67 52
67 56
67 58
67 61
67 62
67 66
67 68
67 72
67 73
67 74
68 58
68 59
68 62
68 64
68 67
68 71
68 73
68 74
68 77
69 60
69 63
69 65
69 70
69 75
69 76
70 60
70 64
70 65
70 69
70 71
70 75
70 76
71 59
71 64
71 65
71 68
71 70
71 76
71 77
72 61
72 66
72 67
72 73
72 74
73 61
73 62
73 67
73 68
73 72
73 74
73 77
74 61
74 62
74 66
74 67
74 68
74 72
74 73
75 63
75 69
75 70
75 76
76 64
76 65
76 69
76 70
76 71
76 75
76 77
77 64
77 68
77 71
77 73
77 76
