1 3
1 4
1 6
1 7
1 9
2 5
2 10
2 12
3 1
3 6
3 7
3 8
3 10
3 13
4 1
4 9
4 11
4 14
4 16
5 2
5 8
5 10
5 12
5 15
6 1
6 3
6 7
6 8
6 9
6 10
6 13
6 17
6 19
7 1
7 3
7 6
7 8
7 9
7 11
7 13
7 14
7 18
7 19
8 3
8 5
8 6
8 7
8 10
8 12
8 13
8 17
8 19
9 1
9 4
9 6
9 7
9 11
9 13
9 14
9 16
9 18
10 2
10 3
10 5
10 6
10 8
10 12
10 17
10 22
11 4
11 7
11 9
11 14
11 16
11 18
11 20
12 2
12 5
12 8
12 10
12 15
12 17
12 21
12 22
13 3
13 6
13 7
13 8
13 9
13 14
13 17
13 18
13 19
13 23
13 25
13 27
14 4
14 7
14 9
14 11
14 13
14 16
14 18
14 19
14 20
14 24
14 25
14 28
15 5
15 12
15 21
15 22
16 4
16 9
16 11
16 14
16 18
16 20
16 24
16 28
17 6
17 8
17 10
17 12
17 13
17 19
17 22
17 23
17 26
17 27
18 7
18 9
18 11
18 13
18 14
18 16
18 19
18 20
18 23
18 24
18 25
18 27
18 28
19 6
19 7
19 8
19 13
19 14
19 17
19 18
19 23
19 24
19 25
19 26
19 27
20 11
20 14
20 16
20 18
20 24
20 28
20 31
21 12
21 15
21 22
21 29
21 30
22 10
22 12
22 15
22 17
22 21
22 26
22 29
22 30
22 32
22 35
23 13
23 17
23 18
23 19
23 25
23 26
23 27
23 32
23 33
24 14
24 16
24 18
24 19
24 20
24 25
24 27
24 28
24 31
24 33
24 34
25 13
25 14
25 18
25 19
25 23
25 24
25 27
25 28
25 33
25 34
26 17
26 19
26 22
26 23
26 27
26 29
26 32
27 13
27 17
27 18
27 19
27 23
27 24
27 25
27 26
27 32
27 33
27 34
27 36
28 14
28 16
28 18
28 20
28 24
28 25
28 31
28 33
28 34
28 39
29 21
29 22
29 26
29 30
29 32
29 35
29 37
29 41
30 21
30 22
30 29
30 35
30 38
30 41
31 20
31 24
31 28
31 34
31 39
32 22
32 23
32 26
32 27
32 29
32 33
32 36
32 37
32 42
33 23
33 24
33 25
33 27
33 28
33 32
33 34
33 36
33 40
33 42
34 24
34 25
34 27
34 28
34 31
34 33
34 36
34 39
34 40
34 44
35 22
35 29
35 30
35 37
35 38
35 41
35 43
35 48
36 27
36 32
36 33
36 34
36 37
36 40
36 42
36 46
36 47
37 29
37 32
37 35
37 36
37 41
37 42
37 43
37 47
38 30
38 35
38 41
38 48
39 28
39 31
39 34
39 40
39 44
39 45
40 33
40 34
40 36
40 39
40 42
40 44
40 45
40 46
40 47
40 49
41 29
41 30
41 35
41 37
41 38
41 43
41 48
41 51
42 32
42 33
42 36
42 37
42 40
42 43
42 44
42 46
42 47
42 50
42 52
43 35
43 37
43 41
43 42
43 47
43 48
43 50
43 51
43 55
44 34
44 39
44 40
44 42
44 45
44 46
44 47
44 49
44 52
44 53
45 39
45 40
45 44
45 49
45 53
45 56
46 36
46 40
46 42
46 44
46 47
46 49
46 50
46 52
47 36
47 37
47 40
47 42
47 43
47 44
47 46
47 49
47 50
47 51
47 52
47 55
47 57
48 35
48 38
48 41
48 43
48 51
48 54
49 40
49 44
49 45
49 46
49 47
49 52
49 53
49 56
49 58
49 59
50 42
50 43
50 46
50 47
50 51
50 52
50 55
50 57
50 58
51 41
51 43
51 47
51 48
51 50
51 54
51 55
51 57
52 42
52 44
52 46
52 47
52 49
52 50
52 53
52 56
52 57
52 58
52 59
53 44
53 45
53 49
53 52
53 56
53 59
54 48
54 51
54 55
55 43
55 47
55 50
55 51
55 54
55 57
56 45
56 49
56 52
56 53
56 58
56 59
57 47
57 50
57 51
57 52
57 55
57 58
58 49
58 50
58 52
58 56
58 57
58 59
59 49
59 52
59 53
59 56
59 58
