1 3
1 6
2 7
2 11
3 1
3 6
3 10
3 12
4 5
4 8
4 9
5 4
5 6
5 9
5 13
6 1
6 3
6 5
6 10
6 12
6 13
7 2
7 11
7 14
7 16
8 4
8 9
8 11
8 15
8 16
8 19
9 4
9 5
9 8
9 13
9 17
10 3
10 6
10 12
11 2
11 7
11 8
11 14
11 15
11 16
11 19
12 3
12 6
12 10
12 13
12 18
13 5
13 6
13 9
13 12
13 17
13 18
14 7
14 11
14 16
14 22
15 8
15 11
15 16
15 17
15 19
15 24
16 7
16 8
16 11
16 14
16 15
16 19
16 21
17 9
17 13
17 15
17 18
17 20
18 12
18 13
18 17
18 25
18 26
18 30
19 8
19 11
19 15
19 16
19 20
19 21
19 24
20 17
20 19
20 24
20 27
20 31
21 16
21 19
21 22
21 24
21 28
21 32
22 14
22 21
22 29
23 25
23 26
24 15
24 19
24 20
24 21
24 28
24 31
24 32
24 35
25 18
25 23
25 26
25 27
25 30
25 33
26 18
26 23
26 25
26 30
26 34
27 20
27 25
27 30
27 31
27 33
28 21
28 24
28 29
28 32
28 36
28 37
29 22
29 28
29 36
30 18
30 25
30 26
30 27
30 33
30 38
31 20
31 24
31 27
31 32
31 35
31 39
32 21
32 24
32 28
32 31
32 35
32 36
32 37
32 39
32 41
33 25
33 27
33 30
33 34
33 38
33 42
34 26
34 33
34 40
35 24
35 31
35 32
35 37
35 39
35 43
36 28
36 29
36 32
36 37
36 41
37 28
37 32
37 35
37 36
37 39
37 41
37 43
37 45
38 30
38 33
38 42
38 44
38 46
39 31
39 32
39 35
39 37
39 41
39 43
39 44
40 34
40 42
40 47
40 48
41 32
41 36
41 37
41 39
41 43
41 45
41 50
42 33
42 38
42 40
42 46
42 48
43 35
43 37
43 39
43 41
43 44
43 45
43 49
43 50
44 38
44 39
44 43
44 46
44 49
45 37
45 41
45 43
45 50
45 51
46 38
46 42
46 44
46 48
46 49
46 52
46 53
46 55
47 40
47 48
47 53
48 40
48 42
48 46
48 47
48 52
48 53
48 58
49 43
49 44
49 46
49 50
49 52
49 55
49 56
50 41
50 43
50 45
50 49
50 51
50 56
50 57
51 45
51 50
51 54
51 57
52 46
52 48
52 49
52 53
52 55
52 59
53 46
53 47
53 48
53 52
53 55
53 58
53 61
54 51
54 62
55 46
55 49
55 52
55 53
55 56
55 59
56 49
56 50
56 55
56 57
56 60
57 50
57 51
57 56
58 48
58 53
58 59
58 61
59 52
59 55
59 58
59 61
60 56
61 53
61 58
61 59
62 54
