1 3
1 6
1 7
2 5
3 1
3 6
3 7
3 8
4 9
4 11
5 2
5 10
5 12
6 1
6 3
6 7
6 8
6 13
7 1
7 3
7 6
7 9
7 13
7 14
7 18
8 3
8 6
8 10
8 13
8 17
9 4
9 7
9 11
9 14
9 16
9 18
10 5
10 8
10 12
10 17
11 4
11 9
11 14
11 16
12 5
12 10
12 15
13 6
13 7
13 8
13 17
13 18
13 19
13 23
14 7
14 9
14 11
14 16
14 18
14 24
15 12
15 21
16 9
16 11
16 14
16 20
17 8
17 10
17 13
17 19
17 22
17 23
17 26
18 7
18 9
18 13
18 14
18 19
18 24
18 25
19 13
19 17
19 18
19 23
19 25
19 27
20 16
20 24
20 28
20 31
21 15
21 22
21 30
22 17
22 21
22 26
22 29
23 13
23 17
23 19
23 26
23 27
23 32
24 14
24 18
24 20
24 25
24 28
24 34
25 18
25 19
25 24
25 27
25 28
25 33
25 34
26 17
26 22
26 23
26 29
26 32
27 19
27 23
27 25
27 32
27 33
27 36
28 20
28 24
28 25
28 31
28 34
29 22
29 26
29 30
29 32
29 35
29 37
30 21
30 29
30 35
30 38
31 20
31 28
31 34
31 39
32 23
32 26
32 27
32 29
32 36
32 37
33 25
33 27
33 34
33 36
33 40
34 24
34 25
34 28
34 31
34 33
34 39
34 40
35 29
35 30
35 37
35 38
35 41
36 27
36 32
36 33
36 37
36 40
36 42
37 29
37 32
37 35
37 36
37 41
37 42
37 43
38 30
38 35
38 41
39 31
39 34
39 44
39 45
40 33
40 34
40 36
40 42
40 44
40 46
41 35
41 37
41 38
41 43
41 48
42 36
42 37
42 40
42 43
42 46
42 47
43 37
43 41
43 42
43 47
43 48
43 50
43 51
44 39
44 40
44 45
44 46
44 49
44 52
45 39
45 44
45 49
45 53
46 40
46 42
46 44
46 47
46 49
46 52
47 42
47 43
47 46
47 50
47 52
48 41
48 43
48 51
48 54
49 44
49 45
49 46
49 52
49 53
49 56
49 58
50 43
50 47
50 51
50 55
50 57
51 43
51 48
51 50
51 54
51 55
52 44
52 46
52 47
52 49
52 58
53 45
53 49
53 56
54 48
54 51
55 50
55 51
55 57
56 49
56 53
56 59
57 50
57 55
57 58
58 49
58 52
58 57
58 59
59 56
59 58
