1 3
1 4
1 5
1 6
1 8
1 10
1 11
1 12
1 14
1 17
2 7
2 9
2 15
2 18
2 20
3 1
3 6
3 7
3 8
3 11
3 12
3 15
3 16
3 17
4 1
4 5
4 6
4 8
4 10
4 13
4 14
4 17
4 19
4 21
5 1
5 4
5 8
5 10
5 13
5 14
5 19
5 23
6 1
6 3
6 4
6 8
6 10
6 11
6 12
6 14
6 15
6 16
6 17
7 2
7 3
7 9
7 11
7 12
7 15
7 16
7 18
7 20
7 22
7 24
8 1
8 3
8 4
8 5
8 6
8 10
8 11
8 12
8 13
8 14
8 16
8 17
8 19
8 21
8 27
9 2
9 7
9 15
9 18
9 20
9 22
9 24
10 1
10 4
10 5
10 6
10 8
10 12
10 13
10 14
10 17
10 19
10 21
10 23
10 25
11 1
11 3
11 6
11 7
11 8
11 12
11 15
11 16
11 17
11 18
11 20
11 22
11 26
11 27
11 28
12 1
12 3
12 6
12 7
12 8
12 10
12 11
12 14
12 15
12 16
12 17
12 21
12 22
12 26
12 27
12 29
12 31
13 4
13 5
13 8
13 10
13 14
13 19
13 21
13 23
13 25
13 30
13 34
14 1
14 4
14 5
14 6
14 8
14 10
14 12
14 13
14 17
14 19
14 21
14 23
14 25
14 27
14 29
14 30
15 2
15 3
15 6
15 7
15 9
15 11
15 12
15 16
15 17
15 18
15 20
15 22
15 24
15 26
15 27
15 28
15 31
15 32
15 36
15 37
16 3
16 6
16 7
16 8
16 11
16 12
16 15
16 17
16 18
16 20
16 22
16 24
16 26
16 27
16 28
16 31
16 32
16 33
16 36
16 37
17 1
17 3
17 4
17 6
17 8
17 10
17 11
17 12
17 14
17 15
17 16
17 19
17 21
17 25
17 26
17 27
17 28
17 29
17 30
17 31
17 33
17 38
18 2
18 7
18 9
18 11
18 15
18 16
18 20
18 22
18 24
18 28
18 32
18 35
18 37
19 4
19 5
19 8
19 10
19 13
19 14
19 17
19 21
19 23
19 25
19 29
19 30
19 34
19 38
19 39
20 2
20 7
20 9
20 11
20 15
20 16
20 18
20 22
20 24
20 28
20 32
20 35
20 37
20 42
21 4
21 8
21 10
21 12
21 13
21 14
21 17
21 19
21 23
21 25
21 26
21 27
21 29
21 30
21 31
21 33
21 34
21 38
21 39
21 40
21 45
22 7
22 9
22 11
22 12
22 15
22 16
22 18
22 20
22 24
22 26
22 27
22 28
22 31
22 32
22 33
22 35
22 36
22 37
22 41
22 42
22 43
22 44
23 5
23 10
23 13
23 14
23 19
23 21
23 25
23 29
23 30
23 34
23 38
23 39
23 47
24 7
24 9
24 15
24 16
24 18
24 20
24 22
24 28
24 32
24 35
24 36
24 37
24 42
24 43
24 44
25 10
25 13
25 14
25 17
25 19
25 21
25 23
25 27
25 29
25 30
25 34
25 38
25 39
25 40
25 45
25 47
26 11
26 12
26 15
26 16
26 17
26 21
26 22
26 27
26 28
26 29
26 30
26 31
26 32
26 33
26 36
26 37
26 38
26 40
26 41
26 43
26 46
26 48
27 8
27 11
27 12
27 14
27 15
27 16
27 17
27 21
27 22
27 25
27 26
27 28
27 29
27 30
27 31
27 33
27 36
27 38
27 40
27 41
27 46
27 48
27 50
28 11
28 15
28 16
28 17
28 18
28 20
28 22
28 24
28 26
28 27
28 31
28 32
28 33
28 35
28 36
28 37
28 40
28 41
28 42
28 43
28 44
28 46
28 48
28 49
29 12
29 14
29 17
29 19
29 21
29 23
29 25
29 26
29 27
29 30
29 31
29 33
29 36
29 38
29 39
29 40
29 41
29 45
29 46
29 50
30 13
30 14
30 17
30 19
30 21
30 23
30 25
30 26
30 27
30 29
30 33
30 34
30 38
30 39
30 40
30 45
30 47
30 50
30 52
31 12
31 15
31 16
31 17
31 21
31 22
31 26
31 27
31 28
31 29
31 32
31 33
31 36
31 37
31 38
31 40
31 41
31 43
31 44
31 46
31 48
31 49
31 53
32 15
32 16
32 18
32 20
32 22
32 24
32 26
32 28
32 31
32 35
32 36
32 37
32 41
32 42
32 43
32 44
32 49
32 51
32 54
33 16
33 17
33 21
33 22
33 26
33 27
33 28
33 29
33 30
33 31
33 36
33 37
33 38
33 40
33 41
33 43
33 45
33 46
33 48
33 50
33 53
33 55
34 13
34 19
34 21
34 23
34 25
34 30
34 38
34 39
34 45
34 47
34 52
34 56
35 18
35 20
35 22
35 24
35 28
35 32
35 36
35 37
35 42
35 43
35 44
35 49
35 51
35 54
35 58
36 15
36 16
36 22
36 24
36 26
36 27
36 28
36 29
36 31
36 32
36 33
36 35
36 37
36 40
36 41
36 42
36 43
36 44
36 46
36 48
36 49
36 53
36 54
36 55
36 57
37 15
37 16
37 18
37 20
37 22
37 24
37 26
37 28
37 31
37 32
37 33
37 35
37 36
37 41
37 42
37 43
37 44
37 46
37 48
37 49
37 51
37 53
37 54
37 57
38 17
38 19
38 21
38 23
38 25
38 26
38 27
38 29
38 30
38 31
38 33
38 34
38 39
38 40
38 41
38 45
38 46
38 47
38 50
38 52
38 55
38 59
39 19
39 21
39 23
39 25
39 29
39 30
39 34
39 38
39 45
39 47
39 50
39 52
39 56
40 21
40 25
40 26
40 27
40 28
40 29
40 30
40 31
40 33
40 36
40 38
40 41
40 43
40 45
40 46
40 48
40 50
40 52
40 53
40 55
40 59
41 22
41 26
41 27
41 28
41 29
41 31
41 32
41 33
41 36
41 37
41 38
41 40
41 43
41 44
41 46
41 48
41 49
41 50
41 53
41 54
41 55
41 57
41 61
42 20
42 22
42 24
42 28
42 32
42 35
42 36
42 37
42 43
42 44
42 49
42 51
42 54
42 58
43 22
43 24
43 26
43 28
43 31
43 32
43 33
43 35
43 36
43 37
43 40
43 41
43 42
43 44
43 46
43 48
43 49
43 51
43 53
43 54
43 55
43 57
43 58
43 61
43 62
44 22
44 24
44 28
44 31
44 32
44 35
44 36
44 37
44 41
44 42
44 43
44 48
44 49
44 51
44 53
44 54
44 57
44 58
44 62
44 65
45 21
45 25
45 29
45 30
45 33
45 34
45 38
45 39
45 40
45 46
45 47
45 50
45 52
45 55
45 56
45 59
45 60
45 63
45 64
45 69
46 26
46 27
46 28
46 29
46 31
46 33
46 36
46 37
46 38
46 40
46 41
46 43
46 45
46 48
46 49
46 50
46 52
46 53
46 55
46 57
46 59
46 61
46 62
46 64
46 67
46 68
47 23
47 25
47 30
47 34
47 38
47 39
47 45
47 50
47 52
47 56
47 59
47 60
47 63
47 69
47 70
48 26
48 27
48 28
48 31
48 33
48 36
48 37
48 40
48 41
48 43
48 44
48 46
48 49
48 50
48 51
48 53
48 54
48 55
48 57
48 59
48 61
48 62
48 67
48 68
49 28
49 31
49 32
49 35
49 36
49 37
49 41
49 42
49 43
49 44
49 46
49 48
49 51
49 53
49 54
49 55
49 57
49 58
49 61
49 62
49 65
49 66
49 68
50 27
50 29
50 30
50 33
50 38
50 39
50 40
50 41
50 45
50 46
50 47
50 48
50 52
50 53
50 55
50 56
50 59
50 60
50 61
50 64
50 67
50 69
50 71
51 32
51 35
51 37
51 42
51 43
51 44
51 48
51 49
51 53
51 54
51 57
51 58
51 62
51 65
51 66
52 30
52 34
52 38
52 39
52 40
52 45
52 46
52 47
52 50
52 55
52 56
52 59
52 60
52 63
52 64
52 69
52 70
52 71
53 31
53 33
53 36
53 37
53 40
53 41
53 43
53 44
53 46
53 48
53 49
53 50
53 51
53 54
53 55
53 57
53 59
53 61
53 62
53 66
53 67
53 68
53 72
53 74
54 32
54 35
54 36
54 37
54 41
54 42
54 43
54 44
54 48
54 49
54 51
54 53
54 57
54 58
54 62
54 65
54 66
54 72
54 73
55 33
55 36
55 38
55 40
55 41
55 43
55 45
55 46
55 48
55 49
55 50
55 52
55 53
55 57
55 59
55 60
55 61
55 62
55 64
55 67
55 68
55 71
55 74
55 78
56 34
56 39
56 45
56 47
56 50
56 52
56 59
56 60
56 63
56 64
56 69
56 70
56 75
57 36
57 37
57 41
57 43
57 44
57 46
57 48
57 49
57 51
57 53
57 54
57 55
57 58
57 61
57 62
57 65
57 66
57 67
57 68
57 72
57 73
57 74
57 79
58 35
58 42
58 43
58 44
58 49
58 51
58 54
58 57
58 62
58 65
58 66
58 72
58 73
58 76
59 38
59 40
59 45
59 46
59 47
59 48
59 50
59 52
59 53
59 55
59 56
59 60
59 61
59 63
59 64
59 67
59 68
59 69
59 71
59 74
59 77
59 78
60 45
60 47
60 50
60 52
60 55
60 56
60 59
60 63
60 64
60 67
60 69
60 70
60 71
60 75
60 77
60 78
60 81
61 41
61 43
61 46
61 48
61 49
61 50
61 53
61 55
61 57
61 59
61 62
61 64
61 66
61 67
61 68
61 71
61 72
61 74
61 78
61 79
61 80
62 43
62 44
62 46
62 48
62 49
62 51
62 53
62 54
62 55
62 57
62 58
62 61
62 65
62 66
62 67
62 68
62 72
62 73
62 74
62 76
62 79
62 80
62 82
62 83
63 45
63 47
63 52
63 56
63 59
63 60
63 64
63 69
63 70
63 71
63 75
63 77
63 81
64 45
64 46
64 50
64 52
64 55
64 56
64 59
64 60
64 61
64 63
64 67
64 68
64 69
64 70
64 71
64 74
64 75
64 77
64 78
64 80
64 81
64 85
65 44
65 49
65 51
65 54
65 57
65 58
65 62
65 66
65 72
65 73
65 76
65 79
65 82
65 86
66 49
66 51
66 53
66 54
66 57
66 58
66 61
66 62
66 65
66 68
66 72
66 73
66 74
66 76
66 79
66 82
66 83
66 86
67 46
67 48
67 50
67 53
67 55
67 57
67 59
67 60
67 61
67 62
67 64
67 68
67 69
67 71
67 72
67 74
67 77
67 78
67 80
67 84
68 46
68 48
68 49
68 53
68 55
68 57
68 59
68 61
68 62
68 64
68 66
68 67
68 71
68 72
68 73
68 74
68 78
68 79
68 80
68 82
68 83
68 84
69 45
69 47
69 50
69 52
69 56
69 59
69 60
69 63
69 64
69 67
69 70
69 71
69 75
69 77
69 78
69 81
69 85
69 87
70 47
70 52
70 56
70 60
70 63
70 64
70 69
70 71
70 75
70 77
70 81
70 85
70 87
70 89
71 50
71 52
71 55
71 59
71 60
71 61
71 63
71 64
71 67
71 68
71 69
71 70
71 74
71 75
71 77
71 78
71 80
71 81
71 84
71 85
71 87
71 88
72 53
72 54
72 57
72 58
72 61
72 62
72 65
72 66
72 67
72 68
72 73
72 74
72 76
72 78
72 79
72 80
72 82
72 83
72 84
72 86
72 90
73 54
73 57
73 58
73 62
73 65
73 66
73 68
73 72
73 74
73 76
73 79
73 82
73 83
73 86
73 90
74 53
74 55
74 57
74 59
74 61
74 62
74 64
74 66
74 67
74 68
74 71
74 72
74 73
74 78
74 79
74 80
74 82
74 83
74 84
74 90
75 56
75 60
75 63
75 64
75 69
75 70
75 71
75 77
75 78
75 81
75 85
75 87
75 89
76 58
76 62
76 65
76 66
76 72
76 73
76 79
76 82
76 83
76 86
76 90
77 59
77 60
77 63
77 64
77 67
77 69
77 70
77 71
77 75
77 78
77 80
77 81
77 84
77 85
77 87
77 88
77 89
78 55
78 59
78 60
78 61
78 64
78 67
78 68
78 69
78 71
78 72
78 74
78 75
78 77
78 80
78 81
78 83
78 84
78 85
78 87
78 88
79 57
79 61
79 62
79 65
79 66
79 68
79 72
79 73
79 74
79 76
79 80
79 82
79 83
79 84
79 86
79 90
80 61
80 62
80 64
80 67
80 68
80 71
80 72
80 74
80 77
80 78
80 79
80 82
80 83
80 84
80 85
80 88
80 90
81 60
81 63
81 64
81 69
81 70
81 71
81 75
81 77
81 78
81 85
81 87
81 88
81 89
82 62
82 65
82 66
82 68
82 72
82 73
82 74
82 76
82 79
82 80
82 83
82 84
82 86
82 90
83 62
83 66
83 68
83 72
83 73
83 74
83 76
83 78
83 79
83 80
83 82
83 84
83 86
83 90
84 67
84 68
84 71
84 72
84 74
84 77
84 78
84 79
84 80
84 82
84 83
84 85
84 88
84 90
85 64
85 69
85 70
85 71
85 75
85 77
85 78
85 80
85 81
85 84
85 87
85 88
85 89
86 65
86 66
86 72
86 73
86 76
86 79
86 82
86 83
86 90
87 69
87 70
87 71
87 75
87 77
87 78
87 81
87 85
87 88
87 89
88 71
88 77
88 78
88 80
88 81
88 84
88 85
88 87
89 70
89 75
89 77
89 81
89 85
89 87
90 72
90 73
90 74
90 76
90 79
90 80
90 82
90 83
90 84
90 86
