1 5
1 9
1 15
2 7
2 10
2 14
3 4
3 6
3 7
3 10
3 11
3 12
3 16
4 3
4 6
4 7
4 8
4 11
4 12
4 13
4 16
5 1
5 8
5 9
5 13
5 15
5 17
5 20
6 3
6 4
6 8
6 11
6 12
6 13
6 17
6 18
7 2
7 3
7 4
7 10
7 12
7 14
7 16
7 19
8 4
8 5
8 6
8 11
8 13
8 15
8 17
8 18
9 1
9 5
9 15
9 17
9 20
10 2
10 3
10 7
10 12
10 14
10 16
10 19
10 21
11 3
11 4
11 6
11 8
11 12
11 13
11 16
11 18
11 22
11 23
12 3
12 4
12 6
12 7
12 10
12 11
12 13
12 16
12 19
12 22
12 23
13 4
13 5
13 6
13 8
13 11
13 12
13 17
13 18
13 23
13 25
14 2
14 7
14 10
14 19
14 21
15 1
15 5
15 8
15 9
15 17
15 20
15 24
15 25
15 27
16 3
16 4
16 7
16 10
16 11
16 12
16 19
16 21
16 22
16 26
16 28
17 5
17 6
17 8
17 9
17 13
17 15
17 18
17 20
17 24
17 25
17 27
18 6
18 8
18 11
18 13
18 17
18 23
18 25
18 27
18 32
19 7
19 10
19 12
19 14
19 16
19 21
19 22
19 26
19 28
19 31
20 5
20 9
20 15
20 17
20 24
20 27
21 10
21 14
21 16
21 19
21 26
21 29
21 31
22 11
22 12
22 16
22 19
22 23
22 26
22 28
22 30
23 11
23 12
23 13
23 18
23 22
23 25
23 28
23 30
23 32
23 35
24 15
24 17
24 20
24 25
24 27
24 34
25 13
25 15
25 17
25 18
25 23
25 24
25 27
25 32
25 33
25 34
25 37
26 16
26 19
26 21
26 22
26 28
26 29
26 30
26 31
26 36
26 38
27 15
27 17
27 18
27 20
27 24
27 25
27 32
27 33
27 34
27 37
27 39
28 16
28 19
28 22
28 23
28 26
28 30
28 31
28 35
28 38
29 21
29 26
29 31
29 36
30 22
30 23
30 26
30 28
30 32
30 35
30 38
30 42
31 19
31 21
31 26
31 28
31 29
31 36
31 38
31 40
31 44
32 18
32 23
32 25
32 27
32 30
32 33
32 34
32 35
32 37
32 39
32 41
32 45
33 25
33 27
33 32
33 34
33 37
33 39
33 41
33 43
33 45
34 24
34 25
34 27
34 32
34 33
34 37
34 39
34 41
34 43
35 23
35 28
35 30
35 32
35 38
35 42
35 45
35 46
35 48
36 26
36 29
36 31
36 38
36 40
36 44
36 47
37 25
37 27
37 32
37 33
37 34
37 39
37 41
37 43
37 45
37 46
37 50
38 26
38 28
38 30
38 31
38 35
38 36
38 40
38 42
38 47
38 48
39 27
39 32
39 33
39 34
39 37
39 41
39 43
39 45
39 49
39 50
40 31
40 36
40 38
40 42
40 44
40 47
40 48
40 51
41 32
41 33
41 34
41 37
41 39
41 43
41 45
41 46
41 49
41 50
42 30
42 35
42 38
42 40
42 45
42 46
42 48
42 51
42 52
42 53
43 33
43 34
43 37
43 39
43 41
43 45
43 49
43 50
43 56
44 31
44 36
44 40
44 47
44 54
45 32
45 33
45 35
45 37
45 39
45 41
45 42
45 43
45 46
45 50
45 52
45 55
46 35
46 37
46 41
46 42
46 45
46 48
46 50
46 52
46 53
46 55
46 57
47 36
47 38
47 40
47 44
47 48
47 51
47 54
48 35
48 38
48 40
48 42
48 46
48 47
48 51
48 52
48 53
48 57
48 60
48 61
49 39
49 41
49 43
49 50
49 56
49 58
50 37
50 39
50 41
50 43
50 45
50 46
50 49
50 52
50 55
50 56
50 57
50 59
51 40
51 42
51 47
51 48
51 53
51 54
51 57
51 60
51 61
51 64
52 42
52 45
52 46
52 48
52 50
52 53
52 55
52 57
52 59
52 60
52 63
53 42
53 46
53 48
53 51
53 52
53 57
53 60
53 61
53 63
53 64
53 67
54 44
54 47
54 51
54 61
54 62
54 64
54 68
54 70
55 45
55 46
55 50
55 52
55 56
55 57
55 59
55 60
55 63
55 66
56 43
56 49
56 50
56 55
56 58
56 59
56 65
56 66
57 46
57 48
57 50
57 51
57 52
57 53
57 55
57 59
57 60
57 61
57 63
57 69
58 49
58 56
58 65
58 73
59 50
59 52
59 55
59 56
59 57
59 63
59 65
59 66
59 71
59 74
60 48
60 51
60 52
60 53
60 55
60 57
60 61
60 63
60 64
60 67
60 69
60 72
60 77
61 48
61 51
61 53
61 54
61 57
61 60
61 62
61 63
61 64
61 67
61 69
61 70
61 72
61 78
62 54
62 61
62 64
62 68
62 70
62 76
63 52
63 53
63 55
63 57
63 59
63 60
63 61
63 66
63 69
63 71
63 72
63 74
63 77
64 51
64 53
64 54
64 60
64 61
64 62
64 67
64 68
64 70
64 72
64 76
65 56
65 58
65 59
65 66
65 71
65 73
65 75
65 80
66 55
66 56
66 59
66 63
66 65
66 69
66 71
66 73
66 74
66 75
66 81
67 53
67 60
67 61
67 64
67 69
67 70
67 72
67 76
67 77
67 78
67 82
68 54
68 62
68 64
68 70
68 76
68 79
68 84
69 57
69 60
69 61
69 63
69 66
69 67
69 71
69 72
69 74
69 77
69 78
69 83
70 54
70 61
70 62
70 64
70 67
70 68
70 72
70 76
70 78
70 79
70 82
70 84
71 59
71 63
71 65
71 66
71 69
71 73
71 74
71 75
71 77
71 80
71 81
71 83
72 60
72 61
72 63
72 64
72 67
72 69
72 70
72 74
72 77
72 78
72 82
73 58
73 65
73 66
73 71
73 75
73 80
73 81
74 59
74 63
74 66
74 69
74 71
74 72
74 77
74 78
74 81
74 83
75 65
75 66
75 71
75 73
75 80
75 81
76 62
76 64
76 67
76 68
76 70
76 79
76 82
76 84
77 60
77 63
77 67
77 69
77 71
77 72
77 74
77 78
77 83
78 61
78 67
78 69
78 70
78 72
78 74
78 77
78 82
78 83
79 68
79 70
79 76
79 82
79 84
80 65
80 71
80 73
80 75
80 81
81 66
81 71
81 73
81 74
81 75
81 80
81 83
82 67
82 70
82 72
82 76
82 78
82 79
82 84
83 69
83 71
83 74
83 77
83 78
83 81
84 68
84 70
84 76
84 79
84 82
