1 2
1 7
2 1
2 7
2 9
3 4
3 8
3 14
4 3
4 5
4 10
4 11
5 4
5 6
5 10
5 11
5 12
6 5
6 11
6 12
7 1
7 2
7 9
7 13
8 3
8 9
8 10
8 14
9 2
9 7
9 8
9 13
9 16
9 17
10 4
10 5
10 8
10 11
10 14
10 15
11 4
11 5
11 6
11 10
11 12
11 15
11 20
12 5
12 6
12 11
12 21
13 7
13 9
13 16
13 19
14 3
14 8
14 10
14 17
14 18
15 10
15 11
15 18
15 20
15 22
15 25
16 9
16 13
16 17
16 19
16 24
17 9
17 14
17 16
17 18
17 24
17 26
18 14
18 15
18 17
18 20
18 25
18 26
19 13
19 16
19 23
19 24
19 27
20 11
20 15
20 18
20 22
20 25
20 28
21 12
21 22
21 28
21 30
22 15
22 20
22 21
22 28
23 19
23 24
23 27
24 16
24 17
24 19
24 23
24 26
24 27
24 29
25 15
25 18
25 20
25 28
25 31
26 17
26 18
26 24
26 29
27 19
27 23
27 24
27 29
27 33
28 20
28 21
28 22
28 25
28 30
28 31
28 32
29 24
29 26
29 27
29 33
29 34
29 36
30 21
30 28
30 32
30 35
31 25
31 28
31 34
31 37
32 28
32 30
32 35
32 37
32 38
33 27
33 29
33 36
33 41
34 29
34 31
34 36
34 39
34 42
35 30
35 32
35 38
36 29
36 33
36 34
36 39
36 40
36 41
36 45
37 31
37 32
37 38
37 42
37 43
37 44
37 47
37 51
38 32
38 35
38 37
38 43
38 44
38 50
39 34
39 36
39 40
39 42
39 45
39 46
39 47
40 36
40 39
40 41
40 45
40 46
40 49
41 33
41 36
41 40
41 45
41 48
41 49
42 34
42 37
42 39
42 43
42 46
42 47
42 51
43 37
43 38
43 42
43 44
43 47
43 50
43 51
43 52
44 37
44 38
44 43
44 50
44 51
44 52
45 36
45 39
45 40
45 41
45 46
45 49
45 53
45 54
46 39
46 40
46 42
46 45
46 47
46 54
46 56
47 37
47 39
47 42
47 43
47 46
47 51
47 56
47 57
48 41
48 49
48 53
48 55
49 40
49 41
49 45
49 48
49 53
49 54
49 55
50 38
50 43
50 44
50 51
50 52
50 57
51 37
51 42
51 43
51 44
51 47
51 50
51 52
51 56
51 57
52 43
52 44
52 50
52 51
52 57
52 58
53 45
53 48
53 49
53 54
53 55
53 59
54 45
54 46
54 49
54 53
54 56
54 59
54 61
55 48
55 49
55 53
55 60
56 46
56 47
56 51
56 54
56 57
56 61
56 63
57 47
57 50
57 51
57 52
57 56
57 58
57 63
57 64
58 52
58 57
58 62
58 64
59 53
59 54
59 60
59 61
60 55
60 59
61 54
61 56
61 59
61 63
62 58
62 64
63 56
63 57
63 61
63 64
64 57
64 58
64 62
64 63
