1 2
1 3
1 5
1 8
1 9
1 10
1 13
1 14
1 16
1 17
1 22
2 1
2 5
2 9
2 10
2 14
2 16
2 17
2 22
2 23
3 1
3 4
3 5
3 6
3 7
3 8
3 10
3 11
3 12
3 13
3 17
3 18
3 19
3 20
4 3
4 5
4 6
4 7
4 8
4 11
4 12
4 13
4 15
4 18
4 19
4 20
4 24
5 1
5 2
5 3
5 4
5 6
5 8
5 9
5 10
5 12
5 13
5 14
5 17
5 19
5 20
5 22
5 25
6 3
6 4
6 5
6 7
6 8
6 10
6 11
6 12
6 13
6 15
6 17
6 18
6 19
6 20
6 24
6 27
6 28
7 3
7 4
7 6
7 8
7 11
7 12
7 15
7 18
7 19
7 21
7 24
7 26
7 27
8 1
8 3
8 4
8 5
8 6
8 7
8 10
8 11
8 12
8 13
8 14
8 15
8 17
8 18
8 19
8 20
8 22
8 25
8 28
8 30
8 32
9 1
9 2
9 5
9 10
9 14
9 16
9 17
9 22
9 23
9 29
9 31
10 1
10 2
10 3
10 5
10 6
10 8
10 9
10 12
10 13
10 14
10 16
10 17
10 19
10 20
10 22
10 23
10 25
10 29
10 30
10 31
10 32
11 3
11 4
11 6
11 7
11 8
11 12
11 13
11 15
11 18
11 19
11 20
11 21
11 24
11 26
11 27
11 28
11 33
12 3
12 4
12 5
12 6
12 7
12 8
12 10
12 11
12 13
12 15
12 17
12 18
12 19
12 20
12 21
12 24
12 25
12 27
12 28
12 30
12 32
12 37
13 1
13 3
13 4
13 5
13 6
13 8
13 10
13 11
13 12
13 14
13 17
13 18
13 19
13 20
13 22
13 25
13 28
13 30
13 31
13 32
13 35
14 1
14 2
14 5
14 8
14 9
14 10
14 13
14 16
14 17
14 20
14 22
14 23
14 25
14 29
14 31
14 32
14 34
14 36
15 4
15 6
15 7
15 8
15 11
15 12
15 18
15 19
15 20
15 21
15 24
15 26
15 27
15 28
15 33
15 37
15 39
15 40
16 1
16 2
16 9
16 10
16 14
16 17
16 22
16 23
16 25
16 29
16 31
16 32
16 34
16 36
17 1
17 2
17 3
17 5
17 6
17 8
17 9
17 10
17 12
17 13
17 14
17 16
17 18
17 19
17 20
17 22
17 23
17 25
17 28
17 29
17 30
17 31
17 32
17 34
17 35
17 38
18 3
18 4
18 6
18 7
18 8
18 11
18 12
18 13
18 15
18 17
18 19
18 20
18 21
18 24
18 25
18 26
18 27
18 28
18 30
18 33
18 35
18 37
18 40
19 3
19 4
19 5
19 6
19 7
19 8
19 10
19 11
19 12
19 13
19 15
19 17
19 18
19 20
19 21
19 24
19 25
19 26
19 27
19 28
19 30
19 32
19 33
19 35
19 37
19 40
20 3
20 4
20 5
20 6
20 8
20 10
20 11
20 12
20 13
20 14
20 15
20 17
20 18
20 19
20 22
20 25
20 27
20 28
20 30
20 31
20 32
20 34
20 35
20 37
20 38
20 42
21 7
21 11
21 12
21 15
21 18
21 19
21 24
21 26
21 27
21 28
21 33
21 39
21 40
21 43
22 1
22 2
22 5
22 8
22 9
22 10
22 13
22 14
22 16
22 17
22 20
22 23
22 25
22 29
22 30
22 31
22 32
22 34
22 35
22 36
22 38
22 41
22 42
22 45
22 46
23 2
23 9
23 10
23 14
23 16
23 17
23 22
23 25
23 29
23 31
23 32
23 34
23 36
23 38
23 41
23 46
24 4
24 6
24 7
24 11
24 12
24 15
24 18
24 19
24 21
24 26
24 27
24 28
24 33
24 37
24 39
24 40
24 43
25 5
25 8
25 10
25 12
25 13
25 14
25 16
25 17
25 18
25 19
25 20
25 22
25 23
25 28
25 29
25 30
25 31
25 32
25 34
25 35
25 36
25 37
25 38
25 41
25 42
25 44
25 45
26 7
26 11
26 15
26 18
26 19
26 21
26 24
26 27
26 28
26 33
26 37
26 39
26 40
26 43
26 49
27 6
27 7
27 11
27 12
27 15
27 18
27 19
27 20
27 21
27 24
27 26
27 28
27 30
27 33
27 35
27 37
27 39
27 40
27 43
27 44
27 47
27 49
28 6
28 8
28 11
28 12
28 13
28 15
28 17
28 18
28 19
28 20
28 21
28 24
28 25
28 26
28 27
28 30
28 32
28 33
28 35
28 37
28 38
28 39
28 40
28 42
28 44
28 47
28 48
29 9
29 10
29 14
29 16
29 17
29 22
29 23
29 25
29 31
29 32
29 34
29 35
29 36
29 38
29 41
29 45
29 46
30 8
30 10
30 12
30 13
30 17
30 18
30 19
30 20
30 22
30 25
30 27
30 28
30 31
30 32
30 33
30 34
30 35
30 37
30 38
30 40
30 41
30 42
30 44
30 45
30 48
31 9
31 10
31 13
31 14
31 16
31 17
31 20
31 22
31 23
31 25
31 29
31 30
31 32
31 34
31 35
31 36
31 38
31 41
31 42
31 45
31 46
31 50
32 8
32 10
32 12
32 13
32 14
32 16
32 17
32 19
32 20
32 22
32 23
32 25
32 28
32 29
32 30
32 31
32 34
32 35
32 36
32 37
32 38
32 41
32 42
32 44
32 45
32 46
32 48
32 50
33 11
33 15
33 18
33 19
33 21
33 24
33 26
33 27
33 28
33 30
33 37
33 39
33 40
33 43
33 44
33 47
33 49
33 51
33 55
34 14
34 16
34 17
34 20
34 22
34 23
34 25
34 29
34 30
34 31
34 32
34 35
34 36
34 38
34 41
34 42
34 45
34 46
34 48
34 50
34 52
34 53
35 13
35 17
35 18
35 19
35 20
35 22
35 25
35 27
35 28
35 29
35 30
35 31
35 32
35 34
35 37
35 38
35 40
35 41
35 42
35 44
35 45
35 46
35 48
35 50
35 51
35 54
35 56
36 14
36 16
36 22
36 23
36 25
36 29
36 31
36 32
36 34
36 38
36 41
36 45
36 46
36 50
36 52
36 53
37 12
37 15
37 18
37 19
37 20
37 24
37 25
37 26
37 27
37 28
37 30
37 32
37 33
37 35
37 38
37 39
37 40
37 42
37 43
37 44
37 47
37 48
37 49
37 51
37 54
37 57
38 17
38 20
38 22
38 23
38 25
38 28
38 29
38 30
38 31
38 32
38 34
38 35
38 36
38 37
38 41
38 42
38 44
38 45
38 46
38 48
38 50
38 52
38 54
38 56
38 58
39 15
39 21
39 24
39 26
39 27
39 28
39 33
39 37
39 40
39 43
39 44
39 47
39 49
39 51
39 55
39 61
40 15
40 18
40 19
40 21
40 24
40 26
40 27
40 28
40 30
40 33
40 35
40 37
40 39
40 42
40 43
40 44
40 47
40 48
40 49
40 51
40 54
40 55
40 57
40 61
41 22
41 23
41 25
41 29
41 30
41 31
41 32
41 34
41 35
41 36
41 38
41 42
41 45
41 46
41 48
41 50
41 52
41 53
41 56
41 58
41 59
42 20
42 22
42 25
42 28
42 30
42 31
42 32
42 34
42 35
42 37
42 38
42 40
42 41
42 44
42 45
42 46
42 47
42 48
42 50
42 51
42 52
42 54
42 56
42 58
42 60
42 62
43 21
43 24
43 26
43 27
43 33
43 37
43 39
43 40
43 47
43 49
43 51
43 55
43 61
44 25
44 27
44 28
44 30
44 32
44 33
44 35
44 37
44 38
44 39
44 40
44 42
44 45
44 47
44 48
44 49
44 50
44 51
44 54
44 55
44 56
44 57
44 60
44 62
44 64
45 22
45 25
45 29
45 30
45 31
45 32
45 34
45 35
45 36
45 38
45 41
45 42
45 44
45 46
45 48
45 50
45 52
45 53
45 54
45 56
45 58
45 59
45 60
45 62
45 63
45 66
45 69
46 22
46 23
46 29
46 31
46 32
46 34
46 35
46 36
46 38
46 41
46 42
46 45
46 48
46 50
46 52
46 53
46 56
46 58
46 59
46 62
46 63
46 69
46 70
47 27
47 28
47 33
47 37
47 39
47 40
47 42
47 43
47 44
47 48
47 49
47 51
47 54
47 55
47 57
47 60
47 61
47 64
47 65
47 67
48 28
48 30
48 32
48 34
48 35
48 37
48 38
48 40
48 41
48 42
48 44
48 45
48 46
48 47
48 50
48 51
48 52
48 54
48 56
48 57
48 58
48 60
48 62
48 64
48 66
48 68
49 26
49 27
49 33
49 37
49 39
49 40
49 43
49 44
49 47
49 51
49 54
49 55
49 57
49 61
49 64
49 65
49 67
49 72
50 31
50 32
50 34
50 35
50 36
50 38
50 41
50 42
50 44
50 45
50 46
50 48
50 51
50 52
50 53
50 54
50 56
50 58
50 59
50 60
50 62
50 63
50 66
50 68
50 69
50 70
50 75
50 76
51 33
51 35
51 37
51 39
51 40
51 42
51 43
51 44
51 47
51 48
51 49
51 50
51 54
51 55
51 56
51 57
51 60
51 61
51 62
51 64
51 65
51 67
51 68
51 71
51 73
51 74
52 34
52 36
52 38
52 41
52 42
52 45
52 46
52 48
52 50
52 53
52 54
52 56
52 58
52 59
52 60
52 62
52 63
52 66
52 69
52 70
52 76
53 34
53 36
53 41
53 45
53 46
53 50
53 52
53 56
53 58
53 59
53 62
53 63
53 69
53 70
54 35
54 37
54 38
54 40
54 42
54 44
54 45
54 47
54 48
54 49
54 50
54 51
54 52
54 55
54 56
54 57
54 58
54 60
54 62
54 64
54 66
54 67
54 68
54 71
54 74
54 75
55 33
55 39
55 40
55 43
55 44
55 47
55 49
55 51
55 54
55 57
55 61
55 64
55 65
55 67
55 71
55 72
55 73
56 35
56 38
56 41
56 42
56 44
56 45
56 46
56 48
56 50
56 51
56 52
56 53
56 54
56 57
56 58
56 59
56 60
56 62
56 63
56 64
56 66
56 68
56 69
56 70
56 71
56 74
56 75
56 76
56 78
57 37
57 40
57 44
57 47
57 48
57 49
57 51
57 54
57 55
57 56
57 60
57 61
57 62
57 64
57 65
57 66
57 67
57 68
57 71
57 72
57 73
57 74
57 75
57 80
58 38
58 41
58 42
58 45
58 46
58 48
58 50
58 52
58 53
58 54
58 56
58 59
58 60
58 62
58 63
58 66
58 68
58 69
58 70
58 75
58 76
58 77
58 78
59 41
59 45
59 46
59 50
59 52
59 53
59 56
59 58
59 60
59 62
59 63
59 66
59 69
59 70
59 76
59 77
60 42
60 44
60 45
60 47
60 48
60 50
60 51
60 52
60 54
60 56
60 57
60 58
60 59
60 62
60 63
60 64
60 66
60 67
60 68
60 69
60 71
60 73
60 74
60 75
60 76
60 78
60 80
61 39
61 40
61 43
61 47
61 49
61 51
61 55
61 57
61 64
61 65
61 67
61 71
61 72
61 73
61 79
61 80
62 42
62 44
62 45
62 46
62 48
62 50
62 51
62 52
62 53
62 54
62 56
62 57
62 58
62 59
62 60
62 63
62 64
62 66
62 68
62 69
62 70
62 71
62 74
62 75
62 76
62 77
62 78
63 45
63 46
63 50
63 52
63 53
63 56
63 58
63 59
63 60
63 62
63 66
63 68
63 69
63 70
63 75
63 76
63 77
63 78
64 44
64 47
64 48
64 49
64 51
64 54
64 55
64 56
64 57
64 60
64 61
64 62
64 65
64 66
64 67
64 68
64 71
64 72
64 73
64 74
64 75
64 78
64 79
64 80
65 47
65 49
65 51
65 55
65 57
65 61
65 64
65 67
65 71
65 72
65 73
65 79
65 80
66 45
66 48
66 50
66 52
66 54
66 56
66 57
66 58
66 59
66 60
66 62
66 63
66 64
66 68
66 69
66 70
66 71
66 74
66 75
66 76
66 77
66 78
67 47
67 49
67 51
67 54
67 55
67 57
67 60
67 61
67 64
67 65
67 68
67 71
67 72
67 73
67 74
67 75
67 79
67 80
68 48
68 50
68 51
68 54
68 56
68 57
68 58
68 60
68 62
68 63
68 64
68 66
68 67
68 69
68 71
68 73
68 74
68 75
68 76
68 78
68 80
69 45
69 46
69 50
69 52
69 53
69 56
69 58
69 59
69 60
69 62
69 63
69 66
69 68
69 70
69 74
69 75
69 76
69 77
69 78
70 46
70 50
70 52
70 53
70 56
70 58
70 59
70 62
70 63
70 66
70 69
70 75
70 76
70 77
70 78
71 51
71 54
71 55
71 56
71 57
71 60
71 61
71 62
71 64
71 65
71 66
71 67
71 68
71 72
71 73
71 74
71 75
71 78
71 79
71 80
72 49
72 55
72 57
72 61
72 64
72 65
72 67
72 71
72 73
72 79
72 80
73 51
73 55
73 57
73 60
73 61
73 64
73 65
73 67
73 68
73 71
73 72
73 74
73 75
73 79
73 80
74 51
74 54
74 56
74 57
74 60
74 62
74 64
74 66
74 67
74 68
74 69
74 71
74 73
74 75
74 76
74 78
74 80
75 50
75 54
75 56
75 57
75 58
75 60
75 62
75 63
75 64
75 66
75 67
75 68
75 69
75 70
75 71
75 73
75 74
75 76
75 77
75 78
75 80
76 50
76 52
76 56
76 58
76 59
76 60
76 62
76 63
76 66
76 68
76 69
76 70
76 74
76 75
76 77
76 78
77 58
77 59
77 62
77 63
77 66
77 69
77 70
77 75
77 76
77 78
78 56
78 58
78 60
78 62
78 63
78 64
78 66
78 68
78 69
78 70
78 71
78 74
78 75
78 76
78 77
78 80
79 61
79 64
79 65
79 67
79 71
79 72
79 73
79 80
80 57
80 60
80 61
80 64
80 65
80 67
80 68
80 71
80 72
80 73
80 74
80 75
80 78
80 79
