1 2
1 3
1 5
1 8
1 9
1 10
1 14
1 17
2 1
2 9
2 10
2 14
2 16
3 1
3 4
3 5
3 6
3 8
3 10
3 12
3 13
3 17
4 3
4 6
4 7
4 8
4 11
4 12
4 13
4 15
4 18
4 19
5 1
5 3
5 6
5 8
5 10
5 12
5 13
5 14
5 17
5 20
6 3
6 4
6 5
6 7
6 8
6 11
6 12
6 13
6 15
6 18
6 19
6 20
7 4
7 6
7 11
7 12
7 15
7 18
7 21
7 24
8 1
8 3
8 4
8 5
8 6
8 10
8 11
8 12
8 13
8 17
8 18
8 19
8 20
9 1
9 2
9 10
9 14
9 16
9 22
9 23
10 1
10 2
10 3
10 5
10 8
10 9
10 13
10 14
10 16
10 17
10 20
10 22
10 25
11 4
11 6
11 7
11 8
11 12
11 15
11 18
11 19
11 21
11 24
11 27
12 3
12 4
12 5
12 6
12 7
12 8
12 11
12 13
12 15
12 17
12 18
12 19
12 20
12 27
12 28
13 3
13 4
13 5
13 6
13 8
13 10
13 12
13 14
13 17
13 18
13 19
13 20
13 22
13 25
13 28
13 30
13 32
14 1
14 2
14 5
14 9
14 10
14 13
14 16
14 17
14 22
14 23
14 25
14 29
14 31
15 4
15 6
15 7
15 11
15 12
15 18
15 19
15 21
15 24
15 26
15 27
15 33
16 2
16 9
16 10
16 14
16 22
16 23
16 29
16 31
17 1
17 3
17 5
17 8
17 10
17 12
17 13
17 14
17 19
17 20
17 22
17 25
17 30
17 31
17 32
18 4
18 6
18 7
18 8
18 11
18 12
18 13
18 15
18 19
18 20
18 21
18 24
18 27
18 28
18 30
18 33
18 37
19 4
19 6
19 8
19 11
19 12
19 13
19 15
19 17
19 18
19 20
19 24
19 25
19 27
19 28
19 30
19 37
20 5
20 6
20 8
20 10
20 12
20 13
20 17
20 18
20 19
20 22
20 25
20 28
20 30
20 31
20 32
20 35
21 7
21 11
21 15
21 18
21 24
21 26
21 27
21 33
21 39
22 9
22 10
22 13
22 14
22 16
22 17
22 20
22 23
22 25
22 29
22 30
22 31
22 32
22 34
22 36
22 38
22 41
23 9
23 14
23 16
23 22
23 29
23 31
23 34
23 36
24 7
24 11
24 15
24 18
24 19
24 21
24 26
24 27
24 28
24 33
24 39
24 40
25 10
25 13
25 14
25 17
25 19
25 20
25 22
25 28
25 29
25 30
25 31
25 32
25 34
25 35
25 38
25 41
25 42
26 15
26 21
26 24
26 27
26 33
26 39
26 40
26 43
27 11
27 12
27 15
27 18
27 19
27 21
27 24
27 26
27 28
27 33
27 37
27 39
27 40
28 12
28 13
28 18
28 19
28 20
28 24
28 25
28 27
28 30
28 32
28 33
28 35
28 37
28 40
28 42
28 44
29 14
29 16
29 22
29 23
29 25
29 31
29 32
29 34
29 36
29 38
29 41
29 46
30 13
30 17
30 18
30 19
30 20
30 22
30 25
30 28
30 31
30 32
30 34
30 35
30 37
30 38
30 42
30 44
31 14
31 16
31 17
31 20
31 22
31 23
31 25
31 29
31 30
31 32
31 34
31 35
31 36
31 38
31 41
31 42
31 45
31 46
32 13
32 17
32 20
32 22
32 25
32 28
32 29
32 30
32 31
32 34
32 35
32 38
32 41
32 42
32 45
33 15
33 18
33 21
33 24
33 26
33 27
33 28
33 37
33 39
33 40
33 43
33 44
33 47
33 49
34 22
34 23
34 25
34 29
34 30
34 31
34 32
34 35
34 36
34 38
34 41
34 42
34 45
34 46
34 50
35 20
35 25
35 28
35 30
35 31
35 32
35 34
35 37
35 38
35 41
35 42
35 44
35 45
35 48
36 22
36 23
36 29
36 31
36 34
36 38
36 41
36 45
36 46
37 18
37 19
37 27
37 28
37 30
37 33
37 35
37 40
37 42
37 44
37 47
37 48
37 51
38 22
38 25
38 29
38 30
38 31
38 32
38 34
38 35
38 36
38 41
38 42
38 44
38 45
38 46
38 48
38 50
39 21
39 24
39 26
39 27
39 33
39 40
39 43
39 47
39 49
40 24
40 26
40 27
40 28
40 33
40 37
40 39
40 43
40 44
40 47
40 49
40 51
41 22
41 25
41 29
41 31
41 32
41 34
41 35
41 36
41 38
41 42
41 45
41 46
41 50
41 52
41 53
42 25
42 28
42 30
42 31
42 32
42 34
42 35
42 37
42 38
42 41
42 44
42 45
42 48
42 50
42 54
42 56
43 26
43 33
43 39
43 40
43 47
43 49
43 55
44 28
44 30
44 33
44 35
44 37
44 38
44 40
44 42
44 47
44 48
44 51
44 54
44 57
44 60
45 31
45 32
45 34
45 35
45 36
45 38
45 41
45 42
45 46
45 48
45 50
45 52
45 53
45 54
45 56
45 58
45 59
45 62
46 29
46 31
46 34
46 36
46 38
46 41
46 45
46 50
46 52
46 53
46 58
46 59
47 33
47 37
47 39
47 40
47 43
47 44
47 49
47 51
47 54
47 55
47 57
47 61
48 35
48 37
48 38
48 42
48 44
48 45
48 50
48 51
48 54
48 56
48 57
48 58
48 60
48 62
49 33
49 39
49 40
49 43
49 47
49 51
49 55
49 57
49 61
49 65
50 34
50 38
50 41
50 42
50 45
50 46
50 48
50 52
50 53
50 54
50 56
50 58
50 59
50 60
50 62
50 63
50 66
50 69
51 37
51 40
51 44
51 47
51 48
51 49
51 54
51 55
51 57
51 60
51 61
51 64
51 67
52 41
52 45
52 46
52 50
52 53
52 56
52 58
52 59
52 62
52 63
52 69
52 70
53 41
53 45
53 46
53 50
53 52
53 58
53 59
53 63
53 70
54 42
54 44
54 45
54 47
54 48
54 50
54 51
54 56
54 57
54 60
54 62
54 64
54 66
54 68
55 43
55 47
55 49
55 51
55 57
55 61
55 64
55 65
55 67
55 72
55 73
56 42
56 45
56 48
56 50
56 52
56 54
56 58
56 59
56 60
56 62
56 63
56 66
56 68
56 69
56 75
57 44
57 47
57 48
57 49
57 51
57 54
57 55
57 60
57 61
57 64
57 67
57 68
57 71
57 73
57 74
58 45
58 46
58 48
58 50
58 52
58 53
58 56
58 59
58 60
58 62
58 63
58 66
58 69
58 70
58 76
59 45
59 46
59 50
59 52
59 53
59 56
59 58
59 62
59 63
59 66
59 69
59 70
59 76
59 77
60 44
60 48
60 50
60 51
60 54
60 56
60 57
60 58
60 62
60 64
60 66
60 68
60 71
60 74
60 75
61 47
61 49
61 51
61 55
61 57
61 64
61 65
61 67
61 71
61 72
61 73
62 45
62 48
62 50
62 52
62 54
62 56
62 58
62 59
62 60
62 63
62 66
62 68
62 69
62 74
62 75
62 76
62 78
63 50
63 52
63 53
63 56
63 58
63 59
63 62
63 66
63 69
63 70
63 76
63 77
64 51
64 54
64 55
64 57
64 60
64 61
64 65
64 67
64 68
64 71
64 72
64 73
64 74
64 75
64 80
65 49
65 55
65 61
65 64
65 67
65 72
65 73
65 79
66 50
66 54
66 56
66 58
66 59
66 60
66 62
66 63
66 68
66 69
66 70
66 74
66 75
66 76
66 77
66 78
67 51
67 55
67 57
67 61
67 64
67 65
67 68
67 71
67 72
67 73
67 74
67 79
67 80
68 54
68 56
68 57
68 60
68 62
68 64
68 66
68 67
68 71
68 74
68 75
68 76
68 78
68 80
69 50
69 52
69 56
69 58
69 59
69 62
69 63
69 66
69 70
69 75
69 76
69 77
69 78
70 52
70 53
70 58
70 59
70 63
70 66
70 69
70 76
70 77
71 57
71 60
71 61
71 64
71 67
71 68
71 72
71 73
71 74
71 75
71 78
71 80
72 55
72 61
72 64
72 65
72 67
72 71
72 73
72 79
72 80
73 55
73 57
73 61
73 64
73 65
73 67
73 71
73 72
73 74
73 79
73 80
74 57
74 60
74 62
74 64
74 66
74 67
74 68
74 71
74 73
74 75
74 76
74 78
74 80
75 56
75 60
75 62
75 64
75 66
75 68
75 69
75 71
75 74
75 76
75 78
75 80
76 58
76 59
76 62
76 63
76 66
76 68
76 69
76 70
76 74
76 75
76 77
76 78
77 59
77 63
77 66
77 69
77 70
77 76
77 78
78 62
78 66
78 68
78 69
78 71
78 74
78 75
78 76
78 77
78 80
79 65
79 67
79 72
79 73
79 80
80 64
80 67
80 68
80 71
80 72
80 73
80 74
80 75
80 78
80 79
