1 3
1 9
2 5
2 6
2 7
2 10
3 1
3 6
3 9
3 11
3 13
4 8
5 2
5 7
5 8
5 10
5 12
5 14
6 2
6 3
6 7
6 10
6 11
6 15
7 2
7 5
7 6
7 10
7 11
7 15
8 4
8 5
8 12
8 16
9 1
9 3
9 13
9 17
10 2
10 5
10 6
10 7
10 12
10 14
10 15
11 3
11 6
11 7
11 13
11 15
12 5
12 8
12 10
12 14
12 18
13 3
13 9
13 11
13 17
13 19
14 5
14 10
14 12
14 15
14 18
14 20
14 23
15 6
15 7
15 10
15 11
15 14
15 20
15 21
16 8
16 18
16 25
16 28
17 9
17 13
17 19
17 22
17 29
18 12
18 14
18 16
18 25
18 26
18 28
19 13
19 17
19 22
19 24
19 29
20 14
20 15
20 21
20 23
20 24
20 27
21 15
21 20
21 23
21 24
21 27
21 31
22 17
22 19
22 29
22 30
23 14
23 20
23 21
23 25
23 26
23 27
23 32
24 19
24 20
24 21
24 29
24 31
25 16
25 18
25 23
25 26
25 28
25 33
25 34
26 18
26 23
26 25
26 27
26 28
26 32
26 34
27 20
27 21
27 23
27 26
27 31
27 32
27 35
28 16
28 18
28 25
28 26
28 33
28 34
29 17
29 19
29 22
29 24
29 30
29 36
30 22
30 29
30 36
31 21
31 24
31 27
31 35
31 36
32 23
32 26
32 27
32 34
32 35
32 40
33 25
33 28
33 34
33 41
34 25
34 26
34 28
34 32
34 33
34 39
34 41
35 27
35 31
35 32
35 42
36 29
36 30
36 31
36 37
36 38
37 36
37 38
37 45
37 46
37 49
38 36
38 37
38 43
38 46
39 34
39 40
39 41
39 42
39 47
39 48
40 32
40 39
40 41
40 42
40 44
40 47
40 48
41 33
41 34
41 39
41 40
41 47
42 35
42 39
42 40
42 43
42 44
42 50
43 38
43 42
43 44
43 46
43 50
43 52
44 40
44 42
44 43
44 48
44 50
44 56
45 37
45 46
45 49
45 54
46 37
46 38
46 43
46 45
46 49
46 52
46 54
46 57
47 39
47 40
47 41
47 48
47 51
47 53
48 39
48 40
48 44
48 47
48 51
48 53
48 55
49 37
49 45
49 46
49 54
49 57
49 59
50 42
50 43
50 44
50 52
50 56
50 57
50 58
51 47
51 48
51 53
51 55
52 43
52 46
52 50
52 56
52 57
52 58
53 47
53 48
53 51
53 55
54 45
54 46
54 49
54 57
54 59
55 48
55 51
55 53
55 56
56 44
56 50
56 52
56 55
56 58
57 46
57 49
57 50
57 52
57 54
57 58
58 50
58 52
58 56
58 57
59 49
59 54
