1 2
1 5
1 6
1 7
1 10
2 1
2 7
2 8
3 4
3 8
3 9
3 11
3 12
4 3
4 9
4 11
5 1
5 6
5 7
5 10
5 13
6 1
6 5
6 13
6 14
7 1
7 2
7 5
7 10
7 13
7 15
8 2
8 3
8 12
9 3
9 4
9 11
9 12
9 16
9 17
10 1
10 5
10 7
10 13
10 15
10 18
11 3
11 4
11 9
11 16
11 17
11 20
12 3
12 8
12 9
12 17
13 5
13 6
13 7
13 10
13 14
13 15
13 19
13 21
14 6
14 13
14 19
14 22
15 7
15 10
15 13
15 18
15 21
16 9
16 11
16 17
16 20
17 9
17 11
17 12
17 16
17 20
18 10
18 15
18 21
18 23
18 28
19 13
19 14
19 21
19 22
19 24
20 11
20 16
20 17
20 25
20 29
20 30
21 13
21 15
21 18
21 19
21 22
21 24
21 27
21 28
22 14
22 19
22 21
22 24
23 18
23 26
23 28
24 19
24 21
24 22
24 27
24 32
25 20
25 29
25 30
26 23
26 30
26 34
27 21
27 24
27 28
27 31
27 33
28 18
28 21
28 23
28 27
28 31
28 33
28 34
29 20
29 25
29 30
29 35
30 20
30 25
30 26
30 29
30 35
31 27
31 28
31 33
31 34
32 24
33 27
33 28
33 31
33 37
34 26
34 28
34 31
34 36
34 40
35 29
35 30
35 38
35 39
36 34
36 39
36 40
37 33
37 40
37 41
37 43
38 35
38 39
38 42
39 35
39 36
39 38
39 42
39 45
40 34
40 36
40 37
40 44
41 37
41 43
42 38
42 39
42 45
42 48
43 37
43 41
43 46
43 49
43 53
44 40
44 45
44 46
44 50
44 51
45 39
45 42
45 44
45 48
45 51
46 43
46 44
46 49
46 50
46 53
47 49
47 56
48 42
48 45
48 52
48 55
48 58
49 43
49 46
49 47
49 53
49 56
50 44
50 46
50 51
50 53
50 54
50 57
51 44
51 45
51 50
51 54
51 55
52 48
52 55
52 58
53 43
53 46
53 49
53 50
53 57
54 50
54 51
54 57
55 48
55 51
55 52
55 58
56 47
56 49
57 50
57 53
57 54
58 48
58 52
58 55
