1 3
1 4
1 8
1 10
1 13
1 15
2 5
2 7
2 9
2 12
2 14
3 1
3 8
3 10
3 15
4 1
4 6
4 8
4 11
4 13
4 15
5 2
5 6
5 7
5 9
5 11
5 12
5 16
6 4
6 5
6 9
6 11
6 12
6 13
6 17
7 2
7 5
7 9
7 12
7 14
7 20
8 1
8 3
8 4
8 10
8 13
8 15
8 18
9 2
9 5
9 6
9 7
9 11
9 12
9 14
9 16
9 20
9 22
10 1
10 3
10 8
10 15
10 18
10 19
11 4
11 5
11 6
11 9
11 12
11 13
11 16
11 17
11 21
11 23
12 2
12 5
12 6
12 7
12 9
12 11
12 14
12 16
12 17
12 20
12 22
12 23
13 1
13 4
13 6
13 8
13 11
13 15
13 17
13 18
13 21
14 2
14 7
14 9
14 12
14 16
14 20
14 22
14 24
14 25
15 1
15 3
15 4
15 8
15 10
15 13
15 18
15 19
15 21
15 26
16 5
16 9
16 11
16 12
16 14
16 17
16 20
16 22
16 23
16 25
16 27
17 6
17 11
17 12
17 13
17 16
17 21
17 22
17 23
17 27
17 29
18 8
18 10
18 13
18 15
18 19
18 21
18 26
18 28
18 30
19 10
19 15
19 18
19 28
19 33
20 7
20 9
20 12
20 14
20 16
20 22
20 24
20 25
20 31
20 32
21 11
21 13
21 15
21 17
21 18
21 23
21 26
21 29
21 30
22 9
22 12
22 14
22 16
22 17
22 20
22 23
22 24
22 25
22 27
22 32
23 11
23 12
23 16
23 17
23 21
23 22
23 25
23 27
23 29
24 14
24 20
24 22
24 25
24 31
24 32
24 36
24 37
25 14
25 16
25 20
25 22
25 23
25 24
25 27
25 31
25 32
25 34
25 36
25 37
26 15
26 18
26 21
26 28
26 29
26 30
26 33
26 35
26 38
27 16
27 17
27 22
27 23
27 25
27 29
27 32
27 34
27 37
27 40
28 18
28 19
28 26
28 30
28 33
28 38
28 39
29 17
29 21
29 23
29 26
29 27
29 30
29 34
29 35
29 40
29 43
30 18
30 21
30 26
30 28
30 29
30 33
30 35
30 38
30 41
30 44
31 20
31 24
31 25
31 32
31 36
31 37
31 42
32 20
32 22
32 24
32 25
32 27
32 31
32 34
32 36
32 37
32 40
32 42
33 19
33 26
33 28
33 30
33 35
33 38
33 39
33 41
34 25
34 27
34 29
34 32
34 37
34 40
34 42
34 43
34 45
35 26
35 29
35 30
35 33
35 38
35 40
35 41
35 43
35 44
35 48
36 24
36 25
36 31
36 32
36 37
36 42
36 47
37 24
37 25
37 27
37 31
37 32
37 34
37 36
37 40
37 42
37 45
37 47
38 26
38 28
38 30
38 33
38 35
38 39
38 41
38 44
38 46
38 48
39 28
39 33
39 38
39 41
39 46
40 27
40 29
40 32
40 34
40 35
40 37
40 42
40 43
40 44
40 45
40 47
40 49
41 30
41 33
41 35
41 38
41 39
41 43
41 44
41 46
41 48
41 50
41 53
42 31
42 32
42 34
42 36
42 37
42 40
42 45
42 47
42 51
42 52
43 29
43 34
43 35
43 40
43 41
43 44
43 45
43 48
43 49
43 50
43 56
44 30
44 35
44 38
44 40
44 41
44 43
44 48
44 49
44 50
44 56
45 34
45 37
45 40
45 42
45 43
45 47
45 49
45 52
45 54
45 57
46 38
46 39
46 41
46 48
46 53
46 55
46 60
46 62
47 36
47 37
47 40
47 42
47 45
47 51
47 52
47 54
47 59
48 35
48 38
48 41
48 43
48 44
48 46
48 49
48 50
48 53
48 55
48 56
48 58
48 60
49 40
49 43
49 44
49 45
49 48
49 50
49 52
49 54
49 56
49 57
49 61
50 41
50 43
50 44
50 48
50 49
50 53
50 56
50 57
50 58
50 60
50 64
51 42
51 47
51 52
51 59
52 42
52 45
52 47
52 49
52 51
52 54
52 57
52 59
52 61
52 67
53 41
53 46
53 48
53 50
53 55
53 58
53 60
53 62
53 65
54 45
54 47
54 49
54 52
54 56
54 57
54 61
54 63
54 66
55 46
55 48
55 53
55 58
55 60
55 62
55 65
56 43
56 44
56 48
56 49
56 50
56 54
56 57
56 58
56 63
56 64
57 45
57 49
57 50
57 52
57 54
57 56
57 58
57 61
57 63
57 64
57 66
58 48
58 50
58 53
58 55
58 56
58 57
58 60
58 62
58 63
58 64
59 47
59 51
59 52
59 61
59 67
59 68
60 46
60 48
60 50
60 53
60 55
60 58
60 62
60 64
60 65
61 49
61 52
61 54
61 57
61 59
61 63
61 66
61 67
62 46
62 53
62 55
62 58
62 60
62 65
63 54
63 56
63 57
63 58
63 61
63 64
63 66
64 50
64 56
64 57
64 58
64 60
64 63
65 53
65 55
65 60
65 62
66 54
66 57
66 61
66 63
66 67
67 52
67 59
67 61
67 66
67 68
68 59
68 67
