1 2
1 4
1 5
1 6
1 8
1 9
1 12
1 15
2 1
2 4
2 7
2 8
2 12
2 13
2 14
2 18
2 19
3 6
3 10
3 11
3 16
3 17
4 1
4 2
4 5
4 8
4 9
4 12
4 13
4 15
4 18
5 1
5 4
5 6
5 8
5 9
5 11
5 12
5 15
5 17
5 18
6 1
6 3
6 5
6 9
6 10
6 11
6 15
6 16
6 17
7 2
7 8
7 13
7 14
7 18
7 19
7 20
7 23
8 1
8 2
8 4
8 5
8 7
8 12
8 13
8 14
8 15
8 18
8 19
9 1
9 4
9 5
9 6
9 11
9 12
9 15
9 16
9 17
9 18
9 22
10 3
10 6
10 11
10 16
10 17
10 21
10 24
11 3
11 5
11 6
11 9
11 10
11 15
11 16
11 17
11 21
11 24
12 1
12 2
12 4
12 5
12 8
12 9
12 13
12 15
12 17
12 18
12 19
12 22
13 2
13 4
13 7
13 8
13 12
13 14
13 18
13 19
13 20
13 23
13 25
14 2
14 7
14 8
14 13
14 19
14 20
14 23
14 27
15 1
15 4
15 5
15 6
15 8
15 9
15 11
15 12
15 17
15 18
15 22
15 26
15 29
16 3
16 6
16 9
16 10
16 11
16 17
16 21
16 24
16 26
16 28
16 30
17 3
17 5
17 6
17 9
17 10
17 11
17 12
17 15
17 16
17 21
17 22
17 24
17 26
17 30
18 2
18 4
18 5
18 7
18 8
18 9
18 12
18 13
18 15
18 19
18 22
18 23
18 25
18 29
18 31
19 2
19 7
19 8
19 12
19 13
19 14
19 18
19 20
19 23
19 25
19 27
19 31
19 33
20 7
20 13
20 14
20 19
20 23
20 25
20 27
20 33
21 10
21 11
21 16
21 17
21 24
21 26
21 28
21 30
21 37
21 38
22 9
22 12
22 15
22 17
22 18
22 25
22 26
22 29
22 31
22 32
22 36
22 39
23 7
23 13
23 14
23 18
23 19
23 20
23 25
23 27
23 31
23 33
23 34
23 40
24 10
24 11
24 16
24 17
24 21
24 26
24 28
24 30
24 35
24 36
24 37
24 38
24 43
25 13
25 18
25 19
25 20
25 22
25 23
25 27
25 29
25 31
25 32
25 33
25 34
25 39
25 40
25 44
26 15
26 16
26 17
26 21
26 22
26 24
26 28
26 29
26 30
26 32
26 35
26 36
26 37
26 39
26 41
26 42
27 14
27 19
27 20
27 23
27 25
27 31
27 33
27 34
27 40
28 16
28 21
28 24
28 26
28 30
28 35
28 37
28 38
28 43
29 15
29 18
29 22
29 25
29 26
29 31
29 32
29 34
29 35
29 36
29 39
29 41
29 44
30 16
30 17
30 21
30 24
30 26
30 28
30 35
30 36
30 37
30 38
30 42
30 43
30 48
31 18
31 19
31 22
31 23
31 25
31 27
31 29
31 32
31 33
31 34
31 36
31 39
31 40
31 41
31 44
31 45
32 22
32 25
32 26
32 29
32 31
32 34
32 35
32 36
32 39
32 41
32 42
32 44
32 46
32 47
33 19
33 20
33 23
33 25
33 27
33 31
33 34
33 40
33 44
33 45
33 50
34 23
34 25
34 27
34 29
34 31
34 32
34 33
34 39
34 40
34 41
34 44
34 45
34 46
34 49
34 50
35 24
35 26
35 28
35 29
35 30
35 32
35 36
35 37
35 38
35 39
35 41
35 42
35 43
35 47
35 48
35 52
36 22
36 24
36 26
36 29
36 30
36 31
36 32
36 35
36 37
36 39
36 41
36 42
36 43
36 44
36 46
36 47
36 52
37 21
37 24
37 26
37 28
37 30
37 35
37 36
37 38
37 42
37 43
37 48
37 51
37 52
37 56
38 21
38 24
38 28
38 30
38 35
38 37
38 42
38 43
38 48
38 51
39 22
39 25
39 26
39 29
39 31
39 32
39 34
39 35
39 36
39 40
39 41
39 42
39 44
39 45
39 46
39 47
39 49
39 54
39 55
40 23
40 25
40 27
40 31
40 33
40 34
40 39
40 44
40 45
40 49
40 50
40 53
40 57
41 26
41 29
41 31
41 32
41 34
41 35
41 36
41 39
41 42
41 44
41 46
41 47
41 49
41 52
41 54
41 55
41 58
42 26
42 30
42 32
42 35
42 36
42 37
42 38
42 39
42 41
42 43
42 46
42 47
42 48
42 52
42 54
42 56
42 58
43 24
43 28
43 30
43 35
43 36
43 37
43 38
43 42
43 47
43 48
43 51
43 52
43 56
43 58
43 61
44 25
44 29
44 31
44 32
44 33
44 34
44 36
44 39
44 40
44 41
44 45
44 46
44 47
44 49
44 50
44 54
44 55
44 57
45 31
45 33
45 34
45 39
45 40
45 44
45 46
45 49
45 50
45 53
45 55
45 57
45 60
46 32
46 34
46 36
46 39
46 41
46 42
46 44
46 45
46 47
46 49
46 52
46 54
46 55
46 58
46 59
46 64
47 32
47 35
47 36
47 39
47 41
47 42
47 43
47 44
47 46
47 48
47 52
47 54
47 56
47 58
47 59
47 62
48 30
48 35
48 37
48 38
48 42
48 43
48 47
48 51
48 52
48 56
48 58
48 61
48 62
48 66
48 67
49 34
49 39
49 40
49 41
49 44
49 45
49 46
49 50
49 53
49 54
49 55
49 57
49 59
49 60
49 63
49 64
49 65
50 33
50 34
50 40
50 44
50 45
50 49
50 53
50 55
50 57
50 60
50 63
50 65
51 37
51 38
51 43
51 48
51 52
51 56
51 61
51 66
52 35
52 36
52 37
52 41
52 42
52 43
52 46
52 47
52 48
52 51
52 54
52 56
52 58
52 59
52 61
52 62
52 66
52 67
53 40
53 45
53 49
53 50
53 57
53 60
53 63
53 69
54 39
54 41
54 42
54 44
54 46
54 47
54 49
54 52
54 55
54 58
54 59
54 62
54 64
54 65
54 68
54 71
55 39
55 41
55 44
55 45
55 46
55 49
55 50
55 54
55 57
55 59
55 60
55 64
55 65
55 70
55 71
56 37
56 42
56 43
56 47
56 48
56 51
56 52
56 58
56 61
56 62
56 66
56 67
56 72
56 74
57 40
57 44
57 45
57 49
57 50
57 53
57 55
57 60
57 63
57 64
57 65
57 69
57 70
58 41
58 42
58 43
58 46
58 47
58 48
58 52
58 54
58 56
58 59
58 61
58 62
58 64
58 67
58 68
58 73
59 46
59 47
59 49
59 52
59 54
59 55
59 58
59 62
59 64
59 65
59 67
59 68
59 70
59 71
59 73
59 77
60 45
60 49
60 50
60 53
60 55
60 57
60 63
60 64
60 65
60 69
60 70
60 71
60 75
60 76
61 43
61 48
61 51
61 52
61 56
61 58
61 62
61 66
61 67
61 72
61 73
61 74
62 47
62 48
62 52
62 54
62 56
62 58
62 59
62 61
62 66
62 67
62 68
62 72
62 73
62 74
63 49
63 50
63 53
63 57
63 60
63 65
63 69
63 70
63 75
64 46
64 49
64 54
64 55
64 57
64 58
64 59
64 60
64 65
64 68
64 69
64 70
64 71
64 76
64 77
65 49
65 50
65 54
65 55
65 57
65 59
65 60
65 63
65 64
65 69
65 70
65 71
65 75
65 76
65 77
66 48
66 51
66 52
66 56
66 61
66 62
66 67
66 72
66 73
66 74
67 48
67 52
67 56
67 58
67 59
67 61
67 62
67 66
67 68
67 72
67 73
67 74
68 54
68 58
68 59
68 62
68 64
68 67
68 71
68 73
68 74
68 77
69 53
69 57
69 60
69 63
69 64
69 65
69 70
69 75
69 76
70 55
70 57
70 59
70 60
70 63
70 64
70 65
70 69
70 71
70 75
70 76
70 77
71 54
71 55
71 59
71 60
71 64
71 65
71 68
71 70
71 73
71 76
71 77
72 56
72 61
72 62
72 66
72 67
72 73
72 74
73 58
73 59
73 61
73 62
73 66
73 67
73 68
73 71
73 72
73 74
73 77
74 56
74 61
74 62
74 66
74 67
74 68
74 72
74 73
75 60
75 63
75 65
75 69
75 70
75 76
76 60
76 64
76 65
76 69
76 70
76 71
76 75
76 77
77 59
77 64
77 65
77 68
77 70
77 71
77 73
77 76
