1 5
1 9
1 15
1 17
1 20
2 7
2 10
2 14
2 21
3 4
3 6
3 7
3 10
3 11
3 12
3 13
3 16
3 19
3 22
4 3
4 6
4 7
4 8
4 10
4 11
4 12
4 13
4 16
4 18
4 19
4 22
4 23
5 1
5 6
5 8
5 9
5 13
5 15
5 17
5 18
5 20
6 3
6 4
6 5
6 8
6 11
6 12
6 13
6 17
6 18
6 22
6 23
7 2
7 3
7 4
7 10
7 11
7 12
7 14
7 16
7 19
7 21
7 22
7 26
8 4
8 5
8 6
8 11
8 12
8 13
8 15
8 17
8 18
8 23
8 25
9 1
9 5
9 15
9 17
9 20
9 24
10 2
10 3
10 4
10 7
10 12
10 14
10 16
10 19
10 21
10 22
10 26
11 3
11 4
11 6
11 7
11 8
11 12
11 13
11 16
11 17
11 18
11 19
11 22
11 23
11 28
12 3
12 4
12 6
12 7
12 8
12 10
12 11
12 13
12 16
12 18
12 19
12 22
12 23
12 26
12 28
12 30
13 3
13 4
13 5
13 6
13 8
13 11
13 12
13 15
13 17
13 18
13 22
13 23
13 25
13 27
14 2
14 7
14 10
14 16
14 19
14 21
14 26
14 29
14 31
15 1
15 5
15 8
15 9
15 13
15 17
15 18
15 20
15 24
15 25
15 27
16 3
16 4
16 7
16 10
16 11
16 12
16 14
16 19
16 21
16 22
16 23
16 26
16 28
16 30
17 1
17 5
17 6
17 8
17 9
17 11
17 13
17 15
17 18
17 20
17 23
17 24
17 25
17 27
17 32
17 33
17 34
18 4
18 5
18 6
18 8
18 11
18 12
18 13
18 15
18 17
18 22
18 23
18 25
18 27
18 30
18 32
18 33
19 3
19 4
19 7
19 10
19 11
19 12
19 14
19 16
19 21
19 22
19 23
19 26
19 28
19 29
19 30
19 31
20 1
20 5
20 9
20 15
20 17
20 24
20 25
20 27
20 34
21 2
21 7
21 10
21 14
21 16
21 19
21 22
21 26
21 28
21 29
21 31
21 36
22 3
22 4
22 6
22 7
22 10
22 11
22 12
22 13
22 16
22 18
22 19
22 21
22 23
22 26
22 28
22 30
22 31
22 35
22 38
23 4
23 6
23 8
23 11
23 12
23 13
23 16
23 17
23 18
23 19
23 22
23 25
23 27
23 28
23 30
23 32
23 33
23 35
23 37
24 9
24 15
24 17
24 20
24 25
24 27
24 33
24 34
24 39
25 8
25 13
25 15
25 17
25 18
25 20
25 23
25 24
25 27
25 30
25 32
25 33
25 34
25 37
25 39
25 41
26 7
26 10
26 12
26 14
26 16
26 19
26 21
26 22
26 28
26 29
26 30
26 31
26 35
26 36
26 38
26 40
27 13
27 15
27 17
27 18
27 20
27 23
27 24
27 25
27 32
27 33
27 34
27 37
27 39
27 41
27 43
28 11
28 12
28 16
28 19
28 21
28 22
28 23
28 26
28 30
28 31
28 35
28 36
28 38
28 40
28 42
29 14
29 19
29 21
29 26
29 31
29 36
29 40
29 44
30 12
30 16
30 18
30 19
30 22
30 23
30 25
30 26
30 28
30 32
30 33
30 35
30 37
30 38
30 40
30 42
30 46
31 14
31 19
31 21
31 22
31 26
31 28
31 29
31 36
31 38
31 40
31 44
31 47
32 17
32 18
32 23
32 25
32 27
32 30
32 33
32 34
32 35
32 37
32 39
32 41
32 42
32 45
32 46
33 17
33 18
33 23
33 24
33 25
33 27
33 30
33 32
33 34
33 35
33 37
33 39
33 41
33 43
33 45
33 46
33 50
34 17
34 20
34 24
34 25
34 27
34 32
34 33
34 37
34 39
34 41
34 43
34 45
34 49
35 22
35 23
35 26
35 28
35 30
35 32
35 33
35 37
35 38
35 40
35 41
35 42
35 45
35 46
35 48
35 52
36 21
36 26
36 28
36 29
36 31
36 38
36 40
36 44
36 47
36 48
37 23
37 25
37 27
37 30
37 32
37 33
37 34
37 35
37 39
37 41
37 42
37 43
37 45
37 46
37 49
37 50
37 52
38 22
38 26
38 28
38 30
38 31
38 35
38 36
38 40
38 42
38 44
38 46
38 47
38 48
38 51
38 53
39 24
39 25
39 27
39 32
39 33
39 34
39 37
39 41
39 43
39 45
39 49
39 50
39 56
40 26
40 28
40 29
40 30
40 31
40 35
40 36
40 38
40 42
40 44
40 47
40 48
40 51
40 53
40 54
41 25
41 27
41 32
41 33
41 34
41 35
41 37
41 39
41 43
41 45
41 46
41 49
41 50
41 52
41 55
41 56
42 28
42 30
42 32
42 35
42 37
42 38
42 40
42 45
42 46
42 47
42 48
42 50
42 51
42 52
42 53
42 57
43 27
43 33
43 34
43 37
43 39
43 41
43 45
43 49
43 50
43 56
44 29
44 31
44 36
44 38
44 40
44 47
44 48
44 51
44 54
45 32
45 33
45 34
45 35
45 37
45 39
45 41
45 42
45 43
45 46
45 49
45 50
45 52
45 55
45 56
45 57
45 59
46 30
46 32
46 33
46 35
46 37
46 38
46 41
46 42
46 45
46 48
46 50
46 51
46 52
46 53
46 55
46 57
46 60
46 63
47 31
47 36
47 38
47 40
47 42
47 44
47 48
47 51
47 53
47 54
47 61
47 62
47 64
48 35
48 36
48 38
48 40
48 42
48 44
48 46
48 47
48 51
48 52
48 53
48 54
48 57
48 60
48 61
48 64
49 34
49 37
49 39
49 41
49 43
49 45
49 50
49 55
49 56
49 58
49 59
49 65
50 33
50 37
50 39
50 41
50 42
50 43
50 45
50 46
50 49
50 52
50 55
50 56
50 57
50 59
50 63
50 66
51 38
51 40
51 42
51 44
51 46
51 47
51 48
51 52
51 53
51 54
51 57
51 60
51 61
51 62
51 64
51 67
51 70
52 35
52 37
52 41
52 42
52 45
52 46
52 48
52 50
52 51
52 53
52 55
52 57
52 59
52 60
52 61
52 63
52 66
52 69
53 38
53 40
53 42
53 46
53 47
53 48
53 51
53 52
53 54
53 55
53 57
53 60
53 61
53 63
53 64
53 67
53 69
53 72
54 40
54 44
54 47
54 48
54 51
54 53
54 61
54 62
54 64
54 67
54 68
54 70
54 76
55 41
55 45
55 46
55 49
55 50
55 52
55 53
55 56
55 57
55 59
55 60
55 63
55 65
55 66
55 69
55 71
55 74
56 39
56 41
56 43
56 45
56 49
56 50
56 55
56 58
56 59
56 65
56 66
56 71
56 73
56 75
57 42
57 45
57 46
57 48
57 50
57 51
57 52
57 53
57 55
57 59
57 60
57 61
57 63
57 66
57 67
57 69
57 72
57 74
57 77
58 49
58 56
58 59
58 65
58 66
58 73
58 75
58 80
59 45
59 49
59 50
59 52
59 55
59 56
59 57
59 58
59 60
59 63
59 65
59 66
59 69
59 71
59 73
59 74
59 75
60 46
60 48
60 51
60 52
60 53
60 55
60 57
60 59
60 61
60 63
60 64
60 67
60 69
60 70
60 72
60 74
60 77
60 78
61 47
61 48
61 51
61 52
61 53
61 54
61 57
61 60
61 62
61 63
61 64
61 67
61 68
61 69
61 70
61 72
61 76
61 77
61 78
62 47
62 51
62 54
62 61
62 64
62 67
62 68
62 70
62 76
62 79
63 46
63 50
63 52
63 53
63 55
63 57
63 59
63 60
63 61
63 66
63 67
63 69
63 71
63 72
63 74
63 77
63 78
64 47
64 48
64 51
64 53
64 54
64 60
64 61
64 62
64 67
64 68
64 70
64 72
64 76
64 78
64 79
64 82
65 49
65 55
65 56
65 58
65 59
65 66
65 71
65 73
65 75
65 80
65 81
66 50
66 52
66 55
66 56
66 57
66 58
66 59
66 63
66 65
66 69
66 71
66 73
66 74
66 75
66 77
66 80
66 81
66 83
67 51
67 53
67 54
67 57
67 60
67 61
67 62
67 63
67 64
67 68
67 69
67 70
67 72
67 74
67 76
67 77
67 78
67 82
68 54
68 61
68 62
68 64
68 67
68 70
68 76
68 79
68 82
68 84
69 52
69 53
69 55
69 57
69 59
69 60
69 61
69 63
69 66
69 67
69 71
69 72
69 74
69 77
69 78
69 83
70 51
70 54
70 60
70 61
70 62
70 64
70 67
70 68
70 72
70 76
70 78
70 79
70 82
70 84
71 55
71 56
71 59
71 63
71 65
71 66
71 69
71 73
71 74
71 75
71 77
71 80
71 81
71 83
72 53
72 57
72 60
72 61
72 63
72 64
72 67
72 69
72 70
72 74
72 76
72 77
72 78
72 82
72 83
73 56
73 58
73 59
73 65
73 66
73 71
73 75
73 80
73 81
74 55
74 57
74 59
74 60
74 63
74 66
74 67
74 69
74 71
74 72
74 75
74 77
74 78
74 81
74 83
75 56
75 58
75 59
75 65
75 66
75 71
75 73
75 74
75 80
75 81
75 83
76 54
76 61
76 62
76 64
76 67
76 68
76 70
76 72
76 78
76 79
76 82
76 84
77 57
77 60
77 61
77 63
77 66
77 67
77 69
77 71
77 72
77 74
77 78
77 81
77 82
77 83
78 60
78 61
78 63
78 64
78 67
78 69
78 70
78 72
78 74
78 76
78 77
78 82
78 83
78 84
79 62
79 64
79 68
79 70
79 76
79 82
79 84
80 58
80 65
80 66
80 71
80 73
80 75
80 81
81 65
81 66
81 71
81 73
81 74
81 75
81 77
81 80
81 83
82 64
82 67
82 68
82 70
82 72
82 76
82 77
82 78
82 79
82 84
83 66
83 69
83 71
83 72
83 74
83 75
83 77
83 78
83 81
84 68
84 70
84 76
84 78
84 79
84 82
