1 2
1 10
1 13
2 1
2 3
2 4
2 8
2 10
2 14
3 2
3 4
3 8
3 9
3 14
4 2
4 3
4 5
4 8
4 9
5 4
5 6
5 9
5 11
6 5
6 11
6 12
7 13
8 2
8 3
8 4
8 10
8 14
8 15
8 16
9 3
9 4
9 5
9 11
9 16
9 17
10 1
10 2
10 8
10 13
10 14
10 15
11 5
11 6
11 9
11 12
11 18
12 6
12 11
12 18
12 20
13 1
13 7
13 10
13 14
13 15
13 19
14 2
14 3
14 8
14 10
14 13
14 15
14 16
14 21
15 8
15 10
15 13
15 14
15 19
15 21
15 23
16 8
16 9
16 14
16 17
16 21
16 24
17 9
17 16
17 18
17 22
17 24
18 11
18 12
18 17
18 20
18 22
18 26
19 13
19 15
19 23
19 25
20 12
20 18
20 26
21 14
21 15
21 16
21 23
21 24
21 27
22 17
22 18
22 24
22 26
22 31
23 15
23 19
23 21
23 25
23 27
23 28
23 32
24 16
24 17
24 21
24 22
24 27
24 29
24 33
25 19
25 23
25 28
25 30
25 32
26 18
26 20
26 22
26 31
26 35
27 21
27 23
27 24
27 28
27 29
27 34
28 23
28 25
28 27
28 32
28 34
29 24
29 27
29 31
29 33
29 36
30 25
30 32
30 37
31 22
31 26
31 29
31 33
31 35
31 38
32 23
32 25
32 28
32 30
32 34
32 37
32 39
33 24
33 29
33 31
33 36
33 38
33 41
33 43
34 27
34 28
34 32
34 39
34 40
34 41
35 26
35 31
35 38
35 42
35 45
36 29
36 33
36 38
36 41
36 43
37 30
37 32
37 39
37 44
38 31
38 33
38 35
38 36
38 42
38 43
38 45
38 47
39 32
39 34
39 37
39 40
39 44
39 48
39 49
40 34
40 39
40 41
40 46
40 48
41 33
41 34
41 36
41 40
41 43
41 46
41 47
42 35
42 38
42 45
43 33
43 36
43 38
43 41
43 45
43 47
43 50
44 37
44 39
44 49
45 35
45 38
45 42
45 43
45 47
45 50
45 53
46 40
46 41
46 47
46 48
46 51
47 38
47 41
47 43
47 45
47 46
47 50
47 56
48 39
48 40
48 46
48 49
48 51
48 52
48 54
48 57
49 39
49 44
49 48
49 52
49 54
49 55
49 57
50 43
50 45
50 47
50 53
50 56
50 59
50 61
51 46
51 48
51 54
51 63
52 48
52 49
52 54
52 55
52 57
52 60
52 62
53 45
53 50
53 58
53 59
54 48
54 49
54 51
54 52
54 57
54 62
54 64
55 49
55 52
55 57
55 60
55 62
56 47
56 50
56 59
56 61
56 63
56 66
57 48
57 49
57 52
57 54
57 55
57 60
57 62
57 64
57 67
58 53
58 59
58 65
58 68
59 50
59 53
59 56
59 58
59 61
59 65
59 66
59 68
59 70
60 52
60 55
60 57
60 62
60 69
61 50
61 56
61 59
61 63
61 66
61 70
61 71
62 52
62 54
62 55
62 57
62 60
62 64
62 67
62 69
63 51
63 56
63 61
63 64
63 66
63 71
64 54
64 57
64 62
64 63
64 67
65 58
65 59
65 68
66 56
66 59
66 61
66 63
66 68
66 70
66 71
67 57
67 62
67 64
67 69
68 58
68 59
68 65
68 66
68 70
69 60
69 62
69 67
70 59
70 61
70 66
70 68
70 71
71 61
71 63
71 66
71 70
