1 8
2 5
2 6
2 7
2 9
2 11
2 12
3 4
3 5
3 6
3 10
3 13
3 15
4 3
4 8
4 10
4 14
4 15
5 2
5 3
5 6
5 11
5 13
6 2
6 3
6 5
6 7
6 9
6 11
6 12
7 2
7 6
7 9
7 12
8 1
8 4
8 10
8 14
8 17
9 2
9 6
9 7
9 11
9 12
9 16
10 3
10 4
10 8
10 13
10 14
10 15
10 20
10 22
11 2
11 5
11 6
11 9
11 12
11 13
11 16
11 18
11 19
11 21
12 2
12 6
12 7
12 9
12 11
12 16
12 21
12 23
13 3
13 5
13 10
13 11
13 15
13 18
13 19
13 22
14 4
14 8
14 10
14 15
14 17
14 20
14 24
15 3
15 4
15 10
15 13
15 14
15 18
15 19
15 20
15 22
16 9
16 11
16 12
16 21
16 23
16 25
17 8
17 14
17 20
17 24
17 27
18 11
18 13
18 15
18 19
18 21
18 22
18 28
18 29
19 11
19 13
19 15
19 18
19 21
19 22
19 28
19 29
20 10
20 14
20 15
20 17
20 22
20 24
20 26
20 27
20 30
21 11
21 12
21 16
21 18
21 19
21 23
21 25
21 28
21 29
22 10
22 13
22 15
22 18
22 19
22 20
22 24
22 26
22 28
22 32
23 12
23 16
23 21
23 25
23 31
24 14
24 17
24 20
24 22
24 26
24 27
24 30
24 32
24 33
25 16
25 21
25 23
25 29
25 31
26 20
26 22
26 24
26 27
26 28
26 30
26 32
26 33
26 35
27 17
27 20
27 24
27 26
27 30
27 33
27 36
28 18
28 19
28 21
28 22
28 26
28 29
28 32
28 34
28 35
29 18
29 19
29 21
29 25
29 28
29 31
29 34
29 37
30 20
30 24
30 26
30 27
30 32
30 33
30 36
31 23
31 25
31 29
31 37
31 39
32 22
32 24
32 26
32 28
32 30
32 33
32 34
32 35
32 38
32 40
33 24
33 26
33 27
33 30
33 32
33 35
33 36
33 38
33 40
33 43
34 28
34 29
34 32
34 35
34 37
34 38
34 42
34 44
34 45
35 26
35 28
35 32
35 33
35 34
35 38
35 40
35 44
36 27
36 30
36 33
36 41
36 43
37 29
37 31
37 34
37 39
37 42
37 45
38 32
38 33
38 34
38 35
38 40
38 43
38 44
39 31
39 37
39 42
39 45
39 46
39 49
40 32
40 33
40 35
40 38
40 41
40 43
40 44
40 48
40 50
40 51
40 53
41 36
41 40
41 43
41 47
41 48
42 34
42 37
42 39
42 44
42 45
42 46
42 49
42 52
42 54
43 33
43 36
43 38
43 40
43 41
43 47
43 48
43 50
43 53
44 34
44 35
44 38
44 40
44 42
44 45
44 50
44 51
44 52
45 34
45 37
45 39
45 42
45 44
45 49
45 51
45 52
46 39
46 42
46 49
46 54
47 41
47 43
47 48
47 53
48 40
48 41
48 43
48 47
48 50
48 53
48 55
49 39
49 42
49 45
49 46
49 52
49 54
50 40
50 43
50 44
50 48
50 51
50 52
50 53
50 55
50 56
51 40
51 44
51 45
51 50
51 52
51 53
51 55
51 56
52 42
52 44
52 45
52 49
52 50
52 51
52 54
52 56
53 40
53 43
53 47
53 48
53 50
53 51
53 55
53 56
54 42
54 46
54 49
54 52
55 48
55 50
55 51
55 53
55 56
56 50
56 51
56 52
56 53
56 55
