1 2
1 7
1 8
1 10
1 13
1 14
1 15
2 1
2 3
2 4
2 8
2 10
2 13
2 14
2 15
2 16
3 2
3 4
3 5
3 8
3 9
3 10
3 14
3 16
4 2
4 3
4 5
4 8
4 9
4 14
4 16
4 17
5 3
5 4
5 6
5 9
5 11
5 17
5 18
6 5
6 9
6 11
6 12
6 18
7 1
7 13
7 19
8 1
8 2
8 3
8 4
8 9
8 10
8 13
8 14
8 15
8 16
8 17
8 21
9 3
9 4
9 5
9 6
9 8
9 11
9 16
9 17
9 18
9 22
10 1
10 2
10 3
10 8
10 13
10 14
10 15
10 16
10 19
10 21
11 5
11 6
11 9
11 12
11 17
11 18
11 20
11 22
12 6
12 11
12 18
12 20
13 1
13 2
13 7
13 8
13 10
13 14
13 15
13 19
13 21
13 23
14 1
14 2
14 3
14 4
14 8
14 10
14 13
14 15
14 16
14 17
14 21
14 23
15 1
15 2
15 8
15 10
15 13
15 14
15 16
15 19
15 21
15 23
15 28
16 2
16 3
16 4
16 8
16 9
16 10
16 14
16 15
16 17
16 21
16 22
16 24
16 27
17 4
17 5
17 8
17 9
17 11
17 14
17 16
17 18
17 21
17 22
17 24
17 29
18 5
18 6
18 9
18 11
18 12
18 17
18 20
18 22
18 26
19 7
19 10
19 13
19 15
19 23
19 25
19 28
19 30
20 11
20 12
20 18
20 22
20 26
21 8
21 10
21 13
21 14
21 15
21 16
21 17
21 23
21 24
21 27
21 28
22 9
22 11
22 16
22 17
22 18
22 20
22 24
22 26
22 29
22 31
22 33
23 13
23 14
23 15
23 19
23 21
23 25
23 27
23 28
23 30
23 32
24 16
24 17
24 21
24 22
24 27
24 29
24 31
24 33
24 34
24 36
25 19
25 23
25 28
25 30
25 32
25 37
26 18
26 20
26 22
26 31
26 35
27 16
27 21
27 23
27 24
27 28
27 29
27 32
27 34
27 36
27 40
28 15
28 19
28 21
28 23
28 25
28 27
28 30
28 32
28 34
28 37
28 39
28 40
29 17
29 22
29 24
29 27
29 31
29 33
29 34
29 36
29 38
29 41
30 19
30 23
30 25
30 28
30 32
30 37
31 22
31 24
31 26
31 29
31 33
31 35
31 36
31 38
31 42
31 43
32 23
32 25
32 27
32 28
32 30
32 34
32 37
32 39
32 40
32 44
33 22
33 24
33 29
33 31
33 35
33 36
33 38
33 41
33 43
34 24
34 27
34 28
34 29
34 32
34 36
34 39
34 40
34 41
34 46
35 26
35 31
35 33
35 38
35 42
35 43
35 45
36 24
36 27
36 29
36 31
36 33
36 34
36 38
36 40
36 41
36 43
36 46
36 47
37 25
37 28
37 30
37 32
37 39
37 44
37 49
38 29
38 31
38 33
38 35
38 36
38 41
38 42
38 43
38 45
38 47
38 50
39 28
39 32
39 34
39 37
39 40
39 41
39 44
39 46
39 48
39 49
39 52
40 27
40 28
40 32
40 34
40 36
40 39
40 41
40 46
40 48
40 51
41 29
41 33
41 34
41 36
41 38
41 39
41 40
41 43
41 46
41 47
41 48
41 51
42 31
42 35
42 38
42 43
42 45
42 53
43 31
43 33
43 35
43 36
43 38
43 41
43 42
43 45
43 46
43 47
43 50
44 32
44 37
44 39
44 48
44 49
44 52
44 55
45 35
45 38
45 42
45 43
45 47
45 50
45 53
46 34
46 36
46 39
46 40
46 41
46 43
46 47
46 48
46 51
46 54
46 56
47 36
47 38
47 41
47 43
47 45
47 46
47 50
47 51
47 56
47 59
47 61
48 39
48 40
48 41
48 44
48 46
48 49
48 51
48 52
48 54
48 57
49 37
49 39
49 44
49 48
49 52
49 54
49 55
49 57
49 60
49 62
50 38
50 43
50 45
50 47
50 53
50 56
50 59
50 61
51 40
51 41
51 46
51 47
51 48
51 52
51 54
51 56
51 57
51 61
51 63
51 64
52 39
52 44
52 48
52 49
52 51
52 54
52 55
52 57
52 60
52 62
52 64
52 67
53 42
53 45
53 50
53 56
53 58
53 59
53 65
53 68
54 46
54 48
54 49
54 51
54 52
54 55
54 57
54 62
54 63
54 64
54 67
55 44
55 49
55 52
55 54
55 57
55 60
55 62
55 69
56 46
56 47
56 50
56 51
56 53
56 59
56 61
56 63
56 66
56 68
56 70
57 48
57 49
57 51
57 52
57 54
57 55
57 60
57 62
57 64
57 67
57 69
58 53
58 59
58 65
58 68
59 47
59 50
59 53
59 56
59 58
59 61
59 65
59 66
59 68
59 70
60 49
60 52
60 55
60 57
60 62
60 67
60 69
61 47
61 50
61 51
61 56
61 59
61 63
61 66
61 68
61 70
61 71
62 49
62 52
62 54
62 55
62 57
62 60
62 64
62 67
62 69
63 51
63 54
63 56
63 61
63 64
63 66
63 70
63 71
64 51
64 52
64 54
64 57
64 62
64 63
64 66
64 67
64 69
64 71
65 53
65 58
65 59
65 68
65 70
66 56
66 59
66 61
66 63
66 64
66 68
66 70
66 71
67 52
67 54
67 57
67 60
67 62
67 64
67 69
68 53
68 56
68 58
68 59
68 61
68 65
68 66
68 70
69 55
69 57
69 60
69 62
69 64
69 67
70 56
70 59
70 61
70 63
70 65
70 66
70 68
70 71
71 61
71 63
71 64
71 66
71 70
