1 2
1 3
1 4
1 8
1 9
1 10
1 13
1 17
2 1
2 4
2 5
2 9
2 10
2 12
2 14
2 20
3 1
3 4
3 7
3 8
3 9
3 13
3 15
4 1
4 2
4 3
4 9
4 10
4 13
4 14
4 17
5 2
5 6
5 11
5 12
5 18
5 19
6 5
6 11
6 19
7 3
7 8
7 13
7 15
7 16
8 1
8 3
8 7
8 9
8 13
8 15
9 1
9 2
9 3
9 4
9 8
9 10
9 13
9 14
9 17
9 21
10 1
10 2
10 4
10 9
10 12
10 14
10 17
10 18
10 20
11 5
11 6
11 12
11 18
11 19
12 2
12 5
12 10
12 11
12 14
12 18
12 19
12 20
12 23
13 1
13 3
13 4
13 7
13 8
13 9
13 15
13 17
13 21
13 22
14 2
14 4
14 9
14 10
14 12
14 17
14 18
14 20
14 23
14 25
15 3
15 7
15 8
15 13
15 16
15 21
15 22
15 24
15 26
16 7
16 15
16 24
16 26
17 1
17 4
17 9
17 10
17 13
17 14
17 20
17 21
17 22
17 25
17 28
18 5
18 10
18 11
18 12
18 14
18 19
18 20
18 23
18 29
18 30
19 5
19 6
19 11
19 12
19 18
19 23
19 27
19 29
20 2
20 10
20 12
20 14
20 17
20 18
20 23
20 25
20 30
21 9
21 13
21 15
21 17
21 22
21 25
21 26
21 28
21 31
21 34
22 13
22 15
22 17
22 21
22 25
22 26
22 28
22 31
22 34
23 12
23 14
23 18
23 19
23 20
23 25
23 29
23 30
23 35
23 37
24 15
24 16
24 26
24 32
24 33
24 39
25 14
25 17
25 20
25 21
25 22
25 23
25 28
25 31
25 34
25 35
25 38
26 15
26 16
26 21
26 22
26 24
26 28
26 32
26 33
26 34
27 19
27 29
27 30
27 36
28 17
28 21
28 22
28 25
28 26
28 31
28 33
28 34
28 38
29 18
29 19
29 23
29 27
29 30
29 36
29 37
29 41
30 18
30 20
30 23
30 27
30 29
30 35
30 36
30 37
30 41
31 21
31 22
31 25
31 28
31 34
31 35
31 38
31 44
31 46
32 24
32 26
32 33
32 39
32 42
33 24
33 26
33 28
33 32
33 34
33 39
33 40
33 42
34 21
34 22
34 25
34 26
34 28
34 31
34 33
34 38
34 40
34 44
34 46
34 48
35 23
35 25
35 30
35 31
35 37
35 38
35 41
35 44
35 47
35 50
36 27
36 29
36 30
36 37
36 41
36 43
36 45
37 23
37 29
37 30
37 35
37 36
37 41
37 43
37 45
37 47
38 25
38 28
38 31
38 34
38 35
38 40
38 44
38 46
38 47
38 50
39 24
39 32
39 33
39 42
39 49
40 33
40 34
40 38
40 42
40 44
40 46
40 48
40 49
40 52
41 29
41 30
41 35
41 36
41 37
41 43
41 45
41 47
41 50
41 51
41 53
42 32
42 33
42 39
42 40
42 48
42 49
42 52
42 55
43 36
43 37
43 41
43 45
43 51
43 57
44 31
44 34
44 35
44 38
44 40
44 46
44 47
44 48
44 50
44 54
45 36
45 37
45 41
45 43
45 47
45 51
45 53
45 57
45 58
46 31
46 34
46 38
46 40
46 44
46 48
46 50
46 52
46 54
46 56
46 59
47 35
47 37
47 38
47 41
47 44
47 45
47 50
47 51
47 53
47 54
47 58
47 61
48 34
48 40
48 42
48 44
48 46
48 49
48 52
48 56
49 39
49 40
49 42
49 48
49 52
49 55
49 60
50 35
50 38
50 41
50 44
50 46
50 47
50 53
50 54
50 58
50 59
50 61
51 41
51 43
51 45
51 47
51 53
51 57
51 58
51 62
52 40
52 42
52 46
52 48
52 49
52 55
52 56
52 60
52 64
53 41
53 45
53 47
53 50
53 51
53 54
53 58
53 59
53 61
53 62
53 63
54 44
54 46
54 47
54 50
54 53
54 56
54 59
54 61
54 63
54 67
55 42
55 49
55 52
55 60
55 64
55 68
56 46
56 48
56 52
56 54
56 59
56 60
56 64
56 65
56 67
56 69
57 43
57 45
57 51
57 58
57 62
57 66
58 45
58 47
58 50
58 51
58 53
58 57
58 61
58 62
58 63
58 70
58 71
59 46
59 50
59 53
59 54
59 56
59 61
59 63
59 65
59 67
59 69
59 74
60 49
60 52
60 55
60 56
60 64
60 68
60 72
61 47
61 50
61 53
61 54
61 58
61 59
61 62
61 63
61 67
61 70
61 71
61 76
62 51
62 53
62 57
62 58
62 61
62 63
62 66
62 70
62 71
62 73
63 53
63 54
63 58
63 59
63 61
63 62
63 67
63 70
63 71
63 74
63 76
63 77
64 52
64 55
64 56
64 60
64 65
64 68
64 69
64 72
64 75
64 80
64 81
65 56
65 59
65 64
65 67
65 69
65 72
65 74
65 75
65 77
65 80
66 57
66 62
66 70
66 73
66 78
67 54
67 56
67 59
67 61
67 63
67 65
67 69
67 71
67 74
67 75
67 76
67 77
67 82
68 55
68 60
68 64
68 72
68 79
68 81
69 56
69 59
69 64
69 65
69 67
69 72
69 74
69 75
69 80
69 82
70 58
70 61
70 62
70 63
70 66
70 71
70 73
70 76
70 78
70 83
71 58
71 61
71 62
71 63
71 67
71 70
71 74
71 76
71 77
72 60
72 64
72 65
72 68
72 69
72 75
72 79
72 80
72 81
72 84
73 62
73 66
73 70
73 76
73 78
73 83
74 59
74 63
74 65
74 67
74 69
74 71
74 75
74 76
74 77
74 80
74 82
75 64
75 65
75 67
75 69
75 72
75 74
75 77
75 80
75 81
75 82
76 61
76 63
76 67
76 70
76 71
76 73
76 74
76 77
76 78
76 83
77 63
77 65
77 67
77 71
77 74
77 75
77 76
77 82
78 66
78 70
78 73
78 76
78 83
79 68
79 72
79 80
79 81
79 84
80 64
80 65
80 69
80 72
80 74
80 75
80 79
80 81
80 82
80 84
81 64
81 68
81 72
81 75
81 79
81 80
81 84
82 67
82 69
82 74
82 75
82 77
82 80
83 70
83 73
83 76
83 78
84 72
84 79
84 80
84 81
