@RELATION B014-S04567distEntropy
@ATTRIBUTE f1 REAL
@ATTRIBUTE f2 REAL
@ATTRIBUTE f3 REAL
@ATTRIBUTE f4 REAL
@ATTRIBUTE f5 REAL
@ATTRIBUTE f6 REAL
@ATTRIBUTE f7 REAL
@ATTRIBUTE f8 REAL
@ATTRIBUTE f9 REAL
@ATTRIBUTE f10 REAL
@ATTRIBUTE f11 REAL
@ATTRIBUTE f12 REAL
@ATTRIBUTE f13 REAL
@ATTRIBUTE f14 REAL
@ATTRIBUTE f15 REAL
@ATTRIBUTE f16 REAL
@ATTRIBUTE f17 REAL
@ATTRIBUTE f18 REAL
@ATTRIBUTE f19 REAL
@ATTRIBUTE f20 REAL
@ATTRIBUTE f21 REAL
@ATTRIBUTE f22 REAL
@ATTRIBUTE f23 REAL
@ATTRIBUTE f24 REAL
@ATTRIBUTE f25 REAL
@ATTRIBUTE f26 REAL
@ATTRIBUTE f27 REAL
@ATTRIBUTE f28 REAL
@ATTRIBUTE f29 REAL
@ATTRIBUTE f30 REAL
@ATTRIBUTE f31 REAL
@ATTRIBUTE f32 REAL
@ATTRIBUTE f33 REAL
@ATTRIBUTE f34 REAL
@ATTRIBUTE f35 REAL
@ATTRIBUTE f36 REAL
@ATTRIBUTE f37 REAL
@ATTRIBUTE f38 REAL
@ATTRIBUTE f39 REAL
@ATTRIBUTE f40 REAL
@ATTRIBUTE f41 REAL
@ATTRIBUTE f42 REAL
@ATTRIBUTE f43 REAL
@ATTRIBUTE f44 REAL
@ATTRIBUTE f45 REAL
@ATTRIBUTE f46 REAL
@ATTRIBUTE f47 REAL
@ATTRIBUTE f48 REAL
@ATTRIBUTE f49 REAL
@ATTRIBUTE f50 REAL
@ATTRIBUTE f51 REAL
@ATTRIBUTE f52 REAL
@ATTRIBUTE f53 REAL
@ATTRIBUTE f54 REAL
@ATTRIBUTE f55 REAL
@ATTRIBUTE f56 REAL
@ATTRIBUTE f57 REAL
@ATTRIBUTE f58 REAL
@ATTRIBUTE f59 REAL
@ATTRIBUTE f60 REAL
@ATTRIBUTE f61 REAL
@ATTRIBUTE f62 REAL
@ATTRIBUTE f63 REAL
@ATTRIBUTE f64 REAL
@ATTRIBUTE f65 REAL
@ATTRIBUTE f66 REAL
@ATTRIBUTE f67 REAL
@ATTRIBUTE f68 REAL
@ATTRIBUTE f69 REAL
@ATTRIBUTE f70 REAL
@ATTRIBUTE f71 REAL
@ATTRIBUTE f72 REAL
@ATTRIBUTE f73 REAL
@ATTRIBUTE f74 REAL
@ATTRIBUTE f75 REAL
@ATTRIBUTE f76 REAL
@ATTRIBUTE f77 REAL
@ATTRIBUTE f78 REAL
@ATTRIBUTE f79 REAL
@ATTRIBUTE f80 REAL
@ATTRIBUTE f81 REAL
@ATTRIBUTE f82 REAL
@ATTRIBUTE f83 REAL
@ATTRIBUTE f84 REAL
@ATTRIBUTE f85 REAL
@ATTRIBUTE f86 REAL
@ATTRIBUTE f87 REAL
@ATTRIBUTE f88 REAL
@ATTRIBUTE f89 REAL
@ATTRIBUTE f90 REAL
@ATTRIBUTE f91 REAL
@ATTRIBUTE f92 REAL
@ATTRIBUTE f93 REAL
@ATTRIBUTE f94 REAL
@ATTRIBUTE f95 REAL
@ATTRIBUTE f96 REAL
@ATTRIBUTE f97 REAL
@ATTRIBUTE f98 REAL
@ATTRIBUTE f99 REAL
@ATTRIBUTE f100 REAL
@ATTRIBUTE f101 REAL
@ATTRIBUTE f102 REAL
@ATTRIBUTE f103 REAL
@ATTRIBUTE f104 REAL
@ATTRIBUTE f105 REAL
@ATTRIBUTE f106 REAL
@ATTRIBUTE f107 REAL
@ATTRIBUTE f108 REAL
@ATTRIBUTE f109 REAL
@ATTRIBUTE f110 REAL
@ATTRIBUTE f111 REAL
@ATTRIBUTE f112 REAL
@ATTRIBUTE f113 REAL
@ATTRIBUTE f114 REAL
@ATTRIBUTE f115 REAL
@ATTRIBUTE f116 REAL
@ATTRIBUTE f117 REAL
@ATTRIBUTE f118 REAL
@ATTRIBUTE f119 REAL
@ATTRIBUTE f120 REAL
@ATTRIBUTE f121 REAL
@ATTRIBUTE f122 REAL
@ATTRIBUTE f123 REAL
@ATTRIBUTE f124 REAL
@ATTRIBUTE f125 REAL
@ATTRIBUTE f126 REAL
@ATTRIBUTE f127 REAL
@ATTRIBUTE f128 REAL
@ATTRIBUTE f129 REAL
@ATTRIBUTE f130 REAL
@ATTRIBUTE f131 REAL
@ATTRIBUTE f132 REAL
@ATTRIBUTE f133 REAL
@ATTRIBUTE f134 REAL
@ATTRIBUTE f135 REAL
@ATTRIBUTE f136 REAL
@ATTRIBUTE f137 REAL
@ATTRIBUTE f138 REAL
@ATTRIBUTE f139 REAL
@ATTRIBUTE f140 REAL
@ATTRIBUTE f141 REAL
@ATTRIBUTE f142 REAL
@ATTRIBUTE f143 REAL
@ATTRIBUTE f144 REAL
@ATTRIBUTE f145 REAL
@ATTRIBUTE f146 REAL
@ATTRIBUTE f147 REAL
@ATTRIBUTE f148 REAL
@ATTRIBUTE f149 REAL
@ATTRIBUTE f150 REAL
@ATTRIBUTE f151 REAL
@ATTRIBUTE f152 REAL
@ATTRIBUTE f153 REAL
@ATTRIBUTE f154 REAL
@ATTRIBUTE f155 REAL
@ATTRIBUTE f156 REAL
@ATTRIBUTE f157 REAL
@ATTRIBUTE f158 REAL
@ATTRIBUTE f159 REAL
@ATTRIBUTE f160 REAL
@ATTRIBUTE f161 REAL
@ATTRIBUTE f162 REAL
@ATTRIBUTE f163 REAL
@ATTRIBUTE f164 REAL
@ATTRIBUTE f165 REAL
@ATTRIBUTE f166 REAL
@ATTRIBUTE f167 REAL
@ATTRIBUTE f168 REAL
@ATTRIBUTE f169 REAL
@ATTRIBUTE f170 REAL
@ATTRIBUTE f171 REAL
@ATTRIBUTE f172 REAL
@ATTRIBUTE f173 REAL
@ATTRIBUTE f174 REAL
@ATTRIBUTE f175 REAL
@ATTRIBUTE f176 REAL
@ATTRIBUTE f177 REAL
@ATTRIBUTE f178 REAL
@ATTRIBUTE f179 REAL
@ATTRIBUTE f180 REAL
@ATTRIBUTE f181 REAL
@ATTRIBUTE f182 REAL
@ATTRIBUTE f183 REAL
@ATTRIBUTE f184 REAL
@ATTRIBUTE f185 REAL
@ATTRIBUTE f186 REAL
@ATTRIBUTE f187 REAL
@ATTRIBUTE f188 REAL
@ATTRIBUTE f189 REAL
@ATTRIBUTE f190 REAL
@ATTRIBUTE f191 REAL
@ATTRIBUTE f192 REAL
@ATTRIBUTE f193 REAL
@ATTRIBUTE f194 REAL
@ATTRIBUTE f195 REAL
@ATTRIBUTE f196 REAL
@ATTRIBUTE f197 REAL
@ATTRIBUTE f198 REAL
@ATTRIBUTE f199 REAL
@ATTRIBUTE f200 REAL
@ATTRIBUTE f201 REAL
@ATTRIBUTE f202 REAL
@ATTRIBUTE f203 REAL
@ATTRIBUTE f204 REAL
@ATTRIBUTE f205 REAL
@ATTRIBUTE f206 REAL
@ATTRIBUTE f207 REAL
@ATTRIBUTE f208 REAL
@ATTRIBUTE f209 REAL
@ATTRIBUTE f210 REAL
@ATTRIBUTE f211 REAL
@ATTRIBUTE f212 REAL
@ATTRIBUTE f213 REAL
@ATTRIBUTE f214 REAL
@ATTRIBUTE f215 REAL
@ATTRIBUTE f216 REAL
@ATTRIBUTE f217 REAL
@ATTRIBUTE f218 REAL
@ATTRIBUTE f219 REAL
@ATTRIBUTE f220 REAL
@ATTRIBUTE f221 REAL
@ATTRIBUTE f222 REAL
@ATTRIBUTE f223 REAL
@ATTRIBUTE f224 REAL
@ATTRIBUTE f225 REAL
@ATTRIBUTE f226 REAL
@ATTRIBUTE f227 REAL
@ATTRIBUTE f228 REAL
@ATTRIBUTE f229 REAL
@ATTRIBUTE f230 REAL
@ATTRIBUTE f231 REAL
@ATTRIBUTE f232 REAL
@ATTRIBUTE f233 REAL
@ATTRIBUTE f234 REAL
@ATTRIBUTE f235 REAL
@ATTRIBUTE f236 REAL
@ATTRIBUTE f237 REAL
@ATTRIBUTE f238 REAL
@ATTRIBUTE f239 REAL
@ATTRIBUTE f240 REAL
@ATTRIBUTE f241 REAL
@ATTRIBUTE f242 REAL
@ATTRIBUTE f243 REAL
@ATTRIBUTE f244 REAL
@ATTRIBUTE f245 REAL
@ATTRIBUTE f246 REAL
@ATTRIBUTE f247 REAL
@ATTRIBUTE f248 REAL
@ATTRIBUTE f249 REAL
@ATTRIBUTE f250 REAL
@ATTRIBUTE f251 REAL
@ATTRIBUTE f252 REAL
@ATTRIBUTE f253 REAL
@ATTRIBUTE f254 REAL
@ATTRIBUTE f255 REAL
@ATTRIBUTE f256 REAL
@ATTRIBUTE f257 REAL
@ATTRIBUTE f258 REAL
@ATTRIBUTE f259 REAL
@ATTRIBUTE f260 REAL
@ATTRIBUTE f261 REAL
@ATTRIBUTE f262 REAL
@ATTRIBUTE f263 REAL
@ATTRIBUTE f264 REAL
@ATTRIBUTE f265 REAL
@ATTRIBUTE f266 REAL
@ATTRIBUTE f267 REAL
@ATTRIBUTE f268 REAL
@ATTRIBUTE f269 REAL
@ATTRIBUTE f270 REAL
@ATTRIBUTE f271 REAL
@ATTRIBUTE f272 REAL
@ATTRIBUTE f273 REAL
@ATTRIBUTE f274 REAL
@ATTRIBUTE f275 REAL
@ATTRIBUTE f276 REAL
@ATTRIBUTE f277 REAL
@ATTRIBUTE f278 REAL
@ATTRIBUTE f279 REAL
@ATTRIBUTE f280 REAL
@ATTRIBUTE f281 REAL
@ATTRIBUTE f282 REAL
@ATTRIBUTE f283 REAL
@ATTRIBUTE f284 REAL
@ATTRIBUTE f285 REAL
@ATTRIBUTE f286 REAL
@ATTRIBUTE f287 REAL
@ATTRIBUTE f288 REAL
@ATTRIBUTE f289 REAL
@ATTRIBUTE f290 REAL
@ATTRIBUTE f291 REAL
@ATTRIBUTE f292 REAL
@ATTRIBUTE f293 REAL
@ATTRIBUTE f294 REAL
@ATTRIBUTE f295 REAL
@ATTRIBUTE f296 REAL
@ATTRIBUTE f297 REAL
@ATTRIBUTE f298 REAL
@ATTRIBUTE f299 REAL
@ATTRIBUTE f300 REAL
@ATTRIBUTE f301 REAL
@ATTRIBUTE f302 REAL
@ATTRIBUTE f303 REAL
@ATTRIBUTE f304 REAL
@ATTRIBUTE f305 REAL
@ATTRIBUTE f306 REAL
@ATTRIBUTE f307 REAL
@ATTRIBUTE f308 REAL
@ATTRIBUTE f309 REAL
@ATTRIBUTE f310 REAL
@ATTRIBUTE f311 REAL
@ATTRIBUTE f312 REAL
@ATTRIBUTE f313 REAL
@ATTRIBUTE f314 REAL
@ATTRIBUTE f315 REAL
@ATTRIBUTE f316 REAL
@ATTRIBUTE f317 REAL
@ATTRIBUTE f318 REAL
@ATTRIBUTE f319 REAL
@ATTRIBUTE f320 REAL
@ATTRIBUTE class {AMB,CO2,UM90}
@DATA
0.5461165048543689,0.05825242718446602,0.01699029126213592,0.0,0.0,0.0,0.0,0.0,0.0,0.0,0.0,0.0,0.0,0.0,0.0,0.0,0.0,0.0,0.0,0.3786407766990291,0.47702407002188185,0.22538293216630198,0.06783369803063458,0.02188183807439825,0.024070021881838075,0.019693654266958426,0.019693654266958426,0.006564551422319475,0.0175054704595186,0.00437636761487965,0.002188183807439825,0.0,0.0,0.0,0.00437636761487965,0.0,0.0,0.00437636761487965,0.0087527352297593,0.0962800875273523,0.22943722943722944,0.24025974025974026,0.11904761904761904,0.045454545454545456,0.05627705627705628,0.0367965367965368,0.030303030303030304,0.0367965367965368,0.021645021645021644,0.02813852813852814,0.017316017316017316,0.008658008658008658,0.008658008658008658,0.015151515151515152,0.0021645021645021645,0.0021645021645021645,0.010822510822510822,0.004329004329004329,0.010822510822510822,0.07575757575757576,0.11663066954643629,0.19870410367170627,0.11663066954643629,0.06695464362850972,0.09719222462203024,0.07775377969762419,0.08423326133909287,0.01079913606911447,0.03023758099352052,0.023758099352051837,0.012958963282937365,0.0064794816414686825,0.004319654427645789,0.0,0.004319654427645789,0.0064794816414686825,0.004319654427645789,0.004319654427645789,0.05183585313174946,0.08207343412526998,0.15550755939524838,0.17926565874730022,0.10367170626349892,0.12311015118790497,0.10583153347732181,0.06047516198704104,0.04535637149028078,0.03455723542116631,0.0064794816414686825,0.02159827213822894,0.01511879049676026,0.01079913606911447,0.01511879049676026,0.01511879049676026,0.0021598272138228943,0.01079913606911447,0.017278617710583154,0.008639308855291577,0.04319654427645788,0.02591792656587473,0.32397408207343414,0.2678185745140389,0.17278617710583152,0.09071274298056156,0.06695464362850972,0.04103671706263499,0.008639308855291577,0.0064794816414686825,0.0021598272138228943,0.0,0.0,0.0,0.0,0.0,0.0,0.0,0.0,0.0,0.0,0.019438444924406047,0.4319654427645788,0.31965442764578833,0.10583153347732181,0.06695464362850972,0.04319654427645788,0.01511879049676026,0.008639308855291577,0.008639308855291577,0.0,0.0,0.0,0.0,0.0,0.0,0.0,0.0,0.0,0.0,0.0,0.0,0.468682505399568,0.34989200863930886,0.12958963282937366,0.047516198704103674,0.0,0.0,0.0,0.0,0.0,0.0,0.0,0.0,0.0,0.0,0.0,0.0,0.0,0.0,0.0,0.004319654427645789,0.4298056155507559,0.3779697624190065,0.1447084233261339,0.023758099352051837,0.0,0.0,0.0,0.0,0.0,0.0,0.0,0.0,0.0,0.0,0.004319654427645789,0.0,0.0,0.0,0.0,0.019438444924406047,0.5766738660907127,0.35205183585313177,0.06047516198704104,0.0064794816414686825,0.0,0.0,0.0,0.0,0.0,0.0,0.0,0.0,0.0,0.0,0.0,0.0,0.0,0.0,0.0,0.004319654427645789,0.6436285097192225,0.31965442764578833,0.028077753779697623,0.0,0.0,0.0,0.0,0.0,0.0,0.0,0.0,0.0,0.0,0.0,0.0,0.0,0.0,0.0,0.0,0.008639308855291577,0.6349892008639308,0.3390928725701944,0.02591792656587473,0.0,0.0,0.0,0.0,0.0,0.0,0.0,0.0,0.0,0.0,0.0,0.0,0.0,0.0,0.0,0.0,0.0,0.6133909287257019,0.3714902807775378,0.01079913606911447,0.0,0.0,0.0,0.0,0.0,0.0,0.0,0.0,0.0,0.0,0.0,0.0,0.0,0.0,0.0,0.0,0.004319654427645789,0.5982721382289417,0.34989200863930886,0.04967602591792657,0.0021598272138228943,0.0,0.0,0.0,0.0,0.0,0.0,0.0,0.0,0.0,0.0,0.0,0.0,0.0,0.0,0.0,0.0,0.6133909287257019,0.32181425485961124,0.06479481641468683,0.0,0.0,0.0,0.0,0.0,0.0,0.0,0.0,0.0,0.0,0.0,0.0,0.0,0.0,0.0,0.0,0.0,0.6177105831533477,0.38228941684665224,0.0,0.0,0.0,0.0,0.0,0.0,0.0,0.0,0.0,0.0,0.0,0.0,0.0,0.0,0.0,0.0,0.0,0.0,AMB
0.5405405405405406,0.05675675675675676,0.0,0.0,0.0,0.0,0.0,0.0,0.0,0.0,0.0,0.0,0.0,0.0,0.0,0.0,0.0,0.0,0.0,0.4027027027027027,0.4897959183673469,0.21315192743764172,0.061224489795918366,0.02040816326530612,0.006802721088435374,0.006802721088435374,0.006802721088435374,0.0,0.0,0.0022675736961451248,0.0022675736961451248,0.0022675736961451248,0.0045351473922902496,0.0,0.0022675736961451248,0.0,0.018140589569160998,0.0022675736961451248,0.013605442176870748,0.1473922902494331,0.23725055432372505,0.17516629711751663,0.10643015521064302,0.07317073170731707,0.07095343680709534,0.06651884700665188,0.05321507760532151,0.0066518847006651885,0.024390243902439025,0.017738359201773836,0.019955654101995565,0.013303769401330377,0.0022172949002217295,0.0066518847006651885,0.0066518847006651885,0.004434589800443459,0.0,0.0,0.024390243902439025,0.09090909090909091,0.12638580931263857,0.07760532150776053,0.09534368070953436,0.07982261640798226,0.11529933481152993,0.08425720620842572,0.08647450110864745,0.050997782705099776,0.05543237250554324,0.05543237250554324,0.050997782705099776,0.017738359201773836,0.017738359201773836,0.011086474501108648,0.013303769401330377,0.0,0.0,0.0,0.024390243902439025,0.037694013303769404,0.0975609756097561,0.17516629711751663,0.12416851441241686,0.10199556541019955,0.11529933481152993,0.082039911308204,0.07317073170731707,0.031042128603104215,0.022172949002217297,0.026607538802660754,0.022172949002217297,0.017738359201773836,0.024390243902439025,0.004434589800443459,0.011086474501108648,0.0022172949002217295,0.0,0.004434589800443459,0.013303769401330377,0.050997782705099776,0.29933481152993346,0.3303769401330377,0.1973392461197339,0.10643015521064302,0.04878048780487805,0.017738359201773836,0.0,0.0,0.0,0.0,0.0,0.0,0.0,0.0,0.0,0.0,0.0,0.0,0.0,0.0,0.4190687361419069,0.3835920177383592,0.09312638580931264,0.06430155210643015,0.028824833702882482,0.004434589800443459,0.0,0.0,0.0,0.0,0.0,0.0,0.0,0.0,0.0,0.0,0.0,0.0,0.0,0.0066518847006651885,0.41019955654101997,0.38137472283813745,0.15299334811529933,0.037694013303769404,0.011086474501108648,0.0022172949002217295,0.0,0.0,0.0,0.0,0.0,0.0,0.0,0.0,0.0,0.0,0.0,0.0,0.0,0.004434589800443459,0.5942350332594235,0.35476718403547675,0.050997782705099776,0.0,0.0,0.0,0.0,0.0,0.0,0.0,0.0,0.0,0.0,0.0,0.0,0.0,0.0,0.0,0.0,0.0,0.6873614190687362,0.21951219512195122,0.06430155210643015,0.008869179600886918,0.0,0.0,0.0,0.0,0.0,0.0,0.0,0.0,0.0,0.0022172949002217295,0.0,0.0,0.0,0.0,0.011086474501108648,0.0066518847006651885,0.5254988913525499,0.42572062084257206,0.04212860310421286,0.0,0.0,0.0,0.0,0.0,0.0,0.0,0.0,0.0,0.0,0.0,0.0,0.0,0.0,0.0,0.0,0.0066518847006651885,0.623059866962306,0.3392461197339246,0.017738359201773836,0.008869179600886918,0.0066518847006651885,0.0,0.0,0.0,0.0,0.0,0.0,0.0,0.0,0.0,0.0,0.0,0.0,0.0,0.0,0.004434589800443459,0.6031042128603105,0.3237250554323725,0.06873614190687362,0.0,0.0,0.0,0.0,0.0,0.0,0.0,0.0,0.0,0.0,0.0,0.0,0.0,0.0,0.0,0.0,0.004434589800443459,0.7516629711751663,0.24611973392461198,0.0022172949002217295,0.0,0.0,0.0,0.0,0.0,0.0,0.0,0.0,0.0,0.0,0.0,0.0,0.0,0.0,0.0,0.0,0.0,0.7516629711751663,0.24168514412416853,0.0022172949002217295,0.0,0.0,0.0,0.0,0.0,0.0,0.0,0.0,0.0,0.0,0.0,0.0,0.0,0.0,0.0,0.0,0.004434589800443459,0.7804878048780488,0.21951219512195122,0.0,0.0,0.0,0.0,0.0,0.0,0.0,0.0,0.0,0.0,0.0,0.0,0.0,0.0,0.0,0.0,0.0,0.0,AMB
0.5623471882640587,0.09046454767726161,0.0,0.0,0.0,0.0,0.0,0.0,0.0,0.0,0.0,0.0,0.0,0.0,0.0,0.0,0.004889975550122249,0.0,0.007334963325183374,0.33496332518337407,0.452991452991453,0.22863247863247863,0.06623931623931624,0.0405982905982906,0.03632478632478633,0.017094017094017096,0.002136752136752137,0.002136752136752137,0.0,0.0,0.0,0.0,0.0,0.002136752136752137,0.008547008547008548,0.0,0.008547008547008548,0.0,0.03632478632478633,0.09829059829059829,0.21063829787234042,0.125531914893617,0.11063829787234042,0.10851063829787234,0.07872340425531915,0.036170212765957444,0.019148936170212766,0.029787234042553193,0.029787234042553193,0.027659574468085105,0.036170212765957444,0.02127659574468085,0.006382978723404255,0.02127659574468085,0.01702127659574468,0.014893617021276596,0.01702127659574468,0.006382978723404255,0.019148936170212766,0.06382978723404255,0.09957627118644068,0.15254237288135594,0.1059322033898305,0.10805084745762712,0.13559322033898305,0.0847457627118644,0.0635593220338983,0.046610169491525424,0.05508474576271186,0.05296610169491525,0.014830508474576272,0.019067796610169493,0.00211864406779661,0.00423728813559322,0.00211864406779661,0.00211864406779661,0.0,0.00211864406779661,0.019067796610169493,0.029661016949152543,0.23940677966101695,0.22245762711864406,0.13559322033898305,0.1016949152542373,0.1059322033898305,0.057203389830508475,0.023305084745762712,0.012711864406779662,0.00211864406779661,0.006355932203389831,0.01059322033898305,0.0211864406779661,0.006355932203389831,0.00847457627118644,0.00211864406779661,0.00211864406779661,0.00423728813559322,0.00423728813559322,0.00423728813559322,0.029661016949152543,0.3792372881355932,0.3813559322033898,0.1652542372881356,0.046610169491525424,0.023305084745762712,0.0,0.0,0.0,0.0,0.0,0.0,0.0,0.0,0.0,0.0,0.0,0.0,0.0,0.0,0.00423728813559322,0.5360169491525424,0.3008474576271186,0.09533898305084745,0.0423728813559322,0.00847457627118644,0.0,0.0,0.0,0.0,0.0,0.0,0.00423728813559322,0.0,0.0,0.0,0.0,0.0,0.00211864406779661,0.0,0.01059322033898305,0.413135593220339,0.4322033898305085,0.1271186440677966,0.023305084745762712,0.0,0.0,0.0,0.0,0.0,0.0,0.0,0.0,0.0,0.0,0.0,0.0,0.0,0.0,0.0,0.00423728813559322,0.4364406779661017,0.4258474576271186,0.07627118644067797,0.04449152542372881,0.01694915254237288,0.0,0.0,0.0,0.0,0.0,0.0,0.0,0.0,0.0,0.0,0.0,0.0,0.0,0.0,0.0,0.527542372881356,0.3728813559322034,0.07415254237288135,0.012711864406779662,0.012711864406779662,0.0,0.0,0.0,0.0,0.0,0.0,0.0,0.0,0.0,0.0,0.0,0.0,0.0,0.0,0.0,0.5169491525423728,0.3622881355932203,0.11652542372881355,0.00423728813559322,0.0,0.0,0.0,0.0,0.0,0.0,0.0,0.0,0.0,0.0,0.0,0.0,0.0,0.0,0.0,0.0,0.614406779661017,0.3177966101694915,0.0614406779661017,0.00211864406779661,0.0,0.0,0.0,0.0,0.0,0.0,0.0,0.0,0.0,0.0,0.0,0.0,0.0,0.0,0.0,0.00423728813559322,0.5783898305084746,0.3919491525423729,0.029661016949152543,0.0,0.0,0.0,0.0,0.0,0.0,0.0,0.0,0.0,0.0,0.0,0.0,0.0,0.0,0.0,0.0,0.0,0.5826271186440678,0.3432203389830508,0.07415254237288135,0.0,0.0,0.0,0.0,0.0,0.0,0.0,0.0,0.0,0.0,0.0,0.0,0.0,0.0,0.0,0.0,0.0,0.6673728813559322,0.2966101694915254,0.036016949152542374,0.0,0.0,0.0,0.0,0.0,0.0,0.0,0.0,0.0,0.0,0.0,0.0,0.0,0.0,0.0,0.0,0.0,0.6419491525423728,0.3093220338983051,0.048728813559322036,0.0,0.0,0.0,0.0,0.0,0.0,0.0,0.0,0.0,0.0,0.0,0.0,0.0,0.0,0.0,0.0,0.0,AMB
0.5325301204819277,0.11325301204819277,0.03855421686746988,0.004819277108433735,0.0024096385542168677,0.0,0.0,0.0,0.0,0.0,0.0,0.0,0.0,0.0,0.0,0.0,0.014457831325301205,0.0,0.012048192771084338,0.2819277108433735,0.4182590233545648,0.13800424628450106,0.05307855626326964,0.036093418259023353,0.055201698513800426,0.01910828025477707,0.01910828025477707,0.012738853503184714,0.016985138004246284,0.012738853503184714,0.016985138004246284,0.0021231422505307855,0.008492569002123142,0.010615711252653927,0.004246284501061571,0.006369426751592357,0.004246284501061571,0.021231422505307854,0.050955414012738856,0.09341825902335456,0.21920668058455114,0.17954070981210857,0.12317327766179541,0.10438413361169102,0.11691022964509394,0.07724425887265135,0.037578288100208766,0.008350730688935281,0.010438413361169102,0.0020876826722338203,0.008350730688935281,0.008350730688935281,0.0041753653444676405,0.0041753653444676405,0.008350730688935281,0.0,0.008350730688935281,0.0041753653444676405,0.012526096033402923,0.06263048016701461,0.14583333333333334,0.19583333333333333,0.17291666666666666,0.12083333333333333,0.10625,0.04583333333333333,0.025,0.022916666666666665,0.016666666666666666,0.010416666666666666,0.010416666666666666,0.016666666666666666,0.008333333333333333,0.0125,0.008333333333333333,0.00625,0.016666666666666666,0.008333333333333333,0.022916666666666665,0.027083333333333334,0.19791666666666666,0.26666666666666666,0.12916666666666668,0.1,0.08333333333333333,0.05416666666666667,0.04375,0.010416666666666666,0.01875,0.008333333333333333,0.008333333333333333,0.0125,0.0125,0.004166666666666667,0.004166666666666667,0.0020833333333333333,0.010416666666666666,0.008333333333333333,0.00625,0.01875,0.43125,0.31666666666666665,0.12083333333333333,0.06666666666666667,0.03958333333333333,0.014583333333333334,0.0,0.0020833333333333333,0.0,0.0,0.0,0.0,0.0,0.0,0.0,0.0,0.0,0.0,0.004166666666666667,0.004166666666666667,0.3,0.38125,0.12708333333333333,0.058333333333333334,0.06041666666666667,0.022916666666666665,0.020833333333333332,0.008333333333333333,0.00625,0.004166666666666667,0.0020833333333333333,0.0,0.0,0.0,0.0,0.0,0.0,0.0,0.0,0.008333333333333333,0.42916666666666664,0.33958333333333335,0.12291666666666666,0.04375,0.03125,0.01875,0.008333333333333333,0.0,0.0,0.0,0.0,0.0,0.0,0.0,0.0,0.0,0.0,0.0,0.0,0.00625,0.4979166666666667,0.2916666666666667,0.11041666666666666,0.0625,0.027083333333333334,0.010416666666666666,0.0,0.0,0.0,0.0,0.0,0.0,0.0,0.0,0.0,0.0,0.0,0.0,0.0,0.0,0.5395833333333333,0.39375,0.06041666666666667,0.00625,0.0,0.0,0.0,0.0,0.0,0.0,0.0,0.0,0.0,0.0,0.0,0.0,0.0,0.0,0.0,0.0,0.6083333333333333,0.3458333333333333,0.04583333333333333,0.0,0.0,0.0,0.0,0.0,0.0,0.0,0.0,0.0,0.0,0.0,0.0,0.0,0.0,0.0,0.0,0.0,0.7,0.29583333333333334,0.004166666666666667,0.0,0.0,0.0,0.0,0.0,0.0,0.0,0.0,0.0,0.0,0.0,0.0,0.0,0.0,0.0,0.0,0.0,0.7291666666666666,0.26458333333333334,0.00625,0.0,0.0,0.0,0.0,0.0,0.0,0.0,0.0,0.0,0.0,0.0,0.0,0.0,0.0,0.0,0.0,0.0,0.7041666666666667,0.27708333333333335,0.01875,0.0,0.0,0.0,0.0,0.0,0.0,0.0,0.0,0.0,0.0,0.0,0.0,0.0,0.0,0.0,0.0,0.0,0.7354166666666667,0.22708333333333333,0.0375,0.0,0.0,0.0,0.0,0.0,0.0,0.0,0.0,0.0,0.0,0.0,0.0,0.0,0.0,0.0,0.0,0.0,0.8104166666666667,0.18958333333333333,0.0,0.0,0.0,0.0,0.0,0.0,0.0,0.0,0.0,0.0,0.0,0.0,0.0,0.0,0.0,0.0,0.0,0.0,AMB
0.5387596899224806,0.21705426356589147,0.015503875968992248,0.0,0.0,0.0,0.0,0.0,0.0,0.0,0.0,0.0,0.001937984496124031,0.003875968992248062,0.0,0.0,0.005813953488372093,0.0,0.025193798449612403,0.19186046511627908,0.28832116788321166,0.14233576642335766,0.10766423357664233,0.10583941605839416,0.13138686131386862,0.04927007299270073,0.02737226277372263,0.010948905109489052,0.009124087591240875,0.005474452554744526,0.0,0.0018248175182481751,0.0,0.0,0.0,0.0,0.014598540145985401,0.0072992700729927005,0.021897810218978103,0.07664233576642336,0.2,0.11818181818181818,0.09272727272727273,0.08545454545454545,0.08,0.05090909090909091,0.08363636363636363,0.038181818181818185,0.04,0.034545454545454546,0.02727272727272727,0.00909090909090909,0.01090909090909091,0.005454545454545455,0.005454545454545455,0.007272727272727273,0.012727272727272728,0.0036363636363636364,0.02181818181818182,0.07272727272727272,0.18545454545454546,0.1690909090909091,0.13636363636363635,0.11090909090909092,0.08727272727272728,0.056363636363636366,0.038181818181818185,0.01818181818181818,0.02,0.03090909090909091,0.02,0.016363636363636365,0.023636363636363636,0.01818181818181818,0.00909090909090909,0.005454545454545455,0.00909090909090909,0.0036363636363636364,0.014545454545454545,0.02727272727272727,0.3527272727272727,0.28363636363636363,0.13818181818181818,0.05818181818181818,0.038181818181818185,0.03636363636363636,0.02181818181818182,0.00909090909090909,0.0036363636363636364,0.0018181818181818182,0.0,0.0,0.0018181818181818182,0.0036363636363636364,0.0018181818181818182,0.0018181818181818182,0.0018181818181818182,0.0018181818181818182,0.014545454545454545,0.02909090909090909,0.36,0.3236363636363636,0.12545454545454546,0.09818181818181818,0.05818181818181818,0.00909090909090909,0.005454545454545455,0.0,0.0,0.0,0.0,0.0018181818181818182,0.0,0.0,0.0018181818181818182,0.005454545454545455,0.0,0.0,0.0018181818181818182,0.00909090909090909,0.44363636363636366,0.33454545454545453,0.12363636363636364,0.056363636363636366,0.025454545454545455,0.005454545454545455,0.0018181818181818182,0.0018181818181818182,0.0,0.0,0.0,0.0,0.0,0.0,0.0,0.0,0.0,0.0,0.0,0.007272727272727273,0.5163636363636364,0.4,0.06727272727272728,0.005454545454545455,0.0,0.0,0.0,0.0,0.0,0.0,0.0,0.0,0.0,0.0,0.0,0.0,0.0,0.0,0.0,0.01090909090909091,0.5836363636363636,0.37454545454545457,0.03636363636363636,0.005454545454545455,0.0,0.0,0.0,0.0,0.0,0.0,0.0,0.0,0.0,0.0,0.0,0.0,0.0,0.0,0.0,0.0,0.5854545454545454,0.4018181818181818,0.012727272727272728,0.0,0.0,0.0,0.0,0.0,0.0,0.0,0.0,0.0,0.0,0.0,0.0,0.0,0.0,0.0,0.0,0.0,0.6272727272727273,0.3290909090909091,0.04,0.0036363636363636364,0.0,0.0,0.0,0.0,0.0,0.0,0.0,0.0,0.0,0.0,0.0,0.0,0.0,0.0,0.0,0.0,0.5963636363636363,0.36,0.04363636363636364,0.0,0.0,0.0,0.0,0.0,0.0,0.0,0.0,0.0,0.0,0.0,0.0,0.0,0.0,0.0,0.0,0.0,0.6436363636363637,0.33636363636363636,0.02,0.0,0.0,0.0,0.0,0.0,0.0,0.0,0.0,0.0,0.0,0.0,0.0,0.0,0.0,0.0,0.0,0.0,0.6472727272727272,0.3418181818181818,0.01090909090909091,0.0,0.0,0.0,0.0,0.0,0.0,0.0,0.0,0.0,0.0,0.0,0.0,0.0,0.0,0.0,0.0,0.0,0.6981818181818182,0.2909090909090909,0.01090909090909091,0.0,0.0,0.0,0.0,0.0,0.0,0.0,0.0,0.0,0.0,0.0,0.0,0.0,0.0,0.0,0.0,0.0,0.64,0.3381818181818182,0.02181818181818182,0.0,0.0,0.0,0.0,0.0,0.0,0.0,0.0,0.0,0.0,0.0,0.0,0.0,0.0,0.0,0.0,0.0,AMB
0.5576923076923077,0.21153846153846154,0.022435897435897436,0.009615384615384616,0.009615384615384616,0.00641025641025641,0.003205128205128205,0.003205128205128205,0.0016025641025641025,0.003205128205128205,0.0016025641025641025,0.0,0.003205128205128205,0.003205128205128205,0.0016025641025641025,0.0,0.017628205128205128,0.0016025641025641025,0.028846153846153848,0.11378205128205128,0.20341614906832298,0.10714285714285714,0.06521739130434782,0.049689440993788817,0.08074534161490683,0.05124223602484472,0.046583850931677016,0.024844720496894408,0.04192546583850932,0.04503105590062112,0.046583850931677016,0.03571428571428571,0.020186335403726708,0.018633540372670808,0.003105590062111801,0.004658385093167702,0.007763975155279503,0.012422360248447204,0.03571428571428571,0.09937888198757763,0.09161490683229814,0.10093167701863354,0.08540372670807453,0.09006211180124224,0.13198757763975155,0.08074534161490683,0.08540372670807453,0.049689440993788817,0.04503105590062112,0.034161490683229816,0.024844720496894408,0.020186335403726708,0.017080745341614908,0.010869565217391304,0.010869565217391304,0.0015527950310559005,0.017080745341614908,0.012422360248447204,0.015527950310559006,0.07453416149068323,0.20496894409937888,0.20031055900621117,0.18012422360248448,0.12732919254658384,0.07919254658385093,0.04813664596273292,0.03881987577639751,0.024844720496894408,0.015527950310559006,0.009316770186335404,0.010869565217391304,0.006211180124223602,0.006211180124223602,0.0015527950310559005,0.0015527950310559005,0.0,0.003105590062111801,0.003105590062111801,0.007763975155279503,0.031055900621118012,0.37577639751552794,0.42391304347826086,0.13664596273291926,0.03571428571428571,0.013975155279503106,0.006211180124223602,0.007763975155279503,0.0,0.0,0.0,0.0,0.0,0.0,0.0,0.0,0.0,0.0,0.0,0.0,0.0,0.4813664596273292,0.34627329192546585,0.12577639751552794,0.031055900621118012,0.003105590062111801,0.0,0.0,0.0,0.0,0.0,0.0,0.0,0.004658385093167702,0.0015527950310559005,0.0,0.0,0.0,0.0,0.006211180124223602,0.0,0.5093167701863354,0.37888198757763975,0.06055900621118013,0.03571428571428571,0.012422360248447204,0.0,0.0,0.0,0.0,0.0,0.0,0.0,0.0,0.0,0.0,0.0,0.0,0.0,0.0,0.003105590062111801,0.639751552795031,0.3090062111801242,0.04813664596273292,0.003105590062111801,0.0,0.0,0.0,0.0,0.0,0.0,0.0,0.0,0.0,0.0,0.0,0.0,0.0,0.0,0.0,0.0,0.6211180124223602,0.34782608695652173,0.031055900621118012,0.0,0.0,0.0,0.0,0.0,0.0,0.0,0.0,0.0,0.0,0.0,0.0,0.0,0.0,0.0,0.0,0.0,0.6413043478260869,0.3307453416149068,0.027950310559006212,0.0,0.0,0.0,0.0,0.0,0.0,0.0,0.0,0.0,0.0,0.0,0.0,0.0,0.0,0.0,0.0,0.0,0.6614906832298136,0.3198757763975155,0.018633540372670808,0.0,0.0,0.0,0.0,0.0,0.0,0.0,0.0,0.0,0.0,0.0,0.0,0.0,0.0,0.0,0.0,0.0,0.6754658385093167,0.2779503105590062,0.04503105590062112,0.0015527950310559005,0.0,0.0,0.0,0.0,0.0,0.0,0.0,0.0,0.0,0.0,0.0,0.0,0.0,0.0,0.0,0.0,0.7003105590062112,0.2919254658385093,0.004658385093167702,0.0,0.0,0.0,0.0,0.0,0.0,0.0,0.0,0.0,0.0,0.0,0.0,0.0,0.0,0.0,0.0,0.003105590062111801,0.6754658385093167,0.3198757763975155,0.004658385093167702,0.0,0.0,0.0,0.0,0.0,0.0,0.0,0.0,0.0,0.0,0.0,0.0,0.0,0.0,0.0,0.0,0.0,0.7127329192546584,0.2670807453416149,0.017080745341614908,0.0,0.0,0.0,0.0,0.0,0.0,0.0,0.0,0.0,0.0,0.0,0.0,0.0,0.0,0.0,0.0,0.003105590062111801,0.7204968944099379,0.2406832298136646,0.034161490683229816,0.0015527950310559005,0.0,0.0,0.0,0.0,0.0,0.0,0.0,0.0,0.0,0.0,0.0,0.0,0.0,0.0,0.0,0.003105590062111801,UM90
0.5308641975308642,0.21693121693121692,0.029982363315696647,0.005291005291005291,0.001763668430335097,0.0,0.0,0.0,0.0,0.0,0.0,0.0,0.005291005291005291,0.0,0.0,0.0,0.010582010582010581,0.0,0.059964726631393295,0.13932980599647266,0.2937181663837012,0.16468590831918506,0.0831918505942275,0.059422750424448216,0.04584040747028863,0.02037351443123939,0.03225806451612903,0.015280135823429542,0.013582342954159592,0.015280135823429542,0.008488964346349746,0.01697792869269949,0.006791171477079796,0.01867572156196944,0.01697792869269949,0.01697792869269949,0.01697792869269949,0.013582342954159592,0.02037351443123939,0.12054329371816638,0.09491525423728814,0.13728813559322034,0.10677966101694915,0.08305084745762711,0.09491525423728814,0.07288135593220339,0.09152542372881356,0.05084745762711865,0.04067796610169491,0.03559322033898305,0.020338983050847456,0.02711864406779661,0.020338983050847456,0.013559322033898305,0.015254237288135594,0.010169491525423728,0.003389830508474576,0.00847457627118644,0.013559322033898305,0.059322033898305086,0.2440677966101695,0.2559322033898305,0.14745762711864407,0.1016949152542373,0.06779661016949153,0.030508474576271188,0.02711864406779661,0.013559322033898305,0.003389830508474576,0.0,0.003389830508474576,0.001694915254237288,0.0,0.0,0.00847457627118644,0.010169491525423728,0.015254237288135594,0.011864406779661017,0.013559322033898305,0.04406779661016949,0.2745762711864407,0.3423728813559322,0.14915254237288136,0.08305084745762711,0.05254237288135593,0.03728813559322034,0.020338983050847456,0.006779661016949152,0.0,0.0,0.0,0.0,0.0,0.0,0.001694915254237288,0.0,0.010169491525423728,0.001694915254237288,0.003389830508474576,0.01694915254237288,0.3677966101694915,0.39152542372881355,0.14576271186440679,0.06440677966101695,0.022033898305084745,0.001694915254237288,0.0,0.0,0.0,0.0,0.0,0.0,0.0,0.0,0.0,0.0,0.0,0.0,0.0,0.006779661016949152,0.48135593220338985,0.4067796610169492,0.09661016949152543,0.015254237288135594,0.0,0.0,0.0,0.0,0.0,0.0,0.0,0.0,0.0,0.0,0.0,0.0,0.0,0.0,0.0,0.0,0.611864406779661,0.33728813559322035,0.04745762711864407,0.0,0.0,0.0,0.0,0.0,0.0,0.0,0.0,0.0,0.0,0.0,0.0,0.0,0.0,0.0,0.0,0.003389830508474576,0.6847457627118644,0.2745762711864407,0.03728813559322034,0.0,0.0,0.0,0.0,0.0,0.0,0.0,0.0,0.0,0.0,0.0,0.0,0.0,0.0,0.0,0.0,0.003389830508474576,0.7237288135593221,0.2440677966101695,0.03220338983050847,0.0,0.0,0.0,0.0,0.0,0.0,0.0,0.0,0.0,0.0,0.0,0.0,0.0,0.0,0.0,0.0,0.0,0.688135593220339,0.2576271186440678,0.04915254237288136,0.005084745762711864,0.0,0.0,0.0,0.0,0.0,0.0,0.0,0.0,0.0,0.0,0.0,0.0,0.0,0.0,0.0,0.0,0.6966101694915254,0.29322033898305083,0.010169491525423728,0.0,0.0,0.0,0.0,0.0,0.0,0.0,0.0,0.0,0.0,0.0,0.0,0.0,0.0,0.0,0.0,0.0,0.7610169491525424,0.2305084745762712,0.00847457627118644,0.0,0.0,0.0,0.0,0.0,0.0,0.0,0.0,0.0,0.0,0.0,0.0,0.0,0.0,0.0,0.0,0.0,0.7830508474576271,0.21525423728813559,0.001694915254237288,0.0,0.0,0.0,0.0,0.0,0.0,0.0,0.0,0.0,0.0,0.0,0.0,0.0,0.0,0.0,0.0,0.0,0.7457627118644068,0.24067796610169492,0.013559322033898305,0.0,0.0,0.0,0.0,0.0,0.0,0.0,0.0,0.0,0.0,0.0,0.0,0.0,0.0,0.0,0.0,0.0,0.7016949152542373,0.24067796610169492,0.0576271186440678,0.0,0.0,0.0,0.0,0.0,0.0,0.0,0.0,0.0,0.0,0.0,0.0,0.0,0.0,0.0,0.0,0.0,UM90
0.5731922398589065,0.19047619047619047,0.04056437389770723,0.012345679012345678,0.008818342151675485,0.0,0.003527336860670194,0.0,0.0,0.0,0.0,0.001763668430335097,0.0,0.0,0.0,0.0,0.003527336860670194,0.010582010582010581,0.015873015873015872,0.13932980599647266,0.11472602739726027,0.11986301369863013,0.09246575342465753,0.0702054794520548,0.08047945205479452,0.059931506849315065,0.07876712328767123,0.03595890410958904,0.0547945205479452,0.03424657534246575,0.030821917808219176,0.0136986301369863,0.015410958904109588,0.011986301369863013,0.010273972602739725,0.02226027397260274,0.015410958904109588,0.0136986301369863,0.02910958904109589,0.0958904109589041,0.14505119453924914,0.14334470989761092,0.10921501706484642,0.09726962457337884,0.10580204778156997,0.1075085324232082,0.052901023890784986,0.040955631399317405,0.03583617747440273,0.015358361774744027,0.01877133105802048,0.010238907849829351,0.006825938566552901,0.0017064846416382253,0.0,0.0034129692832764505,0.006825938566552901,0.013651877133105802,0.01877133105802048,0.06655290102389079,0.22696245733788395,0.22013651877133106,0.15187713310580206,0.11092150170648464,0.12116040955631399,0.07167235494880546,0.027303754266211604,0.008532423208191127,0.005119453924914676,0.0034129692832764505,0.0,0.0017064846416382253,0.0,0.0017064846416382253,0.0,0.0,0.005119453924914676,0.0017064846416382253,0.0034129692832764505,0.03924914675767918,0.2645051194539249,0.3856655290102389,0.15699658703071673,0.09044368600682594,0.05631399317406143,0.01877133105802048,0.005119453924914676,0.0017064846416382253,0.0,0.0,0.0,0.0,0.0,0.0,0.0,0.0,0.010238907849829351,0.0,0.0,0.010238907849829351,0.48976109215017066,0.4197952218430034,0.07849829351535836,0.010238907849829351,0.0017064846416382253,0.0,0.0,0.0,0.0,0.0,0.0,0.0,0.0,0.0,0.0,0.0,0.0,0.0,0.0,0.0,0.48976109215017066,0.39419795221843,0.09385665529010238,0.008532423208191127,0.0017064846416382253,0.0,0.0,0.0,0.0,0.0,0.0,0.0,0.0,0.0,0.0,0.0,0.0,0.0,0.0,0.011945392491467578,0.6126279863481229,0.295221843003413,0.07849829351535836,0.011945392491467578,0.0017064846416382253,0.0,0.0,0.0,0.0,0.0,0.0,0.0,0.0,0.0,0.0,0.0,0.0,0.0,0.0,0.0,0.6569965870307167,0.31569965870307165,0.023890784982935155,0.0,0.0,0.0,0.0,0.0,0.0,0.0,0.0,0.0,0.0,0.0,0.0,0.0,0.0,0.0,0.0,0.0034129692832764505,0.6808873720136519,0.29180887372013653,0.027303754266211604,0.0,0.0,0.0,0.0,0.0,0.0,0.0,0.0,0.0,0.0,0.0,0.0,0.0,0.0,0.0,0.0,0.0,0.71160409556314,0.27474402730375425,0.013651877133105802,0.0,0.0,0.0,0.0,0.0,0.0,0.0,0.0,0.0,0.0,0.0,0.0,0.0,0.0,0.0,0.0,0.0,0.7696245733788396,0.22696245733788395,0.0034129692832764505,0.0,0.0,0.0,0.0,0.0,0.0,0.0,0.0,0.0,0.0,0.0,0.0,0.0,0.0,0.0,0.0,0.0,0.7508532423208191,0.24061433447098976,0.008532423208191127,0.0,0.0,0.0,0.0,0.0,0.0,0.0,0.0,0.0,0.0,0.0,0.0,0.0,0.0,0.0,0.0,0.0,0.7150170648464164,0.2781569965870307,0.006825938566552901,0.0,0.0,0.0,0.0,0.0,0.0,0.0,0.0,0.0,0.0,0.0,0.0,0.0,0.0,0.0,0.0,0.0,0.7559726962457338,0.1962457337883959,0.04436860068259386,0.0034129692832764505,0.0,0.0,0.0,0.0,0.0,0.0,0.0,0.0,0.0,0.0,0.0,0.0,0.0,0.0,0.0,0.0,0.8088737201365188,0.17918088737201365,0.011945392491467578,0.0,0.0,0.0,0.0,0.0,0.0,0.0,0.0,0.0,0.0,0.0,0.0,0.0,0.0,0.0,0.0,0.0,UM90
0.5853658536585366,0.2,0.024390243902439025,0.011382113821138212,0.004878048780487805,0.0016260162601626016,0.0,0.0,0.0,0.0,0.0,0.0,0.0016260162601626016,0.0032520325203252032,0.0032520325203252032,0.0032520325203252032,0.013008130081300813,0.0032520325203252032,0.03739837398373984,0.1073170731707317,0.21565495207667731,0.16613418530351437,0.10702875399361023,0.07348242811501597,0.07348242811501597,0.051118210862619806,0.01757188498402556,0.023961661341853034,0.02875399361022364,0.02875399361022364,0.01597444089456869,0.009584664536741214,0.004792332268370607,0.006389776357827476,0.001597444089456869,0.01437699680511182,0.020766773162939296,0.003194888178913738,0.038338658146964855,0.09904153354632587,0.13258785942492013,0.1389776357827476,0.15175718849840256,0.10223642172523961,0.10383386581469649,0.07028753993610223,0.052715654952076675,0.022364217252396165,0.04472843450479233,0.01437699680511182,0.022364217252396165,0.012779552715654952,0.006389776357827476,0.004792332268370607,0.007987220447284345,0.001597444089456869,0.006389776357827476,0.011182108626198083,0.01757188498402556,0.07507987220447285,0.16932907348242812,0.24281150159744408,0.18370607028753994,0.15335463258785942,0.11501597444089456,0.06389776357827476,0.038338658146964855,0.007987220447284345,0.0,0.0,0.0,0.0,0.0,0.0,0.001597444089456869,0.0,0.0,0.0,0.009584664536741214,0.01437699680511182,0.3961661341853035,0.38817891373801916,0.1182108626198083,0.04952076677316294,0.027156549520766772,0.003194888178913738,0.0,0.0,0.0,0.0,0.0,0.0,0.0,0.0,0.004792332268370607,0.0,0.0,0.0,0.003194888178913738,0.009584664536741214,0.4744408945686901,0.3738019169329074,0.11182108626198083,0.03035143769968051,0.0,0.0,0.0,0.0,0.0,0.0,0.0,0.0,0.0,0.0,0.0,0.0,0.0,0.0,0.0,0.009584664536741214,0.4504792332268371,0.4073482428115016,0.11980830670926518,0.022364217252396165,0.0,0.0,0.0,0.0,0.0,0.0,0.0,0.0,0.0,0.0,0.0,0.0,0.0,0.0,0.0,0.0,0.5303514376996805,0.35782747603833864,0.08626198083067092,0.023961661341853034,0.001597444089456869,0.0,0.0,0.0,0.0,0.0,0.0,0.0,0.0,0.0,0.0,0.0,0.0,0.0,0.0,0.0,0.4696485623003195,0.4185303514376997,0.10862619808306709,0.003194888178913738,0.0,0.0,0.0,0.0,0.0,0.0,0.0,0.0,0.0,0.0,0.0,0.0,0.0,0.0,0.0,0.0,0.634185303514377,0.35942492012779553,0.003194888178913738,0.0,0.0,0.0,0.0,0.0,0.0,0.0,0.0,0.0,0.0,0.0,0.0,0.0,0.0,0.0,0.0,0.003194888178913738,0.6805111821086262,0.26677316293929715,0.04153354632587859,0.011182108626198083,0.0,0.0,0.0,0.0,0.0,0.0,0.0,0.0,0.0,0.0,0.0,0.0,0.0,0.0,0.0,0.0,0.6757188498402555,0.2779552715654952,0.0463258785942492,0.0,0.0,0.0,0.0,0.0,0.0,0.0,0.0,0.0,0.0,0.0,0.0,0.0,0.0,0.0,0.0,0.0,0.731629392971246,0.26198083067092653,0.006389776357827476,0.0,0.0,0.0,0.0,0.0,0.0,0.0,0.0,0.0,0.0,0.0,0.0,0.0,0.0,0.0,0.0,0.0,0.7507987220447284,0.22364217252396165,0.025559105431309903,0.0,0.0,0.0,0.0,0.0,0.0,0.0,0.0,0.0,0.0,0.0,0.0,0.0,0.0,0.0,0.0,0.0,0.7987220447284346,0.19329073482428116,0.007987220447284345,0.0,0.0,0.0,0.0,0.0,0.0,0.0,0.0,0.0,0.0,0.0,0.0,0.0,0.0,0.0,0.0,0.0,0.7939297124600639,0.20607028753993611,0.0,0.0,0.0,0.0,0.0,0.0,0.0,0.0,0.0,0.0,0.0,0.0,0.0,0.0,0.0,0.0,0.0,0.0,UM90
0.5600706713780919,0.18374558303886926,0.03356890459363958,0.0035335689045936395,0.0,0.0,0.0,0.0,0.0,0.0,0.0017667844522968198,0.0017667844522968198,0.0,0.0,0.007067137809187279,0.0,0.0176678445229682,0.0017667844522968198,0.0,0.18904593639575973,0.23946037099494097,0.1551433389544688,0.10118043844856661,0.06745362563237774,0.06745362563237774,0.021922428330522766,0.025295109612141653,0.023608768971332208,0.013490725126475547,0.03372681281618887,0.02023608768971332,0.016863406408094434,0.013490725126475547,0.016863406408094434,0.016863406408094434,0.021922428330522766,0.03035413153456998,0.011804384485666104,0.021922428330522766,0.08094435075885328,0.12605042016806722,0.13949579831932774,0.14453781512605043,0.10588235294117647,0.09915966386554621,0.07058823529411765,0.02689075630252101,0.01680672268907563,0.025210084033613446,0.01680672268907563,0.02857142857142857,0.01680672268907563,0.013445378151260505,0.021848739495798318,0.008403361344537815,0.0067226890756302525,0.013445378151260505,0.008403361344537815,0.021848739495798318,0.08907563025210084,0.12100840336134454,0.11932773109243698,0.16470588235294117,0.1546218487394958,0.16134453781512606,0.08235294117647059,0.03529411764705882,0.04201680672268908,0.015126050420168067,0.005042016806722689,0.005042016806722689,0.0016806722689075631,0.0,0.0016806722689075631,0.008403361344537815,0.0016806722689075631,0.008403361344537815,0.0016806722689075631,0.03865546218487395,0.031932773109243695,0.3899159663865546,0.3831932773109244,0.1361344537815126,0.052100840336134456,0.023529411764705882,0.0033613445378151263,0.0,0.0,0.0,0.0,0.0,0.0,0.0,0.0,0.0,0.0,0.0,0.0,0.0033613445378151263,0.008403361344537815,0.34789915966386553,0.4,0.1546218487394958,0.07226890756302522,0.021848739495798318,0.0,0.0,0.0,0.0,0.0,0.0,0.0,0.0,0.0,0.0,0.0,0.0,0.0,0.0,0.0033613445378151263,0.5008403361344538,0.35126050420168065,0.08907563025210084,0.021848739495798318,0.03529411764705882,0.0016806722689075631,0.0,0.0,0.0,0.0,0.0,0.0,0.0,0.0,0.0,0.0,0.0,0.0,0.0,0.0,0.561344537815126,0.36134453781512604,0.05714285714285714,0.01680672268907563,0.0,0.0,0.0,0.0,0.0,0.0,0.0,0.0,0.0,0.0,0.0,0.0,0.0,0.0,0.0,0.0033613445378151263,0.6907563025210084,0.2823529411764706,0.01680672268907563,0.010084033613445379,0.0,0.0,0.0,0.0,0.0,0.0,0.0,0.0,0.0,0.0,0.0,0.0,0.0,0.0,0.0,0.0,0.6605042016806723,0.3126050420168067,0.02689075630252101,0.0,0.0,0.0,0.0,0.0,0.0,0.0,0.0,0.0,0.0,0.0,0.0,0.0,0.0,0.0,0.0,0.0,0.6487394957983194,0.32605042016806723,0.01680672268907563,0.0016806722689075631,0.0,0.0,0.0,0.0,0.0,0.0,0.0,0.0,0.0,0.0,0.0,0.0,0.0,0.0,0.0,0.0067226890756302525,0.7394957983193278,0.2453781512605042,0.015126050420168067,0.0,0.0,0.0,0.0,0.0,0.0,0.0,0.0,0.0,0.0,0.0,0.0,0.0,0.0,0.0,0.0,0.0,0.7058823529411765,0.2907563025210084,0.0033613445378151263,0.0,0.0,0.0,0.0,0.0,0.0,0.0,0.0,0.0,0.0,0.0,0.0,0.0,0.0,0.0,0.0,0.0,0.7344537815126051,0.26554621848739496,0.0,0.0,0.0,0.0,0.0,0.0,0.0,0.0,0.0,0.0,0.0,0.0,0.0,0.0,0.0,0.0,0.0,0.0,0.761344537815126,0.23865546218487396,0.0,0.0,0.0,0.0,0.0,0.0,0.0,0.0,0.0,0.0,0.0,0.0,0.0,0.0,0.0,0.0,0.0,0.0,0.8117647058823529,0.18823529411764706,0.0,0.0,0.0,0.0,0.0,0.0,0.0,0.0,0.0,0.0,0.0,0.0,0.0,0.0,0.0,0.0,0.0,0.0,UM90
0.47594501718213056,0.19072164948453607,0.0859106529209622,0.02577319587628866,0.015463917525773196,0.006872852233676976,0.006872852233676976,0.005154639175257732,0.001718213058419244,0.00859106529209622,0.0,0.0,0.003436426116838488,0.001718213058419244,0.00859106529209622,0.003436426116838488,0.012027491408934709,0.0,0.027491408934707903,0.12027491408934708,0.19734660033167495,0.1625207296849088,0.15257048092868988,0.11940298507462686,0.0812603648424544,0.07131011608623548,0.026533996683250415,0.014925373134328358,0.01990049751243781,0.013266998341625208,0.001658374792703151,0.0,0.0,0.001658374792703151,0.006633499170812604,0.001658374792703151,0.006633499170812604,0.003316749585406302,0.03316749585406302,0.08623548922056384,0.15728476821192053,0.18874172185430463,0.1390728476821192,0.09105960264900662,0.076158940397351,0.052980132450331126,0.04470198675496689,0.029801324503311258,0.028145695364238412,0.026490066225165563,0.013245033112582781,0.018211920529801324,0.018211920529801324,0.008278145695364239,0.009933774834437087,0.006622516556291391,0.004966887417218543,0.0033112582781456954,0.024834437086092714,0.057947019867549666,0.20695364238410596,0.22019867549668873,0.1771523178807947,0.10264900662251655,0.08112582781456953,0.048013245033112585,0.033112582781456956,0.026490066225165563,0.016556291390728478,0.013245033112582781,0.013245033112582781,0.004966887417218543,0.0016556291390728477,0.0016556291390728477,0.0,0.0016556291390728477,0.0033112582781456954,0.004966887417218543,0.018211920529801324,0.024834437086092714,0.4056291390728477,0.32781456953642385,0.12748344370860928,0.048013245033112585,0.033112582781456956,0.013245033112582781,0.0,0.0,0.0016556291390728477,0.0,0.0,0.0,0.0,0.0016556291390728477,0.0016556291390728477,0.0016556291390728477,0.009933774834437087,0.0033112582781456954,0.0033112582781456954,0.02152317880794702,0.42549668874172186,0.38576158940397354,0.09933774834437085,0.048013245033112585,0.03642384105960265,0.0016556291390728477,0.0,0.0,0.0,0.0,0.0,0.0,0.0,0.0,0.0,0.0,0.0,0.0,0.0033112582781456954,0.0,0.39072847682119205,0.3841059602649007,0.14735099337748345,0.029801324503311258,0.028145695364238412,0.011589403973509934,0.004966887417218543,0.0,0.0,0.0,0.0,0.0,0.0,0.0,0.0,0.0,0.0,0.0,0.0,0.0033112582781456954,0.6076158940397351,0.3576158940397351,0.029801324503311258,0.004966887417218543,0.0,0.0,0.0,0.0,0.0,0.0,0.0,0.0,0.0,0.0,0.0,0.0,0.0,0.0,0.0,0.0,0.597682119205298,0.32781456953642385,0.06291390728476821,0.004966887417218543,0.0,0.0,0.0,0.0,0.0,0.0,0.0,0.0,0.0,0.0,0.0,0.0,0.0,0.0,0.0,0.006622516556291391,0.6208609271523179,0.33774834437086093,0.03145695364238411,0.009933774834437087,0.0,0.0,0.0,0.0,0.0,0.0,0.0,0.0,0.0,0.0,0.0,0.0,0.0,0.0,0.0,0.0,0.6192052980132451,0.3344370860927152,0.046357615894039736,0.0,0.0,0.0,0.0,0.0,0.0,0.0,0.0,0.0,0.0,0.0,0.0,0.0,0.0,0.0,0.0,0.0,0.6374172185430463,0.3443708609271523,0.018211920529801324,0.0,0.0,0.0,0.0,0.0,0.0,0.0,0.0,0.0,0.0,0.0,0.0,0.0,0.0,0.0,0.0,0.0,0.6903973509933775,0.28807947019867547,0.02152317880794702,0.0,0.0,0.0,0.0,0.0,0.0,0.0,0.0,0.0,0.0,0.0,0.0,0.0,0.0,0.0,0.0,0.0,0.6705298013245033,0.2847682119205298,0.04304635761589404,0.0016556291390728477,0.0,0.0,0.0,0.0,0.0,0.0,0.0,0.0,0.0,0.0,0.0,0.0,0.0,0.0,0.0,0.0,0.7433774834437086,0.25662251655629137,0.0,0.0,0.0,0.0,0.0,0.0,0.0,0.0,0.0,0.0,0.0,0.0,0.0,0.0,0.0,0.0,0.0,0.0,0.7019867549668874,0.2947019867549669,0.0033112582781456954,0.0,0.0,0.0,0.0,0.0,0.0,0.0,0.0,0.0,0.0,0.0,0.0,0.0,0.0,0.0,0.0,0.0,CO2
0.41935483870967744,0.24731182795698925,0.08294930875576037,0.030721966205837174,0.01228878648233487,0.006144393241167435,0.006144393241167435,0.0015360983102918587,0.0030721966205837174,0.0,0.0015360983102918587,0.0015360983102918587,0.004608294930875576,0.004608294930875576,0.004608294930875576,0.0030721966205837174,0.019969278033794162,0.007680491551459293,0.04608294930875576,0.0967741935483871,0.15749235474006115,0.15749235474006115,0.08409785932721713,0.11009174311926606,0.09327217125382263,0.06880733944954129,0.07033639143730887,0.047400611620795105,0.04281345565749235,0.0290519877675841,0.022935779816513763,0.00764525993883792,0.009174311926605505,0.0030581039755351682,0.0030581039755351682,0.0045871559633027525,0.00764525993883792,0.0030581039755351682,0.02599388379204893,0.05198776758409786,0.08689024390243902,0.125,0.11432926829268293,0.125,0.14329268292682926,0.10975609756097561,0.06859756097560976,0.042682926829268296,0.039634146341463415,0.019817073170731708,0.007621951219512195,0.01524390243902439,0.006097560975609756,0.004573170731707317,0.003048780487804878,0.003048780487804878,0.006097560975609756,0.007621951219512195,0.013719512195121951,0.057926829268292686,0.28810975609756095,0.2621951219512195,0.15701219512195122,0.10060975609756098,0.06859756097560976,0.038109756097560975,0.041158536585365856,0.006097560975609756,0.006097560975609756,0.004573170731707317,0.0,0.0,0.001524390243902439,0.004573170731707317,0.0,0.0,0.003048780487804878,0.0,0.012195121951219513,0.006097560975609756,0.5548780487804879,0.2698170731707317,0.14329268292682926,0.013719512195121951,0.001524390243902439,0.0,0.0,0.0,0.001524390243902439,0.0,0.0,0.0,0.001524390243902439,0.0,0.0,0.0,0.003048780487804878,0.0,0.0,0.010670731707317074,0.3429878048780488,0.3628048780487805,0.1448170731707317,0.08384146341463415,0.054878048780487805,0.007621951219512195,0.0,0.0,0.0,0.0,0.0,0.0,0.0,0.0,0.0,0.0,0.0,0.0,0.0,0.003048780487804878,0.49847560975609756,0.3429878048780488,0.09908536585365854,0.036585365853658534,0.021341463414634148,0.001524390243902439,0.0,0.0,0.0,0.0,0.0,0.0,0.0,0.0,0.0,0.0,0.0,0.0,0.0,0.0,0.4527439024390244,0.3643292682926829,0.13719512195121952,0.036585365853658534,0.009146341463414634,0.0,0.0,0.0,0.0,0.0,0.0,0.0,0.0,0.0,0.0,0.0,0.0,0.0,0.0,0.0,0.573170731707317,0.34146341463414637,0.07317073170731707,0.012195121951219513,0.0,0.0,0.0,0.0,0.0,0.0,0.0,0.0,0.0,0.0,0.0,0.0,0.0,0.0,0.0,0.0,0.6737804878048781,0.2896341463414634,0.03201219512195122,0.004573170731707317,0.0,0.0,0.0,0.0,0.0,0.0,0.0,0.0,0.0,0.0,0.0,0.0,0.0,0.0,0.0,0.0,0.676829268292683,0.3003048780487805,0.022865853658536585,0.0,0.0,0.0,0.0,0.0,0.0,0.0,0.0,0.0,0.0,0.0,0.0,0.0,0.0,0.0,0.0,0.0,0.6753048780487805,0.2850609756097561,0.036585365853658534,0.0,0.0,0.0,0.0,0.0,0.0,0.0,0.0,0.0,0.0,0.0,0.0,0.0,0.0,0.0,0.0,0.003048780487804878,0.7271341463414634,0.2530487804878049,0.019817073170731708,0.0,0.0,0.0,0.0,0.0,0.0,0.0,0.0,0.0,0.0,0.0,0.0,0.0,0.0,0.0,0.0,0.0,0.7987804878048781,0.20121951219512196,0.0,0.0,0.0,0.0,0.0,0.0,0.0,0.0,0.0,0.0,0.0,0.0,0.0,0.0,0.0,0.0,0.0,0.0,0.6692073170731707,0.32621951219512196,0.004573170731707317,0.0,0.0,0.0,0.0,0.0,0.0,0.0,0.0,0.0,0.0,0.0,0.0,0.0,0.0,0.0,0.0,0.0,0.7195121951219512,0.2728658536585366,0.007621951219512195,0.0,0.0,0.0,0.0,0.0,0.0,0.0,0.0,0.0,0.0,0.0,0.0,0.0,0.0,0.0,0.0,0.0,CO2
0.4778481012658228,0.1787974683544304,0.0490506329113924,0.03322784810126582,0.03164556962025317,0.0189873417721519,0.011075949367088608,0.0031645569620253164,0.0031645569620253164,0.0,0.0031645569620253164,0.004746835443037975,0.0031645569620253164,0.004746835443037975,0.0015822784810126582,0.006329113924050633,0.020569620253164556,0.0031645569620253164,0.0490506329113924,0.09651898734177215,0.1826625386996904,0.1996904024767802,0.15015479876160992,0.10371517027863777,0.07739938080495357,0.07430340557275542,0.04179566563467492,0.020123839009287926,0.01393188854489164,0.0046439628482972135,0.0,0.0046439628482972135,0.0030959752321981426,0.0015479876160990713,0.0030959752321981426,0.0030959752321981426,0.007739938080495356,0.01393188854489164,0.021671826625386997,0.07275541795665634,0.1375579598145286,0.11282843894899536,0.10200927357032458,0.08809891808346214,0.10510046367851623,0.0695517774343122,0.0695517774343122,0.03863987635239567,0.02009273570324575,0.027820710973724884,0.015455950540958269,0.017001545595054096,0.0077279752704791345,0.021638330757341576,0.023183925811437404,0.01854714064914992,0.03245749613601236,0.00463678516228748,0.010819165378670788,0.07727975270479134,0.21792890262751158,0.24574961360123648,0.20247295208655333,0.0865533230293663,0.0633693972179289,0.03400309119010819,0.03400309119010819,0.023183925811437404,0.02009273570324575,0.030911901081916538,0.0077279752704791345,0.0061823802163833074,0.0,0.0,0.0,0.0,0.0,0.0,0.015455950540958269,0.012364760432766615,0.42040185471406494,0.31375579598145287,0.1205564142194745,0.07264296754250386,0.04482225656877898,0.010819165378670788,0.0,0.0,0.0,0.0,0.0,0.0,0.0,0.0,0.0015455950540958269,0.0,0.0,0.0,0.00463678516228748,0.010819165378670788,0.3462132921174652,0.3616692426584235,0.22102009273570325,0.0633693972179289,0.00463678516228748,0.0,0.0,0.0,0.0,0.0,0.0,0.0,0.0,0.0,0.0,0.0,0.0,0.0,0.0,0.0030911901081916537,0.46367851622874806,0.3276661514683153,0.1205564142194745,0.05100463678516229,0.030911901081916538,0.0030911901081916537,0.0,0.0,0.0,0.0,0.0,0.0,0.0,0.0,0.0,0.0,0.0,0.0,0.0,0.0030911901081916537,0.5100463678516228,0.3554868624420402,0.10819165378670788,0.02627511591962906,0.0,0.0,0.0,0.0,0.0,0.0,0.0,0.0,0.0,0.0,0.0,0.0,0.0,0.0,0.0,0.0,0.624420401854714,0.3400309119010819,0.03400309119010819,0.0015455950540958269,0.0,0.0,0.0,0.0,0.0,0.0,0.0,0.0,0.0,0.0,0.0,0.0,0.0,0.0,0.0,0.0,0.6692426584234931,0.28129829984544047,0.04173106646058733,0.0077279752704791345,0.0,0.0,0.0,0.0,0.0,0.0,0.0,0.0,0.0,0.0,0.0,0.0,0.0,0.0,0.0,0.0,0.7017001545595054,0.29520865533230295,0.0030911901081916537,0.0,0.0,0.0,0.0,0.0,0.0,0.0,0.0,0.0,0.0,0.0,0.0,0.0,0.0,0.0,0.0,0.0,0.7217928902627512,0.21638330757341576,0.05873261205564142,0.0030911901081916537,0.0,0.0,0.0,0.0,0.0,0.0,0.0,0.0,0.0,0.0,0.0,0.0,0.0,0.0,0.0,0.0,0.723338485316847,0.27666151468315303,0.0,0.0,0.0,0.0,0.0,0.0,0.0,0.0,0.0,0.0,0.0,0.0,0.0,0.0,0.0,0.0,0.0,0.0,0.7851622874806801,0.2132921174652241,0.0015455950540958269,0.0,0.0,0.0,0.0,0.0,0.0,0.0,0.0,0.0,0.0,0.0,0.0,0.0,0.0,0.0,0.0,0.0,0.7758887171561051,0.2241112828438949,0.0,0.0,0.0,0.0,0.0,0.0,0.0,0.0,0.0,0.0,0.0,0.0,0.0,0.0,0.0,0.0,0.0,0.0,0.7434312210200927,0.25656877897990726,0.0,0.0,0.0,0.0,0.0,0.0,0.0,0.0,0.0,0.0,0.0,0.0,0.0,0.0,0.0,0.0,0.0,0.0,CO2
0.4847457627118644,0.18305084745762712,0.05593220338983051,0.022033898305084745,0.013559322033898305,0.00847457627118644,0.003389830508474576,0.003389830508474576,0.003389830508474576,0.001694915254237288,0.001694915254237288,0.00847457627118644,0.003389830508474576,0.005084745762711864,0.0,0.0,0.020338983050847456,0.001694915254237288,0.022033898305084745,0.1576271186440678,0.18226600985221675,0.1297208538587849,0.09195402298850575,0.10509031198686371,0.10509031198686371,0.03940886699507389,0.04926108374384237,0.022988505747126436,0.03776683087027915,0.031198686371100164,0.009852216748768473,0.014778325123152709,0.009852216748768473,0.006568144499178982,0.011494252873563218,0.008210180623973728,0.013136288998357963,0.011494252873563218,0.03940886699507389,0.08045977011494253,0.12479474548440066,0.18883415435139572,0.13793103448275862,0.09688013136288999,0.08702791461412152,0.07389162561576355,0.07717569786535304,0.022988505747126436,0.014778325123152709,0.013136288998357963,0.016420361247947456,0.008210180623973728,0.019704433497536946,0.022988505747126436,0.008210180623973728,0.019704433497536946,0.0049261083743842365,0.009852216748768473,0.008210180623973728,0.04433497536945813,0.20689655172413793,0.24302134646962234,0.16584564860426929,0.10509031198686371,0.0755336617405583,0.042692939244663386,0.041050903119868636,0.0361247947454844,0.026272577996715927,0.013136288998357963,0.011494252873563218,0.003284072249589491,0.0,0.0,0.0,0.0,0.006568144499178982,0.0016420361247947454,0.0,0.021346469622331693,0.4088669950738916,0.3563218390804598,0.12479474548440066,0.0755336617405583,0.0180623973727422,0.0016420361247947454,0.0,0.0,0.0,0.0,0.0,0.0,0.0,0.0,0.003284072249589491,0.0,0.0,0.0,0.0,0.011494252873563218,0.4876847290640394,0.4236453201970443,0.06732348111658457,0.019704433497536946,0.0016420361247947454,0.0,0.0,0.0,0.0,0.0,0.0,0.0,0.0,0.0,0.0,0.0,0.0,0.0,0.0,0.0,0.4039408866995074,0.41050903119868637,0.11986863711001643,0.052545155993431854,0.013136288998357963,0.0,0.0,0.0,0.0,0.0,0.0,0.0,0.0,0.0,0.0,0.0,0.0,0.0,0.0,0.0,0.5829228243021346,0.3136288998357964,0.08374384236453201,0.009852216748768473,0.003284072249589491,0.0,0.0,0.0,0.0,0.0,0.0,0.0,0.0,0.0,0.0,0.0,0.0,0.0,0.0,0.006568144499178982,0.638752052545156,0.3415435139573071,0.019704433497536946,0.0,0.0,0.0,0.0,0.0,0.0,0.0,0.0,0.0,0.0,0.0,0.0,0.0,0.0,0.0,0.0,0.0,0.6535303776683087,0.3054187192118227,0.041050903119868636,0.0,0.0,0.0,0.0,0.0,0.0,0.0,0.0,0.0,0.0,0.0,0.0,0.0,0.0,0.0,0.0,0.0,0.7471264367816092,0.2512315270935961,0.0016420361247947454,0.0,0.0,0.0,0.0,0.0,0.0,0.0,0.0,0.0,0.0,0.0,0.0,0.0,0.0,0.0,0.0,0.0,0.6551724137931034,0.3366174055829228,0.008210180623973728,0.0,0.0,0.0,0.0,0.0,0.0,0.0,0.0,0.0,0.0,0.0,0.0,0.0,0.0,0.0,0.0,0.0,0.7389162561576355,0.26108374384236455,0.0,0.0,0.0,0.0,0.0,0.0,0.0,0.0,0.0,0.0,0.0,0.0,0.0,0.0,0.0,0.0,0.0,0.0,0.735632183908046,0.2594417077175698,0.0049261083743842365,0.0,0.0,0.0,0.0,0.0,0.0,0.0,0.0,0.0,0.0,0.0,0.0,0.0,0.0,0.0,0.0,0.0,0.7947454844006568,0.20525451559934318,0.0,0.0,0.0,0.0,0.0,0.0,0.0,0.0,0.0,0.0,0.0,0.0,0.0,0.0,0.0,0.0,0.0,0.0,0.7553366174055829,0.24466338259441708,0.0,0.0,0.0,0.0,0.0,0.0,0.0,0.0,0.0,0.0,0.0,0.0,0.0,0.0,0.0,0.0,0.0,0.0,CO2
0.4567901234567901,0.18055555555555555,0.06327160493827161,0.037037037037037035,0.030864197530864196,0.016975308641975308,0.009259259259259259,0.004629629629629629,0.0030864197530864196,0.007716049382716049,0.0,0.006172839506172839,0.006172839506172839,0.0030864197530864196,0.0030864197530864196,0.0030864197530864196,0.006172839506172839,0.0,0.046296296296296294,0.11574074074074074,0.11363636363636363,0.1484848484848485,0.1,0.08787878787878788,0.09545454545454546,0.07727272727272727,0.045454545454545456,0.03939393939393939,0.03333333333333333,0.03939393939393939,0.03636363636363636,0.02878787878787879,0.010606060606060607,0.015151515151515152,0.010606060606060607,0.004545454545454545,0.010606060606060607,0.007575757575757576,0.013636363636363636,0.08181818181818182,0.15582450832072617,0.18456883509833585,0.08925869894099848,0.06656580937972768,0.0832072617246596,0.060514372163388806,0.037821482602118005,0.036308623298033284,0.037821482602118005,0.028744326777609682,0.019667170953101363,0.03177004538577912,0.01664145234493192,0.019667170953101363,0.009077155824508321,0.006051437216338881,0.0030257186081694403,0.019667170953101363,0.028744326777609682,0.06505295007564296,0.27685325264750377,0.22087745839636913,0.13313161875945537,0.06656580937972768,0.06354009077155824,0.060514372163388806,0.057488653555219364,0.036308623298033284,0.018154311649016642,0.01361573373676248,0.0015128593040847202,0.0,0.0015128593040847202,0.0015128593040847202,0.0015128593040847202,0.0,0.006051437216338881,0.0030257186081694403,0.007564296520423601,0.030257186081694403,0.36459909228441756,0.3812405446293495,0.17095310136157338,0.049924357034795766,0.006051437216338881,0.0045385779122541605,0.0030257186081694403,0.0,0.0,0.0,0.0,0.0,0.0,0.0,0.0,0.0015128593040847202,0.0,0.0015128593040847202,0.0045385779122541605,0.012102874432677761,0.443267776096823,0.44780635400907715,0.07866868381240545,0.018154311649016642,0.007564296520423601,0.0,0.0,0.0,0.0,0.0,0.0,0.0,0.0,0.0,0.0,0.0,0.0,0.0,0.0,0.0045385779122541605,0.540090771558245,0.37972768532526474,0.07261724659606657,0.007564296520423601,0.0,0.0,0.0,0.0,0.0,0.0,0.0,0.0,0.0,0.0,0.0,0.0,0.0,0.0,0.0,0.0,0.5824508320726173,0.34493192133131617,0.0453857791225416,0.018154311649016642,0.006051437216338881,0.0,0.0,0.0,0.0,0.0,0.0,0.0,0.0,0.0,0.0,0.0,0.0,0.0,0.0,0.0030257186081694403,0.6157337367624811,0.33434190620272314,0.046898638426626324,0.0030257186081694403,0.0,0.0,0.0,0.0,0.0,0.0,0.0,0.0,0.0,0.0,0.0,0.0,0.0,0.0,0.0,0.0,0.6641452344931922,0.24508320726172467,0.07866868381240545,0.012102874432677761,0.0,0.0,0.0,0.0,0.0,0.0,0.0,0.0,0.0,0.0,0.0,0.0,0.0,0.0,0.0,0.0,0.7155824508320726,0.27987897125567324,0.0045385779122541605,0.0,0.0,0.0,0.0,0.0,0.0,0.0,0.0,0.0,0.0,0.0,0.0,0.0,0.0,0.0,0.0,0.0,0.745839636913767,0.22844175491679275,0.025718608169440244,0.0,0.0,0.0,0.0,0.0,0.0,0.0,0.0,0.0,0.0,0.0,0.0,0.0,0.0,0.0,0.0,0.0,0.7413010590015129,0.24508320726172467,0.01361573373676248,0.0,0.0,0.0,0.0,0.0,0.0,0.0,0.0,0.0,0.0,0.0,0.0,0.0,0.0,0.0,0.0,0.0,0.7715582450832073,0.22692889561270801,0.0015128593040847202,0.0,0.0,0.0,0.0,0.0,0.0,0.0,0.0,0.0,0.0,0.0,0.0,0.0,0.0,0.0,0.0,0.0,0.7609682299546142,0.22844175491679275,0.01059001512859304,0.0,0.0,0.0,0.0,0.0,0.0,0.0,0.0,0.0,0.0,0.0,0.0,0.0,0.0,0.0,0.0,0.0,0.7382753403933434,0.2617246596066566,0.0,0.0,0.0,0.0,0.0,0.0,0.0,0.0,0.0,0.0,0.0,0.0,0.0,0.0,0.0,0.0,0.0,0.0,CO2
