@RELATION B014-S04567distSWL
@ATTRIBUTE f1 REAL
@ATTRIBUTE f2 REAL
@ATTRIBUTE f3 REAL
@ATTRIBUTE f4 REAL
@ATTRIBUTE f5 REAL
@ATTRIBUTE f6 REAL
@ATTRIBUTE f7 REAL
@ATTRIBUTE f8 REAL
@ATTRIBUTE f9 REAL
@ATTRIBUTE f10 REAL
@ATTRIBUTE f11 REAL
@ATTRIBUTE f12 REAL
@ATTRIBUTE f13 REAL
@ATTRIBUTE f14 REAL
@ATTRIBUTE f15 REAL
@ATTRIBUTE f16 REAL
@ATTRIBUTE f17 REAL
@ATTRIBUTE f18 REAL
@ATTRIBUTE f19 REAL
@ATTRIBUTE f20 REAL
@ATTRIBUTE f21 REAL
@ATTRIBUTE f22 REAL
@ATTRIBUTE f23 REAL
@ATTRIBUTE f24 REAL
@ATTRIBUTE f25 REAL
@ATTRIBUTE f26 REAL
@ATTRIBUTE f27 REAL
@ATTRIBUTE f28 REAL
@ATTRIBUTE f29 REAL
@ATTRIBUTE f30 REAL
@ATTRIBUTE f31 REAL
@ATTRIBUTE f32 REAL
@ATTRIBUTE f33 REAL
@ATTRIBUTE f34 REAL
@ATTRIBUTE f35 REAL
@ATTRIBUTE f36 REAL
@ATTRIBUTE f37 REAL
@ATTRIBUTE f38 REAL
@ATTRIBUTE f39 REAL
@ATTRIBUTE f40 REAL
@ATTRIBUTE f41 REAL
@ATTRIBUTE f42 REAL
@ATTRIBUTE f43 REAL
@ATTRIBUTE f44 REAL
@ATTRIBUTE f45 REAL
@ATTRIBUTE f46 REAL
@ATTRIBUTE f47 REAL
@ATTRIBUTE f48 REAL
@ATTRIBUTE f49 REAL
@ATTRIBUTE f50 REAL
@ATTRIBUTE f51 REAL
@ATTRIBUTE f52 REAL
@ATTRIBUTE f53 REAL
@ATTRIBUTE f54 REAL
@ATTRIBUTE f55 REAL
@ATTRIBUTE f56 REAL
@ATTRIBUTE f57 REAL
@ATTRIBUTE f58 REAL
@ATTRIBUTE f59 REAL
@ATTRIBUTE f60 REAL
@ATTRIBUTE f61 REAL
@ATTRIBUTE f62 REAL
@ATTRIBUTE f63 REAL
@ATTRIBUTE f64 REAL
@ATTRIBUTE f65 REAL
@ATTRIBUTE f66 REAL
@ATTRIBUTE f67 REAL
@ATTRIBUTE f68 REAL
@ATTRIBUTE f69 REAL
@ATTRIBUTE f70 REAL
@ATTRIBUTE f71 REAL
@ATTRIBUTE f72 REAL
@ATTRIBUTE f73 REAL
@ATTRIBUTE f74 REAL
@ATTRIBUTE f75 REAL
@ATTRIBUTE f76 REAL
@ATTRIBUTE f77 REAL
@ATTRIBUTE f78 REAL
@ATTRIBUTE f79 REAL
@ATTRIBUTE f80 REAL
@ATTRIBUTE f81 REAL
@ATTRIBUTE f82 REAL
@ATTRIBUTE f83 REAL
@ATTRIBUTE f84 REAL
@ATTRIBUTE f85 REAL
@ATTRIBUTE f86 REAL
@ATTRIBUTE f87 REAL
@ATTRIBUTE f88 REAL
@ATTRIBUTE f89 REAL
@ATTRIBUTE f90 REAL
@ATTRIBUTE f91 REAL
@ATTRIBUTE f92 REAL
@ATTRIBUTE f93 REAL
@ATTRIBUTE f94 REAL
@ATTRIBUTE f95 REAL
@ATTRIBUTE f96 REAL
@ATTRIBUTE f97 REAL
@ATTRIBUTE f98 REAL
@ATTRIBUTE f99 REAL
@ATTRIBUTE f100 REAL
@ATTRIBUTE f101 REAL
@ATTRIBUTE f102 REAL
@ATTRIBUTE f103 REAL
@ATTRIBUTE f104 REAL
@ATTRIBUTE f105 REAL
@ATTRIBUTE f106 REAL
@ATTRIBUTE f107 REAL
@ATTRIBUTE f108 REAL
@ATTRIBUTE f109 REAL
@ATTRIBUTE f110 REAL
@ATTRIBUTE f111 REAL
@ATTRIBUTE f112 REAL
@ATTRIBUTE f113 REAL
@ATTRIBUTE f114 REAL
@ATTRIBUTE f115 REAL
@ATTRIBUTE f116 REAL
@ATTRIBUTE f117 REAL
@ATTRIBUTE f118 REAL
@ATTRIBUTE f119 REAL
@ATTRIBUTE f120 REAL
@ATTRIBUTE f121 REAL
@ATTRIBUTE f122 REAL
@ATTRIBUTE f123 REAL
@ATTRIBUTE f124 REAL
@ATTRIBUTE f125 REAL
@ATTRIBUTE f126 REAL
@ATTRIBUTE f127 REAL
@ATTRIBUTE f128 REAL
@ATTRIBUTE f129 REAL
@ATTRIBUTE f130 REAL
@ATTRIBUTE f131 REAL
@ATTRIBUTE f132 REAL
@ATTRIBUTE f133 REAL
@ATTRIBUTE f134 REAL
@ATTRIBUTE f135 REAL
@ATTRIBUTE f136 REAL
@ATTRIBUTE f137 REAL
@ATTRIBUTE f138 REAL
@ATTRIBUTE f139 REAL
@ATTRIBUTE f140 REAL
@ATTRIBUTE f141 REAL
@ATTRIBUTE f142 REAL
@ATTRIBUTE f143 REAL
@ATTRIBUTE f144 REAL
@ATTRIBUTE f145 REAL
@ATTRIBUTE f146 REAL
@ATTRIBUTE f147 REAL
@ATTRIBUTE f148 REAL
@ATTRIBUTE f149 REAL
@ATTRIBUTE f150 REAL
@ATTRIBUTE f151 REAL
@ATTRIBUTE f152 REAL
@ATTRIBUTE f153 REAL
@ATTRIBUTE f154 REAL
@ATTRIBUTE f155 REAL
@ATTRIBUTE f156 REAL
@ATTRIBUTE f157 REAL
@ATTRIBUTE f158 REAL
@ATTRIBUTE f159 REAL
@ATTRIBUTE f160 REAL
@ATTRIBUTE f161 REAL
@ATTRIBUTE f162 REAL
@ATTRIBUTE f163 REAL
@ATTRIBUTE f164 REAL
@ATTRIBUTE f165 REAL
@ATTRIBUTE f166 REAL
@ATTRIBUTE f167 REAL
@ATTRIBUTE f168 REAL
@ATTRIBUTE f169 REAL
@ATTRIBUTE f170 REAL
@ATTRIBUTE f171 REAL
@ATTRIBUTE f172 REAL
@ATTRIBUTE f173 REAL
@ATTRIBUTE f174 REAL
@ATTRIBUTE f175 REAL
@ATTRIBUTE f176 REAL
@ATTRIBUTE f177 REAL
@ATTRIBUTE f178 REAL
@ATTRIBUTE f179 REAL
@ATTRIBUTE f180 REAL
@ATTRIBUTE f181 REAL
@ATTRIBUTE f182 REAL
@ATTRIBUTE f183 REAL
@ATTRIBUTE f184 REAL
@ATTRIBUTE f185 REAL
@ATTRIBUTE f186 REAL
@ATTRIBUTE f187 REAL
@ATTRIBUTE f188 REAL
@ATTRIBUTE f189 REAL
@ATTRIBUTE f190 REAL
@ATTRIBUTE f191 REAL
@ATTRIBUTE f192 REAL
@ATTRIBUTE f193 REAL
@ATTRIBUTE f194 REAL
@ATTRIBUTE f195 REAL
@ATTRIBUTE f196 REAL
@ATTRIBUTE f197 REAL
@ATTRIBUTE f198 REAL
@ATTRIBUTE f199 REAL
@ATTRIBUTE f200 REAL
@ATTRIBUTE f201 REAL
@ATTRIBUTE f202 REAL
@ATTRIBUTE f203 REAL
@ATTRIBUTE f204 REAL
@ATTRIBUTE f205 REAL
@ATTRIBUTE f206 REAL
@ATTRIBUTE f207 REAL
@ATTRIBUTE f208 REAL
@ATTRIBUTE f209 REAL
@ATTRIBUTE f210 REAL
@ATTRIBUTE f211 REAL
@ATTRIBUTE f212 REAL
@ATTRIBUTE f213 REAL
@ATTRIBUTE f214 REAL
@ATTRIBUTE f215 REAL
@ATTRIBUTE f216 REAL
@ATTRIBUTE f217 REAL
@ATTRIBUTE f218 REAL
@ATTRIBUTE f219 REAL
@ATTRIBUTE f220 REAL
@ATTRIBUTE f221 REAL
@ATTRIBUTE f222 REAL
@ATTRIBUTE f223 REAL
@ATTRIBUTE f224 REAL
@ATTRIBUTE f225 REAL
@ATTRIBUTE f226 REAL
@ATTRIBUTE f227 REAL
@ATTRIBUTE f228 REAL
@ATTRIBUTE f229 REAL
@ATTRIBUTE f230 REAL
@ATTRIBUTE f231 REAL
@ATTRIBUTE f232 REAL
@ATTRIBUTE f233 REAL
@ATTRIBUTE f234 REAL
@ATTRIBUTE f235 REAL
@ATTRIBUTE f236 REAL
@ATTRIBUTE f237 REAL
@ATTRIBUTE f238 REAL
@ATTRIBUTE f239 REAL
@ATTRIBUTE f240 REAL
@ATTRIBUTE f241 REAL
@ATTRIBUTE f242 REAL
@ATTRIBUTE f243 REAL
@ATTRIBUTE f244 REAL
@ATTRIBUTE f245 REAL
@ATTRIBUTE f246 REAL
@ATTRIBUTE f247 REAL
@ATTRIBUTE f248 REAL
@ATTRIBUTE f249 REAL
@ATTRIBUTE f250 REAL
@ATTRIBUTE f251 REAL
@ATTRIBUTE f252 REAL
@ATTRIBUTE f253 REAL
@ATTRIBUTE f254 REAL
@ATTRIBUTE f255 REAL
@ATTRIBUTE f256 REAL
@ATTRIBUTE f257 REAL
@ATTRIBUTE f258 REAL
@ATTRIBUTE f259 REAL
@ATTRIBUTE f260 REAL
@ATTRIBUTE f261 REAL
@ATTRIBUTE f262 REAL
@ATTRIBUTE f263 REAL
@ATTRIBUTE f264 REAL
@ATTRIBUTE f265 REAL
@ATTRIBUTE f266 REAL
@ATTRIBUTE f267 REAL
@ATTRIBUTE f268 REAL
@ATTRIBUTE f269 REAL
@ATTRIBUTE f270 REAL
@ATTRIBUTE f271 REAL
@ATTRIBUTE f272 REAL
@ATTRIBUTE f273 REAL
@ATTRIBUTE f274 REAL
@ATTRIBUTE f275 REAL
@ATTRIBUTE f276 REAL
@ATTRIBUTE f277 REAL
@ATTRIBUTE f278 REAL
@ATTRIBUTE f279 REAL
@ATTRIBUTE f280 REAL
@ATTRIBUTE f281 REAL
@ATTRIBUTE f282 REAL
@ATTRIBUTE f283 REAL
@ATTRIBUTE f284 REAL
@ATTRIBUTE f285 REAL
@ATTRIBUTE f286 REAL
@ATTRIBUTE f287 REAL
@ATTRIBUTE f288 REAL
@ATTRIBUTE f289 REAL
@ATTRIBUTE f290 REAL
@ATTRIBUTE f291 REAL
@ATTRIBUTE f292 REAL
@ATTRIBUTE f293 REAL
@ATTRIBUTE f294 REAL
@ATTRIBUTE f295 REAL
@ATTRIBUTE f296 REAL
@ATTRIBUTE f297 REAL
@ATTRIBUTE f298 REAL
@ATTRIBUTE f299 REAL
@ATTRIBUTE f300 REAL
@ATTRIBUTE f301 REAL
@ATTRIBUTE f302 REAL
@ATTRIBUTE f303 REAL
@ATTRIBUTE f304 REAL
@ATTRIBUTE f305 REAL
@ATTRIBUTE f306 REAL
@ATTRIBUTE f307 REAL
@ATTRIBUTE f308 REAL
@ATTRIBUTE f309 REAL
@ATTRIBUTE f310 REAL
@ATTRIBUTE f311 REAL
@ATTRIBUTE f312 REAL
@ATTRIBUTE f313 REAL
@ATTRIBUTE f314 REAL
@ATTRIBUTE f315 REAL
@ATTRIBUTE f316 REAL
@ATTRIBUTE f317 REAL
@ATTRIBUTE f318 REAL
@ATTRIBUTE f319 REAL
@ATTRIBUTE f320 REAL
@ATTRIBUTE f321 REAL
@ATTRIBUTE f322 REAL
@ATTRIBUTE f323 REAL
@ATTRIBUTE f324 REAL
@ATTRIBUTE f325 REAL
@ATTRIBUTE f326 REAL
@ATTRIBUTE f327 REAL
@ATTRIBUTE f328 REAL
@ATTRIBUTE f329 REAL
@ATTRIBUTE f330 REAL
@ATTRIBUTE f331 REAL
@ATTRIBUTE f332 REAL
@ATTRIBUTE f333 REAL
@ATTRIBUTE f334 REAL
@ATTRIBUTE f335 REAL
@ATTRIBUTE f336 REAL
@ATTRIBUTE f337 REAL
@ATTRIBUTE f338 REAL
@ATTRIBUTE f339 REAL
@ATTRIBUTE f340 REAL
@ATTRIBUTE f341 REAL
@ATTRIBUTE f342 REAL
@ATTRIBUTE f343 REAL
@ATTRIBUTE f344 REAL
@ATTRIBUTE f345 REAL
@ATTRIBUTE f346 REAL
@ATTRIBUTE f347 REAL
@ATTRIBUTE f348 REAL
@ATTRIBUTE f349 REAL
@ATTRIBUTE f350 REAL
@ATTRIBUTE f351 REAL
@ATTRIBUTE f352 REAL
@ATTRIBUTE f353 REAL
@ATTRIBUTE f354 REAL
@ATTRIBUTE f355 REAL
@ATTRIBUTE f356 REAL
@ATTRIBUTE f357 REAL
@ATTRIBUTE f358 REAL
@ATTRIBUTE f359 REAL
@ATTRIBUTE f360 REAL
@ATTRIBUTE f361 REAL
@ATTRIBUTE f362 REAL
@ATTRIBUTE f363 REAL
@ATTRIBUTE f364 REAL
@ATTRIBUTE f365 REAL
@ATTRIBUTE f366 REAL
@ATTRIBUTE f367 REAL
@ATTRIBUTE f368 REAL
@ATTRIBUTE f369 REAL
@ATTRIBUTE f370 REAL
@ATTRIBUTE f371 REAL
@ATTRIBUTE f372 REAL
@ATTRIBUTE f373 REAL
@ATTRIBUTE f374 REAL
@ATTRIBUTE f375 REAL
@ATTRIBUTE f376 REAL
@ATTRIBUTE f377 REAL
@ATTRIBUTE f378 REAL
@ATTRIBUTE f379 REAL
@ATTRIBUTE f380 REAL
@ATTRIBUTE f381 REAL
@ATTRIBUTE f382 REAL
@ATTRIBUTE f383 REAL
@ATTRIBUTE f384 REAL
@ATTRIBUTE f385 REAL
@ATTRIBUTE f386 REAL
@ATTRIBUTE f387 REAL
@ATTRIBUTE f388 REAL
@ATTRIBUTE f389 REAL
@ATTRIBUTE f390 REAL
@ATTRIBUTE f391 REAL
@ATTRIBUTE f392 REAL
@ATTRIBUTE f393 REAL
@ATTRIBUTE f394 REAL
@ATTRIBUTE f395 REAL
@ATTRIBUTE f396 REAL
@ATTRIBUTE f397 REAL
@ATTRIBUTE f398 REAL
@ATTRIBUTE f399 REAL
@ATTRIBUTE f400 REAL
@ATTRIBUTE f401 REAL
@ATTRIBUTE f402 REAL
@ATTRIBUTE f403 REAL
@ATTRIBUTE f404 REAL
@ATTRIBUTE f405 REAL
@ATTRIBUTE f406 REAL
@ATTRIBUTE f407 REAL
@ATTRIBUTE f408 REAL
@ATTRIBUTE f409 REAL
@ATTRIBUTE f410 REAL
@ATTRIBUTE f411 REAL
@ATTRIBUTE f412 REAL
@ATTRIBUTE f413 REAL
@ATTRIBUTE f414 REAL
@ATTRIBUTE f415 REAL
@ATTRIBUTE f416 REAL
@ATTRIBUTE f417 REAL
@ATTRIBUTE f418 REAL
@ATTRIBUTE f419 REAL
@ATTRIBUTE f420 REAL
@ATTRIBUTE f421 REAL
@ATTRIBUTE f422 REAL
@ATTRIBUTE f423 REAL
@ATTRIBUTE f424 REAL
@ATTRIBUTE f425 REAL
@ATTRIBUTE f426 REAL
@ATTRIBUTE f427 REAL
@ATTRIBUTE f428 REAL
@ATTRIBUTE f429 REAL
@ATTRIBUTE f430 REAL
@ATTRIBUTE f431 REAL
@ATTRIBUTE f432 REAL
@ATTRIBUTE f433 REAL
@ATTRIBUTE f434 REAL
@ATTRIBUTE f435 REAL
@ATTRIBUTE f436 REAL
@ATTRIBUTE f437 REAL
@ATTRIBUTE f438 REAL
@ATTRIBUTE f439 REAL
@ATTRIBUTE f440 REAL
@ATTRIBUTE f441 REAL
@ATTRIBUTE f442 REAL
@ATTRIBUTE f443 REAL
@ATTRIBUTE f444 REAL
@ATTRIBUTE f445 REAL
@ATTRIBUTE f446 REAL
@ATTRIBUTE f447 REAL
@ATTRIBUTE f448 REAL
@ATTRIBUTE f449 REAL
@ATTRIBUTE f450 REAL
@ATTRIBUTE f451 REAL
@ATTRIBUTE f452 REAL
@ATTRIBUTE f453 REAL
@ATTRIBUTE f454 REAL
@ATTRIBUTE f455 REAL
@ATTRIBUTE f456 REAL
@ATTRIBUTE f457 REAL
@ATTRIBUTE f458 REAL
@ATTRIBUTE f459 REAL
@ATTRIBUTE f460 REAL
@ATTRIBUTE f461 REAL
@ATTRIBUTE f462 REAL
@ATTRIBUTE f463 REAL
@ATTRIBUTE f464 REAL
@ATTRIBUTE f465 REAL
@ATTRIBUTE f466 REAL
@ATTRIBUTE f467 REAL
@ATTRIBUTE f468 REAL
@ATTRIBUTE f469 REAL
@ATTRIBUTE f470 REAL
@ATTRIBUTE f471 REAL
@ATTRIBUTE f472 REAL
@ATTRIBUTE f473 REAL
@ATTRIBUTE f474 REAL
@ATTRIBUTE f475 REAL
@ATTRIBUTE f476 REAL
@ATTRIBUTE f477 REAL
@ATTRIBUTE f478 REAL
@ATTRIBUTE f479 REAL
@ATTRIBUTE f480 REAL
@ATTRIBUTE f481 REAL
@ATTRIBUTE f482 REAL
@ATTRIBUTE f483 REAL
@ATTRIBUTE f484 REAL
@ATTRIBUTE f485 REAL
@ATTRIBUTE f486 REAL
@ATTRIBUTE f487 REAL
@ATTRIBUTE f488 REAL
@ATTRIBUTE f489 REAL
@ATTRIBUTE f490 REAL
@ATTRIBUTE f491 REAL
@ATTRIBUTE f492 REAL
@ATTRIBUTE f493 REAL
@ATTRIBUTE f494 REAL
@ATTRIBUTE f495 REAL
@ATTRIBUTE f496 REAL
@ATTRIBUTE f497 REAL
@ATTRIBUTE f498 REAL
@ATTRIBUTE f499 REAL
@ATTRIBUTE f500 REAL
@ATTRIBUTE f501 REAL
@ATTRIBUTE f502 REAL
@ATTRIBUTE f503 REAL
@ATTRIBUTE f504 REAL
@ATTRIBUTE f505 REAL
@ATTRIBUTE f506 REAL
@ATTRIBUTE f507 REAL
@ATTRIBUTE f508 REAL
@ATTRIBUTE f509 REAL
@ATTRIBUTE f510 REAL
@ATTRIBUTE f511 REAL
@ATTRIBUTE f512 REAL
@ATTRIBUTE f513 REAL
@ATTRIBUTE f514 REAL
@ATTRIBUTE f515 REAL
@ATTRIBUTE f516 REAL
@ATTRIBUTE f517 REAL
@ATTRIBUTE f518 REAL
@ATTRIBUTE f519 REAL
@ATTRIBUTE f520 REAL
@ATTRIBUTE f521 REAL
@ATTRIBUTE f522 REAL
@ATTRIBUTE f523 REAL
@ATTRIBUTE f524 REAL
@ATTRIBUTE f525 REAL
@ATTRIBUTE f526 REAL
@ATTRIBUTE f527 REAL
@ATTRIBUTE f528 REAL
@ATTRIBUTE f529 REAL
@ATTRIBUTE f530 REAL
@ATTRIBUTE f531 REAL
@ATTRIBUTE f532 REAL
@ATTRIBUTE f533 REAL
@ATTRIBUTE f534 REAL
@ATTRIBUTE f535 REAL
@ATTRIBUTE f536 REAL
@ATTRIBUTE f537 REAL
@ATTRIBUTE f538 REAL
@ATTRIBUTE f539 REAL
@ATTRIBUTE f540 REAL
@ATTRIBUTE f541 REAL
@ATTRIBUTE f542 REAL
@ATTRIBUTE f543 REAL
@ATTRIBUTE f544 REAL
@ATTRIBUTE f545 REAL
@ATTRIBUTE f546 REAL
@ATTRIBUTE f547 REAL
@ATTRIBUTE f548 REAL
@ATTRIBUTE f549 REAL
@ATTRIBUTE f550 REAL
@ATTRIBUTE f551 REAL
@ATTRIBUTE f552 REAL
@ATTRIBUTE f553 REAL
@ATTRIBUTE f554 REAL
@ATTRIBUTE f555 REAL
@ATTRIBUTE f556 REAL
@ATTRIBUTE f557 REAL
@ATTRIBUTE f558 REAL
@ATTRIBUTE f559 REAL
@ATTRIBUTE f560 REAL
@ATTRIBUTE f561 REAL
@ATTRIBUTE f562 REAL
@ATTRIBUTE f563 REAL
@ATTRIBUTE f564 REAL
@ATTRIBUTE f565 REAL
@ATTRIBUTE f566 REAL
@ATTRIBUTE f567 REAL
@ATTRIBUTE f568 REAL
@ATTRIBUTE f569 REAL
@ATTRIBUTE f570 REAL
@ATTRIBUTE f571 REAL
@ATTRIBUTE f572 REAL
@ATTRIBUTE f573 REAL
@ATTRIBUTE f574 REAL
@ATTRIBUTE f575 REAL
@ATTRIBUTE f576 REAL
@ATTRIBUTE f577 REAL
@ATTRIBUTE f578 REAL
@ATTRIBUTE f579 REAL
@ATTRIBUTE f580 REAL
@ATTRIBUTE f581 REAL
@ATTRIBUTE f582 REAL
@ATTRIBUTE f583 REAL
@ATTRIBUTE f584 REAL
@ATTRIBUTE f585 REAL
@ATTRIBUTE f586 REAL
@ATTRIBUTE f587 REAL
@ATTRIBUTE f588 REAL
@ATTRIBUTE f589 REAL
@ATTRIBUTE f590 REAL
@ATTRIBUTE f591 REAL
@ATTRIBUTE f592 REAL
@ATTRIBUTE f593 REAL
@ATTRIBUTE f594 REAL
@ATTRIBUTE f595 REAL
@ATTRIBUTE f596 REAL
@ATTRIBUTE f597 REAL
@ATTRIBUTE f598 REAL
@ATTRIBUTE f599 REAL
@ATTRIBUTE f600 REAL
@ATTRIBUTE f601 REAL
@ATTRIBUTE f602 REAL
@ATTRIBUTE f603 REAL
@ATTRIBUTE f604 REAL
@ATTRIBUTE f605 REAL
@ATTRIBUTE f606 REAL
@ATTRIBUTE f607 REAL
@ATTRIBUTE f608 REAL
@ATTRIBUTE f609 REAL
@ATTRIBUTE f610 REAL
@ATTRIBUTE f611 REAL
@ATTRIBUTE f612 REAL
@ATTRIBUTE f613 REAL
@ATTRIBUTE f614 REAL
@ATTRIBUTE f615 REAL
@ATTRIBUTE f616 REAL
@ATTRIBUTE f617 REAL
@ATTRIBUTE f618 REAL
@ATTRIBUTE f619 REAL
@ATTRIBUTE f620 REAL
@ATTRIBUTE f621 REAL
@ATTRIBUTE f622 REAL
@ATTRIBUTE f623 REAL
@ATTRIBUTE f624 REAL
@ATTRIBUTE f625 REAL
@ATTRIBUTE f626 REAL
@ATTRIBUTE f627 REAL
@ATTRIBUTE f628 REAL
@ATTRIBUTE f629 REAL
@ATTRIBUTE f630 REAL
@ATTRIBUTE f631 REAL
@ATTRIBUTE f632 REAL
@ATTRIBUTE f633 REAL
@ATTRIBUTE f634 REAL
@ATTRIBUTE f635 REAL
@ATTRIBUTE f636 REAL
@ATTRIBUTE f637 REAL
@ATTRIBUTE f638 REAL
@ATTRIBUTE f639 REAL
@ATTRIBUTE f640 REAL
@ATTRIBUTE f641 REAL
@ATTRIBUTE f642 REAL
@ATTRIBUTE f643 REAL
@ATTRIBUTE f644 REAL
@ATTRIBUTE f645 REAL
@ATTRIBUTE f646 REAL
@ATTRIBUTE f647 REAL
@ATTRIBUTE f648 REAL
@ATTRIBUTE f649 REAL
@ATTRIBUTE f650 REAL
@ATTRIBUTE f651 REAL
@ATTRIBUTE f652 REAL
@ATTRIBUTE f653 REAL
@ATTRIBUTE f654 REAL
@ATTRIBUTE f655 REAL
@ATTRIBUTE f656 REAL
@ATTRIBUTE f657 REAL
@ATTRIBUTE f658 REAL
@ATTRIBUTE f659 REAL
@ATTRIBUTE f660 REAL
@ATTRIBUTE f661 REAL
@ATTRIBUTE f662 REAL
@ATTRIBUTE f663 REAL
@ATTRIBUTE f664 REAL
@ATTRIBUTE f665 REAL
@ATTRIBUTE f666 REAL
@ATTRIBUTE f667 REAL
@ATTRIBUTE f668 REAL
@ATTRIBUTE f669 REAL
@ATTRIBUTE f670 REAL
@ATTRIBUTE f671 REAL
@ATTRIBUTE f672 REAL
@ATTRIBUTE f673 REAL
@ATTRIBUTE f674 REAL
@ATTRIBUTE f675 REAL
@ATTRIBUTE f676 REAL
@ATTRIBUTE f677 REAL
@ATTRIBUTE f678 REAL
@ATTRIBUTE f679 REAL
@ATTRIBUTE f680 REAL
@ATTRIBUTE f681 REAL
@ATTRIBUTE f682 REAL
@ATTRIBUTE f683 REAL
@ATTRIBUTE f684 REAL
@ATTRIBUTE f685 REAL
@ATTRIBUTE f686 REAL
@ATTRIBUTE f687 REAL
@ATTRIBUTE f688 REAL
@ATTRIBUTE f689 REAL
@ATTRIBUTE f690 REAL
@ATTRIBUTE f691 REAL
@ATTRIBUTE f692 REAL
@ATTRIBUTE f693 REAL
@ATTRIBUTE f694 REAL
@ATTRIBUTE f695 REAL
@ATTRIBUTE f696 REAL
@ATTRIBUTE f697 REAL
@ATTRIBUTE f698 REAL
@ATTRIBUTE f699 REAL
@ATTRIBUTE f700 REAL
@ATTRIBUTE f701 REAL
@ATTRIBUTE f702 REAL
@ATTRIBUTE f703 REAL
@ATTRIBUTE f704 REAL
@ATTRIBUTE f705 REAL
@ATTRIBUTE f706 REAL
@ATTRIBUTE f707 REAL
@ATTRIBUTE f708 REAL
@ATTRIBUTE f709 REAL
@ATTRIBUTE f710 REAL
@ATTRIBUTE f711 REAL
@ATTRIBUTE f712 REAL
@ATTRIBUTE f713 REAL
@ATTRIBUTE f714 REAL
@ATTRIBUTE f715 REAL
@ATTRIBUTE f716 REAL
@ATTRIBUTE f717 REAL
@ATTRIBUTE f718 REAL
@ATTRIBUTE f719 REAL
@ATTRIBUTE f720 REAL
@ATTRIBUTE f721 REAL
@ATTRIBUTE f722 REAL
@ATTRIBUTE f723 REAL
@ATTRIBUTE f724 REAL
@ATTRIBUTE f725 REAL
@ATTRIBUTE f726 REAL
@ATTRIBUTE f727 REAL
@ATTRIBUTE f728 REAL
@ATTRIBUTE f729 REAL
@ATTRIBUTE f730 REAL
@ATTRIBUTE f731 REAL
@ATTRIBUTE f732 REAL
@ATTRIBUTE f733 REAL
@ATTRIBUTE f734 REAL
@ATTRIBUTE f735 REAL
@ATTRIBUTE f736 REAL
@ATTRIBUTE f737 REAL
@ATTRIBUTE f738 REAL
@ATTRIBUTE f739 REAL
@ATTRIBUTE f740 REAL
@ATTRIBUTE f741 REAL
@ATTRIBUTE f742 REAL
@ATTRIBUTE f743 REAL
@ATTRIBUTE f744 REAL
@ATTRIBUTE f745 REAL
@ATTRIBUTE f746 REAL
@ATTRIBUTE f747 REAL
@ATTRIBUTE f748 REAL
@ATTRIBUTE f749 REAL
@ATTRIBUTE f750 REAL
@ATTRIBUTE f751 REAL
@ATTRIBUTE f752 REAL
@ATTRIBUTE f753 REAL
@ATTRIBUTE f754 REAL
@ATTRIBUTE f755 REAL
@ATTRIBUTE f756 REAL
@ATTRIBUTE f757 REAL
@ATTRIBUTE f758 REAL
@ATTRIBUTE f759 REAL
@ATTRIBUTE f760 REAL
@ATTRIBUTE f761 REAL
@ATTRIBUTE f762 REAL
@ATTRIBUTE f763 REAL
@ATTRIBUTE f764 REAL
@ATTRIBUTE f765 REAL
@ATTRIBUTE f766 REAL
@ATTRIBUTE f767 REAL
@ATTRIBUTE f768 REAL
@ATTRIBUTE f769 REAL
@ATTRIBUTE f770 REAL
@ATTRIBUTE f771 REAL
@ATTRIBUTE f772 REAL
@ATTRIBUTE f773 REAL
@ATTRIBUTE f774 REAL
@ATTRIBUTE f775 REAL
@ATTRIBUTE f776 REAL
@ATTRIBUTE f777 REAL
@ATTRIBUTE f778 REAL
@ATTRIBUTE f779 REAL
@ATTRIBUTE f780 REAL
@ATTRIBUTE f781 REAL
@ATTRIBUTE f782 REAL
@ATTRIBUTE f783 REAL
@ATTRIBUTE f784 REAL
@ATTRIBUTE f785 REAL
@ATTRIBUTE f786 REAL
@ATTRIBUTE f787 REAL
@ATTRIBUTE f788 REAL
@ATTRIBUTE f789 REAL
@ATTRIBUTE f790 REAL
@ATTRIBUTE f791 REAL
@ATTRIBUTE f792 REAL
@ATTRIBUTE f793 REAL
@ATTRIBUTE f794 REAL
@ATTRIBUTE f795 REAL
@ATTRIBUTE f796 REAL
@ATTRIBUTE f797 REAL
@ATTRIBUTE f798 REAL
@ATTRIBUTE f799 REAL
@ATTRIBUTE f800 REAL
@ATTRIBUTE f801 REAL
@ATTRIBUTE f802 REAL
@ATTRIBUTE f803 REAL
@ATTRIBUTE f804 REAL
@ATTRIBUTE f805 REAL
@ATTRIBUTE f806 REAL
@ATTRIBUTE f807 REAL
@ATTRIBUTE f808 REAL
@ATTRIBUTE f809 REAL
@ATTRIBUTE f810 REAL
@ATTRIBUTE f811 REAL
@ATTRIBUTE f812 REAL
@ATTRIBUTE f813 REAL
@ATTRIBUTE f814 REAL
@ATTRIBUTE f815 REAL
@ATTRIBUTE f816 REAL
@ATTRIBUTE f817 REAL
@ATTRIBUTE f818 REAL
@ATTRIBUTE f819 REAL
@ATTRIBUTE f820 REAL
@ATTRIBUTE f821 REAL
@ATTRIBUTE f822 REAL
@ATTRIBUTE f823 REAL
@ATTRIBUTE f824 REAL
@ATTRIBUTE f825 REAL
@ATTRIBUTE f826 REAL
@ATTRIBUTE f827 REAL
@ATTRIBUTE f828 REAL
@ATTRIBUTE f829 REAL
@ATTRIBUTE f830 REAL
@ATTRIBUTE f831 REAL
@ATTRIBUTE f832 REAL
@ATTRIBUTE f833 REAL
@ATTRIBUTE f834 REAL
@ATTRIBUTE f835 REAL
@ATTRIBUTE f836 REAL
@ATTRIBUTE f837 REAL
@ATTRIBUTE f838 REAL
@ATTRIBUTE f839 REAL
@ATTRIBUTE f840 REAL
@ATTRIBUTE f841 REAL
@ATTRIBUTE f842 REAL
@ATTRIBUTE f843 REAL
@ATTRIBUTE f844 REAL
@ATTRIBUTE f845 REAL
@ATTRIBUTE f846 REAL
@ATTRIBUTE f847 REAL
@ATTRIBUTE f848 REAL
@ATTRIBUTE f849 REAL
@ATTRIBUTE f850 REAL
@ATTRIBUTE f851 REAL
@ATTRIBUTE f852 REAL
@ATTRIBUTE f853 REAL
@ATTRIBUTE f854 REAL
@ATTRIBUTE f855 REAL
@ATTRIBUTE f856 REAL
@ATTRIBUTE f857 REAL
@ATTRIBUTE f858 REAL
@ATTRIBUTE f859 REAL
@ATTRIBUTE f860 REAL
@ATTRIBUTE f861 REAL
@ATTRIBUTE f862 REAL
@ATTRIBUTE f863 REAL
@ATTRIBUTE f864 REAL
@ATTRIBUTE f865 REAL
@ATTRIBUTE f866 REAL
@ATTRIBUTE f867 REAL
@ATTRIBUTE f868 REAL
@ATTRIBUTE f869 REAL
@ATTRIBUTE f870 REAL
@ATTRIBUTE f871 REAL
@ATTRIBUTE f872 REAL
@ATTRIBUTE f873 REAL
@ATTRIBUTE f874 REAL
@ATTRIBUTE f875 REAL
@ATTRIBUTE f876 REAL
@ATTRIBUTE f877 REAL
@ATTRIBUTE f878 REAL
@ATTRIBUTE f879 REAL
@ATTRIBUTE f880 REAL
@ATTRIBUTE f881 REAL
@ATTRIBUTE f882 REAL
@ATTRIBUTE f883 REAL
@ATTRIBUTE f884 REAL
@ATTRIBUTE f885 REAL
@ATTRIBUTE f886 REAL
@ATTRIBUTE f887 REAL
@ATTRIBUTE f888 REAL
@ATTRIBUTE f889 REAL
@ATTRIBUTE f890 REAL
@ATTRIBUTE f891 REAL
@ATTRIBUTE f892 REAL
@ATTRIBUTE f893 REAL
@ATTRIBUTE f894 REAL
@ATTRIBUTE f895 REAL
@ATTRIBUTE f896 REAL
@ATTRIBUTE f897 REAL
@ATTRIBUTE f898 REAL
@ATTRIBUTE f899 REAL
@ATTRIBUTE f900 REAL
@ATTRIBUTE f901 REAL
@ATTRIBUTE f902 REAL
@ATTRIBUTE f903 REAL
@ATTRIBUTE f904 REAL
@ATTRIBUTE f905 REAL
@ATTRIBUTE f906 REAL
@ATTRIBUTE f907 REAL
@ATTRIBUTE f908 REAL
@ATTRIBUTE f909 REAL
@ATTRIBUTE f910 REAL
@ATTRIBUTE f911 REAL
@ATTRIBUTE f912 REAL
@ATTRIBUTE f913 REAL
@ATTRIBUTE f914 REAL
@ATTRIBUTE f915 REAL
@ATTRIBUTE f916 REAL
@ATTRIBUTE f917 REAL
@ATTRIBUTE f918 REAL
@ATTRIBUTE f919 REAL
@ATTRIBUTE f920 REAL
@ATTRIBUTE f921 REAL
@ATTRIBUTE f922 REAL
@ATTRIBUTE f923 REAL
@ATTRIBUTE f924 REAL
@ATTRIBUTE f925 REAL
@ATTRIBUTE f926 REAL
@ATTRIBUTE f927 REAL
@ATTRIBUTE f928 REAL
@ATTRIBUTE f929 REAL
@ATTRIBUTE f930 REAL
@ATTRIBUTE f931 REAL
@ATTRIBUTE f932 REAL
@ATTRIBUTE f933 REAL
@ATTRIBUTE f934 REAL
@ATTRIBUTE f935 REAL
@ATTRIBUTE f936 REAL
@ATTRIBUTE f937 REAL
@ATTRIBUTE f938 REAL
@ATTRIBUTE f939 REAL
@ATTRIBUTE f940 REAL
@ATTRIBUTE f941 REAL
@ATTRIBUTE f942 REAL
@ATTRIBUTE f943 REAL
@ATTRIBUTE f944 REAL
@ATTRIBUTE f945 REAL
@ATTRIBUTE f946 REAL
@ATTRIBUTE f947 REAL
@ATTRIBUTE f948 REAL
@ATTRIBUTE f949 REAL
@ATTRIBUTE f950 REAL
@ATTRIBUTE f951 REAL
@ATTRIBUTE f952 REAL
@ATTRIBUTE f953 REAL
@ATTRIBUTE f954 REAL
@ATTRIBUTE f955 REAL
@ATTRIBUTE f956 REAL
@ATTRIBUTE f957 REAL
@ATTRIBUTE f958 REAL
@ATTRIBUTE f959 REAL
@ATTRIBUTE f960 REAL
@ATTRIBUTE class {AMB,CO2,UM90}
@DATA
0.5461165048543689,0.05825242718446602,0.01699029126213592,0.0,0.0,0.0,0.0,0.0,0.0,0.0,0.0,0.0,0.0,0.0,0.0,0.0,0.0,0.0,0.0,0.3786407766990291,0.47702407002188185,0.22538293216630198,0.06783369803063458,0.02188183807439825,0.024070021881838075,0.019693654266958426,0.019693654266958426,0.006564551422319475,0.0175054704595186,0.00437636761487965,0.002188183807439825,0.0,0.0,0.0,0.00437636761487965,0.0,0.0,0.00437636761487965,0.0087527352297593,0.0962800875273523,0.22943722943722944,0.24025974025974026,0.11904761904761904,0.045454545454545456,0.05627705627705628,0.0367965367965368,0.030303030303030304,0.0367965367965368,0.021645021645021644,0.02813852813852814,0.017316017316017316,0.008658008658008658,0.008658008658008658,0.015151515151515152,0.0021645021645021645,0.0021645021645021645,0.010822510822510822,0.004329004329004329,0.010822510822510822,0.07575757575757576,0.11663066954643629,0.19870410367170627,0.11663066954643629,0.06695464362850972,0.09719222462203024,0.07775377969762419,0.08423326133909287,0.01079913606911447,0.03023758099352052,0.023758099352051837,0.012958963282937365,0.0064794816414686825,0.004319654427645789,0.0,0.004319654427645789,0.0064794816414686825,0.004319654427645789,0.004319654427645789,0.05183585313174946,0.08207343412526998,0.15550755939524838,0.17926565874730022,0.10367170626349892,0.12311015118790497,0.10583153347732181,0.06047516198704104,0.04535637149028078,0.03455723542116631,0.0064794816414686825,0.02159827213822894,0.01511879049676026,0.01079913606911447,0.01511879049676026,0.01511879049676026,0.0021598272138228943,0.01079913606911447,0.017278617710583154,0.008639308855291577,0.04319654427645788,0.02591792656587473,0.32397408207343414,0.2678185745140389,0.17278617710583152,0.09071274298056156,0.06695464362850972,0.04103671706263499,0.008639308855291577,0.0064794816414686825,0.0021598272138228943,0.0,0.0,0.0,0.0,0.0,0.0,0.0,0.0,0.0,0.0,0.019438444924406047,0.4319654427645788,0.31965442764578833,0.10583153347732181,0.06695464362850972,0.04319654427645788,0.01511879049676026,0.008639308855291577,0.008639308855291577,0.0,0.0,0.0,0.0,0.0,0.0,0.0,0.0,0.0,0.0,0.0,0.0,0.468682505399568,0.34989200863930886,0.12958963282937366,0.047516198704103674,0.0,0.0,0.0,0.0,0.0,0.0,0.0,0.0,0.0,0.0,0.0,0.0,0.0,0.0,0.0,0.004319654427645789,0.4298056155507559,0.3779697624190065,0.1447084233261339,0.023758099352051837,0.0,0.0,0.0,0.0,0.0,0.0,0.0,0.0,0.0,0.0,0.004319654427645789,0.0,0.0,0.0,0.0,0.019438444924406047,0.5766738660907127,0.35205183585313177,0.06047516198704104,0.0064794816414686825,0.0,0.0,0.0,0.0,0.0,0.0,0.0,0.0,0.0,0.0,0.0,0.0,0.0,0.0,0.0,0.004319654427645789,0.6436285097192225,0.31965442764578833,0.028077753779697623,0.0,0.0,0.0,0.0,0.0,0.0,0.0,0.0,0.0,0.0,0.0,0.0,0.0,0.0,0.0,0.0,0.008639308855291577,0.6349892008639308,0.3390928725701944,0.02591792656587473,0.0,0.0,0.0,0.0,0.0,0.0,0.0,0.0,0.0,0.0,0.0,0.0,0.0,0.0,0.0,0.0,0.0,0.6133909287257019,0.3714902807775378,0.01079913606911447,0.0,0.0,0.0,0.0,0.0,0.0,0.0,0.0,0.0,0.0,0.0,0.0,0.0,0.0,0.0,0.0,0.004319654427645789,0.5982721382289417,0.34989200863930886,0.04967602591792657,0.0021598272138228943,0.0,0.0,0.0,0.0,0.0,0.0,0.0,0.0,0.0,0.0,0.0,0.0,0.0,0.0,0.0,0.0,0.6133909287257019,0.32181425485961124,0.06479481641468683,0.0,0.0,0.0,0.0,0.0,0.0,0.0,0.0,0.0,0.0,0.0,0.0,0.0,0.0,0.0,0.0,0.0,0.6177105831533477,0.38228941684665224,0.0,0.0,0.0,0.0,0.0,0.0,0.0,0.0,0.0,0.0,0.0,0.0,0.0,0.0,0.0,0.0,0.0,0.0,0.975,0.0,0.0,0.0,0.0,0.0,0.0,0.0,0.0,0.0,0.0,0.0,0.0,0.0,0.0,0.0,0.0,0.0,0.0,0.025,0.95,0.0,0.0,0.025,0.0,0.0,0.0,0.0,0.0,0.0,0.0,0.0,0.0,0.0,0.0,0.025,0.0,0.0,0.0,0.0,0.925,0.025,0.0,0.0,0.025,0.0,0.0,0.0,0.0,0.0,0.0,0.0,0.025,0.0,0.0,0.0,0.0,0.0,0.0,0.0,0.95,0.0,0.0,0.0,0.0,0.025,0.0,0.0,0.0,0.0,0.0,0.0,0.025,0.0,0.0,0.0,0.0,0.0,0.0,0.0,0.95,0.0,0.0,0.0,0.0,0.025,0.0,0.0,0.0,0.0,0.0,0.0,0.025,0.0,0.0,0.0,0.0,0.0,0.0,0.0,0.95,0.0,0.0,0.0,0.025,0.0,0.0,0.0,0.0,0.0,0.0,0.0,0.0,0.025,0.0,0.0,0.0,0.0,0.0,0.0,0.925,0.025,0.025,0.0,0.0,0.0,0.0,0.0,0.0,0.0,0.0,0.0,0.025,0.0,0.0,0.0,0.0,0.0,0.0,0.0,0.975,0.0,0.0,0.0,0.0,0.0,0.0,0.0,0.0,0.0,0.0,0.0,0.0,0.0,0.0,0.0,0.0,0.0,0.025,0.0,0.925,0.05,0.0,0.0,0.0,0.0,0.0,0.0,0.0,0.0,0.0,0.0,0.0,0.0,0.0,0.0,0.0,0.025,0.0,0.0,0.975,0.0,0.0,0.0,0.0,0.0,0.0,0.0,0.0,0.0,0.0,0.0,0.0,0.0,0.0,0.0,0.0,0.0,0.025,0.0,0.975,0.0,0.0,0.0,0.0,0.0,0.0,0.0,0.0,0.0,0.0,0.0,0.0,0.0,0.0,0.0,0.0,0.0,0.0,0.025,0.95,0.0,0.025,0.0,0.0,0.0,0.0,0.0,0.0,0.0,0.0,0.0,0.0,0.0,0.0,0.0,0.025,0.0,0.0,0.0,0.975,0.0,0.0,0.0,0.0,0.0,0.0,0.0,0.0,0.0,0.0,0.0,0.0,0.0,0.0,0.0,0.0,0.0,0.0,0.025,0.95,0.0,0.025,0.0,0.0,0.0,0.0,0.0,0.0,0.0,0.0,0.0,0.0,0.0,0.0,0.0,0.0,0.025,0.0,0.0,0.925,0.025,0.025,0.0,0.0,0.0,0.0,0.0,0.0,0.0,0.0,0.0,0.0,0.0,0.0,0.025,0.0,0.0,0.0,0.0,0.95,0.025,0.0,0.0,0.0,0.0,0.0,0.0,0.0,0.0,0.0,0.0,0.0,0.0,0.0,0.0,0.0,0.0,0.025,0.0,0.39805825242718446,0.21601941747572814,0.007281553398058253,0.0,0.3786407766990291,0.0,0.0,0.0,0.0,0.0,0.0,0.0,0.0,0.0,0.0,0.0,0.0,0.0,0.0,0.0,0.30196936542669583,0.40700218818380746,0.087527352297593,0.028446389496717725,0.08533916849015317,0.037199124726477024,0.0,0.015317286652078774,0.019693654266958426,0.0087527352297593,0.0087527352297593,0.0,0.0,0.0,0.0,0.0,0.0,0.0,0.0,0.0,0.10822510822510822,0.3658008658008658,0.1471861471861472,0.09740259740259741,0.08225108225108226,0.05844155844155844,0.03896103896103896,0.023809523809523808,0.012987012987012988,0.021645021645021644,0.023809523809523808,0.010822510822510822,0.0021645021645021645,0.006493506493506494,0.0,0.0,0.0,0.0,0.0,0.0,0.05183585313174946,0.2591792656587473,0.17278617710583152,0.2203023758099352,0.08207343412526998,0.028077753779697623,0.032397408207343416,0.017278617710583154,0.07127429805615551,0.017278617710583154,0.0064794816414686825,0.004319654427645789,0.0,0.008639308855291577,0.008639308855291577,0.012958963282937365,0.004319654427645789,0.0021598272138228943,0.0,0.0,0.06695464362850972,0.26997840172786175,0.2224622030237581,0.20086393088552915,0.04319654427645788,0.03455723542116631,0.023758099352051837,0.02591792656587473,0.032397408207343416,0.03023758099352052,0.03455723542116631,0.008639308855291577,0.004319654427645789,0.0021598272138228943,0.0,0.0,0.0,0.0,0.0,0.0,0.1771058315334773,0.42116630669546434,0.3002159827213823,0.06695464362850972,0.01511879049676026,0.008639308855291577,0.0021598272138228943,0.0,0.0064794816414686825,0.0021598272138228943,0.0,0.0,0.0,0.0,0.0,0.0,0.0,0.0,0.0,0.0,0.24838012958963282,0.5053995680345572,0.1879049676025918,0.04103671706263499,0.017278617710583154,0.0,0.0,0.0,0.0,0.0,0.0,0.0,0.0,0.0,0.0,0.0,0.0,0.0,0.0,0.0,0.2526997840172786,0.5809935205183585,0.16198704103671707,0.0,0.0,0.004319654427645789,0.0,0.0,0.0,0.0,0.0,0.0,0.0,0.0,0.0,0.0,0.0,0.0,0.0,0.0,0.2505399568034557,0.6155507559395248,0.1101511879049676,0.0,0.0021598272138228943,0.0021598272138228943,0.0,0.0,0.0,0.012958963282937365,0.0021598272138228943,0.0,0.0,0.004319654427645789,0.0,0.0,0.0,0.0,0.0,0.0,0.31533477321814257,0.6393088552915767,0.04103671706263499,0.0,0.0021598272138228943,0.0021598272138228943,0.0,0.0,0.0,0.0,0.0,0.0,0.0,0.0,0.0,0.0,0.0,0.0,0.0,0.0,0.35853131749460043,0.6047516198704104,0.028077753779697623,0.0,0.008639308855291577,0.0,0.0,0.0,0.0,0.0,0.0,0.0,0.0,0.0,0.0,0.0,0.0,0.0,0.0,0.0,0.31533477321814257,0.67170626349892,0.012958963282937365,0.0,0.0,0.0,0.0,0.0,0.0,0.0,0.0,0.0,0.0,0.0,0.0,0.0,0.0,0.0,0.0,0.0,0.3390928725701944,0.6501079913606912,0.0064794816414686825,0.0,0.004319654427645789,0.0,0.0,0.0,0.0,0.0,0.0,0.0,0.0,0.0,0.0,0.0,0.0,0.0,0.0,0.0,0.2980561555075594,0.6630669546436285,0.038876889848812095,0.0,0.0,0.0,0.0,0.0,0.0,0.0,0.0,0.0,0.0,0.0,0.0,0.0,0.0,0.0,0.0,0.0,0.28725701943844495,0.6997840172786177,0.012958963282937365,0.0,0.0,0.0,0.0,0.0,0.0,0.0,0.0,0.0,0.0,0.0,0.0,0.0,0.0,0.0,0.0,0.0,0.31965442764578833,0.6803455723542117,0.0,0.0,0.0,0.0,0.0,0.0,0.0,0.0,0.0,0.0,0.0,0.0,0.0,0.0,0.0,0.0,0.0,0.0,AMB
0.5405405405405406,0.05675675675675676,0.0,0.0,0.0,0.0,0.0,0.0,0.0,0.0,0.0,0.0,0.0,0.0,0.0,0.0,0.0,0.0,0.0,0.4027027027027027,0.4897959183673469,0.21315192743764172,0.061224489795918366,0.02040816326530612,0.006802721088435374,0.006802721088435374,0.006802721088435374,0.0,0.0,0.0022675736961451248,0.0022675736961451248,0.0022675736961451248,0.0045351473922902496,0.0,0.0022675736961451248,0.0,0.018140589569160998,0.0022675736961451248,0.013605442176870748,0.1473922902494331,0.23725055432372505,0.17516629711751663,0.10643015521064302,0.07317073170731707,0.07095343680709534,0.06651884700665188,0.05321507760532151,0.0066518847006651885,0.024390243902439025,0.017738359201773836,0.019955654101995565,0.013303769401330377,0.0022172949002217295,0.0066518847006651885,0.0066518847006651885,0.004434589800443459,0.0,0.0,0.024390243902439025,0.09090909090909091,0.12638580931263857,0.07760532150776053,0.09534368070953436,0.07982261640798226,0.11529933481152993,0.08425720620842572,0.08647450110864745,0.050997782705099776,0.05543237250554324,0.05543237250554324,0.050997782705099776,0.017738359201773836,0.017738359201773836,0.011086474501108648,0.013303769401330377,0.0,0.0,0.0,0.024390243902439025,0.037694013303769404,0.0975609756097561,0.17516629711751663,0.12416851441241686,0.10199556541019955,0.11529933481152993,0.082039911308204,0.07317073170731707,0.031042128603104215,0.022172949002217297,0.026607538802660754,0.022172949002217297,0.017738359201773836,0.024390243902439025,0.004434589800443459,0.011086474501108648,0.0022172949002217295,0.0,0.004434589800443459,0.013303769401330377,0.050997782705099776,0.29933481152993346,0.3303769401330377,0.1973392461197339,0.10643015521064302,0.04878048780487805,0.017738359201773836,0.0,0.0,0.0,0.0,0.0,0.0,0.0,0.0,0.0,0.0,0.0,0.0,0.0,0.0,0.4190687361419069,0.3835920177383592,0.09312638580931264,0.06430155210643015,0.028824833702882482,0.004434589800443459,0.0,0.0,0.0,0.0,0.0,0.0,0.0,0.0,0.0,0.0,0.0,0.0,0.0,0.0066518847006651885,0.41019955654101997,0.38137472283813745,0.15299334811529933,0.037694013303769404,0.011086474501108648,0.0022172949002217295,0.0,0.0,0.0,0.0,0.0,0.0,0.0,0.0,0.0,0.0,0.0,0.0,0.0,0.004434589800443459,0.5942350332594235,0.35476718403547675,0.050997782705099776,0.0,0.0,0.0,0.0,0.0,0.0,0.0,0.0,0.0,0.0,0.0,0.0,0.0,0.0,0.0,0.0,0.0,0.6873614190687362,0.21951219512195122,0.06430155210643015,0.008869179600886918,0.0,0.0,0.0,0.0,0.0,0.0,0.0,0.0,0.0,0.0022172949002217295,0.0,0.0,0.0,0.0,0.011086474501108648,0.0066518847006651885,0.5254988913525499,0.42572062084257206,0.04212860310421286,0.0,0.0,0.0,0.0,0.0,0.0,0.0,0.0,0.0,0.0,0.0,0.0,0.0,0.0,0.0,0.0,0.0066518847006651885,0.623059866962306,0.3392461197339246,0.017738359201773836,0.008869179600886918,0.0066518847006651885,0.0,0.0,0.0,0.0,0.0,0.0,0.0,0.0,0.0,0.0,0.0,0.0,0.0,0.0,0.004434589800443459,0.6031042128603105,0.3237250554323725,0.06873614190687362,0.0,0.0,0.0,0.0,0.0,0.0,0.0,0.0,0.0,0.0,0.0,0.0,0.0,0.0,0.0,0.0,0.004434589800443459,0.7516629711751663,0.24611973392461198,0.0022172949002217295,0.0,0.0,0.0,0.0,0.0,0.0,0.0,0.0,0.0,0.0,0.0,0.0,0.0,0.0,0.0,0.0,0.0,0.7516629711751663,0.24168514412416853,0.0022172949002217295,0.0,0.0,0.0,0.0,0.0,0.0,0.0,0.0,0.0,0.0,0.0,0.0,0.0,0.0,0.0,0.0,0.004434589800443459,0.7804878048780488,0.21951219512195122,0.0,0.0,0.0,0.0,0.0,0.0,0.0,0.0,0.0,0.0,0.0,0.0,0.0,0.0,0.0,0.0,0.0,0.0,0.975,0.0,0.0,0.0,0.0,0.0,0.0,0.0,0.0,0.0,0.0,0.0,0.0,0.0,0.0,0.0,0.0,0.0,0.0,0.025,0.95,0.0,0.025,0.0,0.0,0.0,0.0,0.0,0.0,0.0,0.0,0.0,0.0,0.0,0.0,0.0,0.025,0.0,0.0,0.0,0.925,0.025,0.0,0.0,0.0,0.0,0.025,0.0,0.0,0.0,0.025,0.0,0.0,0.0,0.0,0.0,0.0,0.0,0.0,0.0,0.925,0.025,0.0,0.0,0.0,0.025,0.0,0.0,0.0,0.0,0.025,0.0,0.0,0.0,0.0,0.0,0.0,0.0,0.0,0.0,0.925,0.025,0.025,0.0,0.0,0.0,0.0,0.0,0.0,0.0,0.0,0.0,0.0,0.025,0.0,0.0,0.0,0.0,0.0,0.0,0.925,0.025,0.0,0.025,0.0,0.0,0.0,0.0,0.0,0.0,0.0,0.0,0.0,0.025,0.0,0.0,0.0,0.0,0.0,0.0,0.95,0.025,0.0,0.0,0.0,0.0,0.0,0.0,0.0,0.0,0.0,0.0,0.0,0.0,0.0,0.0,0.0,0.0,0.025,0.0,0.95,0.025,0.0,0.0,0.0,0.0,0.0,0.0,0.0,0.0,0.0,0.0,0.0,0.0,0.0,0.0,0.0,0.025,0.0,0.0,0.925,0.025,0.025,0.0,0.0,0.0,0.0,0.0,0.0,0.0,0.0,0.0,0.0,0.0,0.0,0.0,0.025,0.0,0.0,0.0,0.925,0.0,0.025,0.025,0.0,0.0,0.0,0.0,0.0,0.0,0.0,0.0,0.0,0.025,0.0,0.0,0.0,0.0,0.0,0.0,0.975,0.0,0.0,0.0,0.0,0.0,0.0,0.0,0.0,0.0,0.0,0.0,0.0,0.0,0.0,0.0,0.0,0.0,0.0,0.025,0.975,0.0,0.0,0.0,0.0,0.0,0.0,0.0,0.0,0.0,0.0,0.0,0.0,0.0,0.0,0.0,0.0,0.0,0.0,0.025,0.975,0.0,0.0,0.0,0.0,0.0,0.0,0.0,0.0,0.0,0.0,0.0,0.0,0.0,0.0,0.0,0.0,0.0,0.0,0.025,0.95,0.0,0.025,0.0,0.0,0.0,0.0,0.0,0.0,0.0,0.0,0.0,0.0,0.0,0.0,0.0,0.0,0.025,0.0,0.0,0.975,0.0,0.0,0.0,0.0,0.0,0.0,0.0,0.0,0.0,0.0,0.0,0.0,0.0,0.0,0.0,0.0,0.0,0.0,0.025,0.975,0.0,0.0,0.0,0.0,0.0,0.0,0.0,0.0,0.0,0.0,0.0,0.0,0.0,0.0,0.0,0.0,0.0,0.0,0.025,0.3972972972972973,0.2,0.0,0.0,0.4027027027027027,0.0,0.0,0.0,0.0,0.0,0.0,0.0,0.0,0.0,0.0,0.0,0.0,0.0,0.0,0.0,0.2925170068027211,0.4126984126984127,0.07936507936507936,0.013605442176870748,0.09523809523809523,0.013605442176870748,0.0022675736961451248,0.0022675736961451248,0.031746031746031744,0.02947845804988662,0.011337868480725623,0.0045351473922902496,0.0,0.0,0.0022675736961451248,0.009070294784580499,0.0,0.0,0.0,0.0,0.164079822616408,0.24390243902439024,0.164079822616408,0.15521064301552107,0.07095343680709534,0.04212860310421286,0.03325942350332594,0.026607538802660754,0.024390243902439025,0.019955654101995565,0.011086474501108648,0.0066518847006651885,0.011086474501108648,0.0,0.011086474501108648,0.013303769401330377,0.0022172949002217295,0.0,0.0,0.0,0.07538802660753881,0.13303769401330376,0.16186252771618626,0.22838137472283815,0.08869179600886919,0.10199556541019955,0.07538802660753881,0.04212860310421286,0.017738359201773836,0.022172949002217297,0.022172949002217297,0.013303769401330377,0.0,0.0,0.0066518847006651885,0.011086474501108648,0.0,0.0,0.0,0.0,0.04656319290465632,0.23725055432372505,0.1951219512195122,0.24168514412416853,0.082039911308204,0.05543237250554324,0.06430155210643015,0.024390243902439025,0.0,0.0,0.0,0.004434589800443459,0.004434589800443459,0.011086474501108648,0.008869179600886918,0.017738359201773836,0.0066518847006651885,0.0,0.0,0.0,0.16851441241685144,0.4789356984478936,0.31263858093126384,0.03991130820399113,0.0,0.0,0.0,0.0,0.0,0.0,0.0,0.0,0.0,0.0,0.0,0.0,0.0,0.0,0.0,0.0,0.23503325942350334,0.5986696230598669,0.14855875831485588,0.011086474501108648,0.0066518847006651885,0.0,0.0,0.0,0.0,0.0,0.0,0.0,0.0,0.0,0.0,0.0,0.0,0.0,0.0,0.0,0.21286031042128603,0.6274944567627494,0.14634146341463414,0.008869179600886918,0.0,0.004434589800443459,0.0,0.0,0.0,0.0,0.0,0.0,0.0,0.0,0.0,0.0,0.0,0.0,0.0,0.0,0.3303769401330377,0.647450110864745,0.022172949002217297,0.0,0.0,0.0,0.0,0.0,0.0,0.0,0.0,0.0,0.0,0.0,0.0,0.0,0.0,0.0,0.0,0.0,0.37028824833702884,0.5587583148558758,0.050997782705099776,0.0,0.0022172949002217295,0.0,0.0,0.0,0.0,0.0022172949002217295,0.0066518847006651885,0.008869179600886918,0.0,0.0,0.0,0.0,0.0,0.0,0.0,0.0,0.2749445676274945,0.6962305986696231,0.022172949002217297,0.0,0.0,0.0066518847006651885,0.0,0.0,0.0,0.0,0.0,0.0,0.0,0.0,0.0,0.0,0.0,0.0,0.0,0.0,0.31929046563192903,0.6496674057649667,0.026607538802660754,0.0,0.0,0.004434589800443459,0.0,0.0,0.0,0.0,0.0,0.0,0.0,0.0,0.0,0.0,0.0,0.0,0.0,0.0,0.2926829268292683,0.6651884700665188,0.037694013303769404,0.0,0.004434589800443459,0.0,0.0,0.0,0.0,0.0,0.0,0.0,0.0,0.0,0.0,0.0,0.0,0.0,0.0,0.0,0.36363636363636365,0.6341463414634146,0.0022172949002217295,0.0,0.0,0.0,0.0,0.0,0.0,0.0,0.0,0.0,0.0,0.0,0.0,0.0,0.0,0.0,0.0,0.0,0.3370288248337029,0.656319290465632,0.0022172949002217295,0.0,0.004434589800443459,0.0,0.0,0.0,0.0,0.0,0.0,0.0,0.0,0.0,0.0,0.0,0.0,0.0,0.0,0.0,0.36363636363636365,0.6363636363636364,0.0,0.0,0.0,0.0,0.0,0.0,0.0,0.0,0.0,0.0,0.0,0.0,0.0,0.0,0.0,0.0,0.0,0.0,AMB
0.5623471882640587,0.09046454767726161,0.0,0.0,0.0,0.0,0.0,0.0,0.0,0.0,0.0,0.0,0.0,0.0,0.0,0.0,0.004889975550122249,0.0,0.007334963325183374,0.33496332518337407,0.452991452991453,0.22863247863247863,0.06623931623931624,0.0405982905982906,0.03632478632478633,0.017094017094017096,0.002136752136752137,0.002136752136752137,0.0,0.0,0.0,0.0,0.0,0.002136752136752137,0.008547008547008548,0.0,0.008547008547008548,0.0,0.03632478632478633,0.09829059829059829,0.21063829787234042,0.125531914893617,0.11063829787234042,0.10851063829787234,0.07872340425531915,0.036170212765957444,0.019148936170212766,0.029787234042553193,0.029787234042553193,0.027659574468085105,0.036170212765957444,0.02127659574468085,0.006382978723404255,0.02127659574468085,0.01702127659574468,0.014893617021276596,0.01702127659574468,0.006382978723404255,0.019148936170212766,0.06382978723404255,0.09957627118644068,0.15254237288135594,0.1059322033898305,0.10805084745762712,0.13559322033898305,0.0847457627118644,0.0635593220338983,0.046610169491525424,0.05508474576271186,0.05296610169491525,0.014830508474576272,0.019067796610169493,0.00211864406779661,0.00423728813559322,0.00211864406779661,0.00211864406779661,0.0,0.00211864406779661,0.019067796610169493,0.029661016949152543,0.23940677966101695,0.22245762711864406,0.13559322033898305,0.1016949152542373,0.1059322033898305,0.057203389830508475,0.023305084745762712,0.012711864406779662,0.00211864406779661,0.006355932203389831,0.01059322033898305,0.0211864406779661,0.006355932203389831,0.00847457627118644,0.00211864406779661,0.00211864406779661,0.00423728813559322,0.00423728813559322,0.00423728813559322,0.029661016949152543,0.3792372881355932,0.3813559322033898,0.1652542372881356,0.046610169491525424,0.023305084745762712,0.0,0.0,0.0,0.0,0.0,0.0,0.0,0.0,0.0,0.0,0.0,0.0,0.0,0.0,0.00423728813559322,0.5360169491525424,0.3008474576271186,0.09533898305084745,0.0423728813559322,0.00847457627118644,0.0,0.0,0.0,0.0,0.0,0.0,0.00423728813559322,0.0,0.0,0.0,0.0,0.0,0.00211864406779661,0.0,0.01059322033898305,0.413135593220339,0.4322033898305085,0.1271186440677966,0.023305084745762712,0.0,0.0,0.0,0.0,0.0,0.0,0.0,0.0,0.0,0.0,0.0,0.0,0.0,0.0,0.0,0.00423728813559322,0.4364406779661017,0.4258474576271186,0.07627118644067797,0.04449152542372881,0.01694915254237288,0.0,0.0,0.0,0.0,0.0,0.0,0.0,0.0,0.0,0.0,0.0,0.0,0.0,0.0,0.0,0.527542372881356,0.3728813559322034,0.07415254237288135,0.012711864406779662,0.012711864406779662,0.0,0.0,0.0,0.0,0.0,0.0,0.0,0.0,0.0,0.0,0.0,0.0,0.0,0.0,0.0,0.5169491525423728,0.3622881355932203,0.11652542372881355,0.00423728813559322,0.0,0.0,0.0,0.0,0.0,0.0,0.0,0.0,0.0,0.0,0.0,0.0,0.0,0.0,0.0,0.0,0.614406779661017,0.3177966101694915,0.0614406779661017,0.00211864406779661,0.0,0.0,0.0,0.0,0.0,0.0,0.0,0.0,0.0,0.0,0.0,0.0,0.0,0.0,0.0,0.00423728813559322,0.5783898305084746,0.3919491525423729,0.029661016949152543,0.0,0.0,0.0,0.0,0.0,0.0,0.0,0.0,0.0,0.0,0.0,0.0,0.0,0.0,0.0,0.0,0.0,0.5826271186440678,0.3432203389830508,0.07415254237288135,0.0,0.0,0.0,0.0,0.0,0.0,0.0,0.0,0.0,0.0,0.0,0.0,0.0,0.0,0.0,0.0,0.0,0.6673728813559322,0.2966101694915254,0.036016949152542374,0.0,0.0,0.0,0.0,0.0,0.0,0.0,0.0,0.0,0.0,0.0,0.0,0.0,0.0,0.0,0.0,0.0,0.6419491525423728,0.3093220338983051,0.048728813559322036,0.0,0.0,0.0,0.0,0.0,0.0,0.0,0.0,0.0,0.0,0.0,0.0,0.0,0.0,0.0,0.0,0.0,0.975,0.0,0.0,0.0,0.0,0.0,0.0,0.0,0.0,0.0,0.0,0.0,0.0,0.0,0.0,0.0,0.0,0.0,0.0,0.025,0.9,0.05,0.0,0.025,0.0,0.0,0.0,0.0,0.0,0.0,0.0,0.0,0.0,0.025,0.0,0.0,0.0,0.0,0.0,0.0,0.925,0.0,0.025,0.0,0.0,0.025,0.0,0.0,0.0,0.025,0.0,0.0,0.0,0.0,0.0,0.0,0.0,0.0,0.0,0.0,0.9,0.05,0.0,0.0,0.025,0.0,0.0,0.0,0.0,0.0,0.025,0.0,0.0,0.0,0.0,0.0,0.0,0.0,0.0,0.0,0.925,0.05,0.0,0.0,0.0,0.0,0.0,0.0,0.0,0.0,0.0,0.0,0.0,0.0,0.0,0.025,0.0,0.0,0.0,0.0,0.95,0.025,0.0,0.0,0.0,0.0,0.0,0.0,0.0,0.0,0.0,0.0,0.0,0.0,0.0,0.0,0.025,0.0,0.0,0.0,0.925,0.025,0.0,0.0,0.0,0.025,0.0,0.0,0.0,0.0,0.0,0.0,0.025,0.0,0.0,0.0,0.0,0.0,0.0,0.0,0.95,0.025,0.0,0.0,0.0,0.0,0.0,0.0,0.0,0.0,0.0,0.0,0.0,0.0,0.0,0.0,0.0,0.025,0.0,0.0,0.95,0.0,0.025,0.0,0.0,0.0,0.0,0.0,0.0,0.0,0.0,0.0,0.0,0.0,0.0,0.025,0.0,0.0,0.0,0.0,0.925,0.025,0.025,0.0,0.0,0.0,0.0,0.0,0.0,0.0,0.0,0.0,0.0,0.0,0.0,0.025,0.0,0.0,0.0,0.0,0.925,0.025,0.0,0.025,0.0,0.0,0.0,0.0,0.0,0.0,0.0,0.0,0.0,0.0,0.025,0.0,0.0,0.0,0.0,0.0,0.95,0.025,0.0,0.0,0.0,0.0,0.0,0.0,0.0,0.0,0.0,0.0,0.0,0.0,0.0,0.0,0.0,0.0,0.025,0.0,0.925,0.025,0.0,0.025,0.0,0.0,0.0,0.0,0.0,0.0,0.0,0.0,0.0,0.0,0.0,0.025,0.0,0.0,0.0,0.0,0.925,0.025,0.0,0.0,0.0,0.025,0.0,0.0,0.0,0.0,0.0,0.0,0.0,0.025,0.0,0.0,0.0,0.0,0.0,0.0,0.925,0.025,0.025,0.0,0.0,0.0,0.0,0.0,0.0,0.0,0.0,0.0,0.0,0.0,0.0,0.025,0.0,0.0,0.0,0.0,0.925,0.0,0.05,0.0,0.0,0.0,0.0,0.0,0.0,0.0,0.0,0.0,0.0,0.0,0.025,0.0,0.0,0.0,0.0,0.0,0.4058679706601467,0.2469437652811736,0.0,0.0,0.33496332518337407,0.0,0.007334963325183374,0.0,0.004889975550122249,0.0,0.0,0.0,0.0,0.0,0.0,0.0,0.0,0.0,0.0,0.0,0.24786324786324787,0.42735042735042733,0.11324786324786325,0.057692307692307696,0.05555555555555555,0.00641025641025641,0.0,0.008547008547008548,0.017094017094017096,0.01282051282051282,0.0405982905982906,0.008547008547008548,0.002136752136752137,0.002136752136752137,0.0,0.0,0.0,0.0,0.0,0.0,0.13829787234042554,0.19148936170212766,0.2276595744680851,0.1127659574468085,0.05106382978723404,0.036170212765957444,0.03404255319148936,0.036170212765957444,0.04042553191489362,0.05319148936170213,0.006382978723404255,0.006382978723404255,0.01276595744680851,0.01276595744680851,0.010638297872340425,0.00851063829787234,0.01702127659574468,0.00425531914893617,0.0,0.0,0.05084745762711865,0.19703389830508475,0.21610169491525424,0.23728813559322035,0.09533898305084745,0.09957627118644068,0.04025423728813559,0.014830508474576272,0.00423728813559322,0.01694915254237288,0.00423728813559322,0.00423728813559322,0.006355932203389831,0.00423728813559322,0.006355932203389831,0.00211864406779661,0.0,0.0,0.0,0.0,0.15889830508474576,0.3114406779661017,0.2457627118644068,0.15254237288135594,0.0211864406779661,0.019067796610169493,0.029661016949152543,0.023305084745762712,0.014830508474576272,0.00211864406779661,0.00847457627118644,0.00211864406779661,0.01059322033898305,0.0,0.0,0.0,0.0,0.0,0.0,0.0,0.2627118644067797,0.527542372881356,0.19915254237288135,0.006355932203389831,0.0,0.00423728813559322,0.0,0.0,0.0,0.0,0.0,0.0,0.0,0.0,0.0,0.0,0.0,0.0,0.0,0.0,0.3220338983050847,0.5466101694915254,0.11440677966101695,0.0,0.0,0.0,0.0,0.0,0.00423728813559322,0.0,0.006355932203389831,0.00423728813559322,0.00211864406779661,0.0,0.0,0.0,0.0,0.0,0.0,0.0,0.2584745762711864,0.614406779661017,0.1228813559322034,0.0,0.00211864406779661,0.00211864406779661,0.0,0.0,0.0,0.0,0.0,0.0,0.0,0.0,0.0,0.0,0.0,0.0,0.0,0.0,0.2584745762711864,0.6207627118644068,0.11864406779661017,0.00211864406779661,0.0,0.0,0.0,0.0,0.0,0.0,0.0,0.0,0.0,0.0,0.0,0.0,0.0,0.0,0.0,0.0,0.2966101694915254,0.635593220338983,0.057203389830508475,0.01059322033898305,0.0,0.0,0.0,0.0,0.0,0.0,0.0,0.0,0.0,0.0,0.0,0.0,0.0,0.0,0.0,0.0,0.3389830508474576,0.5741525423728814,0.08686440677966102,0.0,0.0,0.0,0.0,0.0,0.0,0.0,0.0,0.0,0.0,0.0,0.0,0.0,0.0,0.0,0.0,0.0,0.3961864406779661,0.5444915254237288,0.05508474576271186,0.0,0.00423728813559322,0.0,0.0,0.0,0.0,0.0,0.0,0.0,0.0,0.0,0.0,0.0,0.0,0.0,0.0,0.0,0.3707627118644068,0.6165254237288136,0.012711864406779662,0.0,0.0,0.0,0.0,0.0,0.0,0.0,0.0,0.0,0.0,0.0,0.0,0.0,0.0,0.0,0.0,0.0,0.375,0.5911016949152542,0.03389830508474576,0.0,0.0,0.0,0.0,0.0,0.0,0.0,0.0,0.0,0.0,0.0,0.0,0.0,0.0,0.0,0.0,0.0,0.3940677966101695,0.5783898305084746,0.02754237288135593,0.0,0.0,0.0,0.0,0.0,0.0,0.0,0.0,0.0,0.0,0.0,0.0,0.0,0.0,0.0,0.0,0.0,0.3855932203389831,0.5805084745762712,0.03389830508474576,0.0,0.0,0.0,0.0,0.0,0.0,0.0,0.0,0.0,0.0,0.0,0.0,0.0,0.0,0.0,0.0,0.0,AMB
0.5325301204819277,0.11325301204819277,0.03855421686746988,0.004819277108433735,0.0024096385542168677,0.0,0.0,0.0,0.0,0.0,0.0,0.0,0.0,0.0,0.0,0.0,0.014457831325301205,0.0,0.012048192771084338,0.2819277108433735,0.4182590233545648,0.13800424628450106,0.05307855626326964,0.036093418259023353,0.055201698513800426,0.01910828025477707,0.01910828025477707,0.012738853503184714,0.016985138004246284,0.012738853503184714,0.016985138004246284,0.0021231422505307855,0.008492569002123142,0.010615711252653927,0.004246284501061571,0.006369426751592357,0.004246284501061571,0.021231422505307854,0.050955414012738856,0.09341825902335456,0.21920668058455114,0.17954070981210857,0.12317327766179541,0.10438413361169102,0.11691022964509394,0.07724425887265135,0.037578288100208766,0.008350730688935281,0.010438413361169102,0.0020876826722338203,0.008350730688935281,0.008350730688935281,0.0041753653444676405,0.0041753653444676405,0.008350730688935281,0.0,0.008350730688935281,0.0041753653444676405,0.012526096033402923,0.06263048016701461,0.14583333333333334,0.19583333333333333,0.17291666666666666,0.12083333333333333,0.10625,0.04583333333333333,0.025,0.022916666666666665,0.016666666666666666,0.010416666666666666,0.010416666666666666,0.016666666666666666,0.008333333333333333,0.0125,0.008333333333333333,0.00625,0.016666666666666666,0.008333333333333333,0.022916666666666665,0.027083333333333334,0.19791666666666666,0.26666666666666666,0.12916666666666668,0.1,0.08333333333333333,0.05416666666666667,0.04375,0.010416666666666666,0.01875,0.008333333333333333,0.008333333333333333,0.0125,0.0125,0.004166666666666667,0.004166666666666667,0.0020833333333333333,0.010416666666666666,0.008333333333333333,0.00625,0.01875,0.43125,0.31666666666666665,0.12083333333333333,0.06666666666666667,0.03958333333333333,0.014583333333333334,0.0,0.0020833333333333333,0.0,0.0,0.0,0.0,0.0,0.0,0.0,0.0,0.0,0.0,0.004166666666666667,0.004166666666666667,0.3,0.38125,0.12708333333333333,0.058333333333333334,0.06041666666666667,0.022916666666666665,0.020833333333333332,0.008333333333333333,0.00625,0.004166666666666667,0.0020833333333333333,0.0,0.0,0.0,0.0,0.0,0.0,0.0,0.0,0.008333333333333333,0.42916666666666664,0.33958333333333335,0.12291666666666666,0.04375,0.03125,0.01875,0.008333333333333333,0.0,0.0,0.0,0.0,0.0,0.0,0.0,0.0,0.0,0.0,0.0,0.0,0.00625,0.4979166666666667,0.2916666666666667,0.11041666666666666,0.0625,0.027083333333333334,0.010416666666666666,0.0,0.0,0.0,0.0,0.0,0.0,0.0,0.0,0.0,0.0,0.0,0.0,0.0,0.0,0.5395833333333333,0.39375,0.06041666666666667,0.00625,0.0,0.0,0.0,0.0,0.0,0.0,0.0,0.0,0.0,0.0,0.0,0.0,0.0,0.0,0.0,0.0,0.6083333333333333,0.3458333333333333,0.04583333333333333,0.0,0.0,0.0,0.0,0.0,0.0,0.0,0.0,0.0,0.0,0.0,0.0,0.0,0.0,0.0,0.0,0.0,0.7,0.29583333333333334,0.004166666666666667,0.0,0.0,0.0,0.0,0.0,0.0,0.0,0.0,0.0,0.0,0.0,0.0,0.0,0.0,0.0,0.0,0.0,0.7291666666666666,0.26458333333333334,0.00625,0.0,0.0,0.0,0.0,0.0,0.0,0.0,0.0,0.0,0.0,0.0,0.0,0.0,0.0,0.0,0.0,0.0,0.7041666666666667,0.27708333333333335,0.01875,0.0,0.0,0.0,0.0,0.0,0.0,0.0,0.0,0.0,0.0,0.0,0.0,0.0,0.0,0.0,0.0,0.0,0.7354166666666667,0.22708333333333333,0.0375,0.0,0.0,0.0,0.0,0.0,0.0,0.0,0.0,0.0,0.0,0.0,0.0,0.0,0.0,0.0,0.0,0.0,0.8104166666666667,0.18958333333333333,0.0,0.0,0.0,0.0,0.0,0.0,0.0,0.0,0.0,0.0,0.0,0.0,0.0,0.0,0.0,0.0,0.0,0.0,0.95,0.025,0.0,0.0,0.0,0.0,0.0,0.0,0.0,0.0,0.0,0.0,0.0,0.0,0.0,0.0,0.0,0.0,0.025,0.0,0.925,0.025,0.0,0.0,0.025,0.0,0.0,0.0,0.0,0.0,0.0,0.0,0.025,0.0,0.0,0.0,0.0,0.0,0.0,0.0,0.9,0.05,0.0,0.0,0.025,0.0,0.0,0.0,0.0,0.0,0.025,0.0,0.0,0.0,0.0,0.0,0.0,0.0,0.0,0.0,0.925,0.025,0.0,0.0,0.025,0.0,0.0,0.0,0.0,0.0,0.0,0.0,0.025,0.0,0.0,0.0,0.0,0.0,0.0,0.0,0.925,0.05,0.0,0.0,0.0,0.0,0.0,0.0,0.0,0.0,0.0,0.0,0.0,0.0,0.0,0.0,0.025,0.0,0.0,0.0,0.95,0.025,0.0,0.0,0.0,0.0,0.0,0.0,0.0,0.0,0.0,0.0,0.0,0.0,0.0,0.0,0.025,0.0,0.0,0.0,0.95,0.025,0.0,0.0,0.0,0.0,0.0,0.0,0.0,0.0,0.0,0.0,0.0,0.0,0.0,0.0,0.0,0.025,0.0,0.0,0.95,0.0,0.0,0.0,0.0,0.0,0.025,0.0,0.0,0.0,0.0,0.0,0.025,0.0,0.0,0.0,0.0,0.0,0.0,0.0,0.925,0.025,0.0,0.025,0.0,0.0,0.0,0.0,0.0,0.0,0.0,0.0,0.0,0.0,0.025,0.0,0.0,0.0,0.0,0.0,0.95,0.025,0.0,0.0,0.0,0.0,0.0,0.0,0.0,0.0,0.0,0.0,0.0,0.0,0.0,0.0,0.0,0.025,0.0,0.0,0.95,0.0,0.025,0.0,0.0,0.0,0.0,0.0,0.0,0.0,0.0,0.0,0.0,0.0,0.0,0.0,0.0,0.025,0.0,0.0,0.95,0.0,0.0,0.025,0.0,0.0,0.0,0.0,0.0,0.0,0.0,0.0,0.0,0.0,0.0,0.0,0.025,0.0,0.0,0.0,0.95,0.0,0.0,0.025,0.0,0.0,0.0,0.0,0.0,0.0,0.0,0.0,0.0,0.0,0.0,0.0,0.025,0.0,0.0,0.0,0.95,0.0,0.0,0.025,0.0,0.0,0.0,0.0,0.0,0.0,0.0,0.0,0.0,0.0,0.0,0.025,0.0,0.0,0.0,0.0,0.95,0.0,0.025,0.0,0.0,0.0,0.0,0.0,0.0,0.0,0.0,0.0,0.0,0.0,0.0,0.0,0.025,0.0,0.0,0.0,0.975,0.0,0.0,0.0,0.0,0.0,0.0,0.0,0.0,0.0,0.0,0.0,0.0,0.0,0.0,0.0,0.0,0.0,0.0,0.025,0.3349397590361446,0.3204819277108434,0.03614457831325301,0.0,0.25783132530120484,0.004819277108433735,0.00963855421686747,0.0024096385542168677,0.033734939759036145,0.0,0.0,0.0,0.0,0.0,0.0,0.0,0.0,0.0,0.0,0.0,0.2653927813163482,0.2929936305732484,0.08280254777070063,0.07855626326963906,0.06581740976645435,0.02335456475583864,0.04883227176220807,0.010615711252653927,0.010615711252653927,0.01910828025477707,0.021231422505307854,0.01910828025477707,0.012738853503184714,0.016985138004246284,0.01910828025477707,0.008492569002123142,0.004246284501061571,0.0,0.0,0.0,0.13778705636743216,0.267223382045929,0.19832985386221294,0.2254697286012526,0.037578288100208766,0.012526096033402923,0.014613778705636743,0.010438413361169102,0.006263048016701462,0.022964509394572025,0.010438413361169102,0.010438413361169102,0.008350730688935281,0.020876826722338204,0.016701461377870562,0.0,0.0,0.0,0.0,0.0,0.07083333333333333,0.2916666666666667,0.28125,0.15,0.04375,0.03958333333333333,0.010416666666666666,0.014583333333333334,0.014583333333333334,0.025,0.014583333333333334,0.01875,0.010416666666666666,0.004166666666666667,0.008333333333333333,0.0020833333333333333,0.0,0.0,0.0,0.0,0.10625,0.3645833333333333,0.21875,0.16666666666666666,0.03333333333333333,0.029166666666666667,0.03125,0.01875,0.010416666666666666,0.014583333333333334,0.00625,0.0,0.0,0.0,0.0,0.0,0.0,0.0,0.0,0.0,0.25,0.5291666666666667,0.18958333333333333,0.016666666666666666,0.008333333333333333,0.0020833333333333333,0.0,0.0,0.004166666666666667,0.0,0.0,0.0,0.0,0.0,0.0,0.0,0.0,0.0,0.0,0.0,0.15,0.5416666666666666,0.19375,0.07916666666666666,0.022916666666666665,0.010416666666666666,0.0020833333333333333,0.0,0.0,0.0,0.0,0.0,0.0,0.0,0.0,0.0,0.0,0.0,0.0,0.0,0.25416666666666665,0.5416666666666666,0.14583333333333334,0.052083333333333336,0.0,0.0020833333333333333,0.0,0.0,0.0020833333333333333,0.0020833333333333333,0.0,0.0,0.0,0.0,0.0,0.0,0.0,0.0,0.0,0.0,0.28541666666666665,0.5395833333333333,0.14375,0.03125,0.0,0.0,0.0,0.0,0.0,0.0,0.0,0.0,0.0,0.0,0.0,0.0,0.0,0.0,0.0,0.0,0.325,0.6395833333333333,0.035416666666666666,0.0,0.0,0.0,0.0,0.0,0.0,0.0,0.0,0.0,0.0,0.0,0.0,0.0,0.0,0.0,0.0,0.0,0.33125,0.6458333333333334,0.022916666666666665,0.0,0.0,0.0,0.0,0.0,0.0,0.0,0.0,0.0,0.0,0.0,0.0,0.0,0.0,0.0,0.0,0.0,0.36875,0.63125,0.0,0.0,0.0,0.0,0.0,0.0,0.0,0.0,0.0,0.0,0.0,0.0,0.0,0.0,0.0,0.0,0.0,0.0,0.36666666666666664,0.6333333333333333,0.0,0.0,0.0,0.0,0.0,0.0,0.0,0.0,0.0,0.0,0.0,0.0,0.0,0.0,0.0,0.0,0.0,0.0,0.3645833333333333,0.6333333333333333,0.0020833333333333333,0.0,0.0,0.0,0.0,0.0,0.0,0.0,0.0,0.0,0.0,0.0,0.0,0.0,0.0,0.0,0.0,0.0,0.3625,0.6270833333333333,0.010416666666666666,0.0,0.0,0.0,0.0,0.0,0.0,0.0,0.0,0.0,0.0,0.0,0.0,0.0,0.0,0.0,0.0,0.0,0.4041666666666667,0.5958333333333333,0.0,0.0,0.0,0.0,0.0,0.0,0.0,0.0,0.0,0.0,0.0,0.0,0.0,0.0,0.0,0.0,0.0,0.0,AMB
0.5387596899224806,0.21705426356589147,0.015503875968992248,0.0,0.0,0.0,0.0,0.0,0.0,0.0,0.0,0.0,0.001937984496124031,0.003875968992248062,0.0,0.0,0.005813953488372093,0.0,0.025193798449612403,0.19186046511627908,0.28832116788321166,0.14233576642335766,0.10766423357664233,0.10583941605839416,0.13138686131386862,0.04927007299270073,0.02737226277372263,0.010948905109489052,0.009124087591240875,0.005474452554744526,0.0,0.0018248175182481751,0.0,0.0,0.0,0.0,0.014598540145985401,0.0072992700729927005,0.021897810218978103,0.07664233576642336,0.2,0.11818181818181818,0.09272727272727273,0.08545454545454545,0.08,0.05090909090909091,0.08363636363636363,0.038181818181818185,0.04,0.034545454545454546,0.02727272727272727,0.00909090909090909,0.01090909090909091,0.005454545454545455,0.005454545454545455,0.007272727272727273,0.012727272727272728,0.0036363636363636364,0.02181818181818182,0.07272727272727272,0.18545454545454546,0.1690909090909091,0.13636363636363635,0.11090909090909092,0.08727272727272728,0.056363636363636366,0.038181818181818185,0.01818181818181818,0.02,0.03090909090909091,0.02,0.016363636363636365,0.023636363636363636,0.01818181818181818,0.00909090909090909,0.005454545454545455,0.00909090909090909,0.0036363636363636364,0.014545454545454545,0.02727272727272727,0.3527272727272727,0.28363636363636363,0.13818181818181818,0.05818181818181818,0.038181818181818185,0.03636363636363636,0.02181818181818182,0.00909090909090909,0.0036363636363636364,0.0018181818181818182,0.0,0.0,0.0018181818181818182,0.0036363636363636364,0.0018181818181818182,0.0018181818181818182,0.0018181818181818182,0.0018181818181818182,0.014545454545454545,0.02909090909090909,0.36,0.3236363636363636,0.12545454545454546,0.09818181818181818,0.05818181818181818,0.00909090909090909,0.005454545454545455,0.0,0.0,0.0,0.0,0.0018181818181818182,0.0,0.0,0.0018181818181818182,0.005454545454545455,0.0,0.0,0.0018181818181818182,0.00909090909090909,0.44363636363636366,0.33454545454545453,0.12363636363636364,0.056363636363636366,0.025454545454545455,0.005454545454545455,0.0018181818181818182,0.0018181818181818182,0.0,0.0,0.0,0.0,0.0,0.0,0.0,0.0,0.0,0.0,0.0,0.007272727272727273,0.5163636363636364,0.4,0.06727272727272728,0.005454545454545455,0.0,0.0,0.0,0.0,0.0,0.0,0.0,0.0,0.0,0.0,0.0,0.0,0.0,0.0,0.0,0.01090909090909091,0.5836363636363636,0.37454545454545457,0.03636363636363636,0.005454545454545455,0.0,0.0,0.0,0.0,0.0,0.0,0.0,0.0,0.0,0.0,0.0,0.0,0.0,0.0,0.0,0.0,0.5854545454545454,0.4018181818181818,0.012727272727272728,0.0,0.0,0.0,0.0,0.0,0.0,0.0,0.0,0.0,0.0,0.0,0.0,0.0,0.0,0.0,0.0,0.0,0.6272727272727273,0.3290909090909091,0.04,0.0036363636363636364,0.0,0.0,0.0,0.0,0.0,0.0,0.0,0.0,0.0,0.0,0.0,0.0,0.0,0.0,0.0,0.0,0.5963636363636363,0.36,0.04363636363636364,0.0,0.0,0.0,0.0,0.0,0.0,0.0,0.0,0.0,0.0,0.0,0.0,0.0,0.0,0.0,0.0,0.0,0.6436363636363637,0.33636363636363636,0.02,0.0,0.0,0.0,0.0,0.0,0.0,0.0,0.0,0.0,0.0,0.0,0.0,0.0,0.0,0.0,0.0,0.0,0.6472727272727272,0.3418181818181818,0.01090909090909091,0.0,0.0,0.0,0.0,0.0,0.0,0.0,0.0,0.0,0.0,0.0,0.0,0.0,0.0,0.0,0.0,0.0,0.6981818181818182,0.2909090909090909,0.01090909090909091,0.0,0.0,0.0,0.0,0.0,0.0,0.0,0.0,0.0,0.0,0.0,0.0,0.0,0.0,0.0,0.0,0.0,0.64,0.3381818181818182,0.02181818181818182,0.0,0.0,0.0,0.0,0.0,0.0,0.0,0.0,0.0,0.0,0.0,0.0,0.0,0.0,0.0,0.0,0.0,0.95,0.025,0.0,0.0,0.0,0.0,0.0,0.0,0.0,0.0,0.0,0.0,0.0,0.0,0.0,0.0,0.0,0.0,0.025,0.0,0.925,0.025,0.0,0.0,0.0,0.025,0.0,0.0,0.0,0.0,0.0,0.0,0.025,0.0,0.0,0.0,0.0,0.0,0.0,0.0,0.925,0.025,0.0,0.025,0.0,0.0,0.0,0.0,0.0,0.0,0.0,0.0,0.0,0.0,0.025,0.0,0.0,0.0,0.0,0.0,0.925,0.025,0.0,0.025,0.0,0.0,0.0,0.0,0.0,0.0,0.0,0.0,0.0,0.025,0.0,0.0,0.0,0.0,0.0,0.0,0.875,0.05,0.025,0.0,0.0,0.025,0.0,0.0,0.0,0.025,0.0,0.0,0.0,0.0,0.0,0.0,0.0,0.0,0.0,0.0,0.925,0.025,0.0,0.025,0.0,0.0,0.0,0.0,0.0,0.0,0.0,0.0,0.0,0.025,0.0,0.0,0.0,0.0,0.0,0.0,0.975,0.0,0.0,0.0,0.0,0.0,0.0,0.0,0.0,0.0,0.0,0.0,0.0,0.0,0.0,0.0,0.0,0.0,0.025,0.0,0.975,0.0,0.0,0.0,0.0,0.0,0.0,0.0,0.0,0.0,0.0,0.0,0.0,0.0,0.0,0.0,0.0,0.0,0.0,0.025,0.95,0.0,0.025,0.0,0.0,0.0,0.0,0.0,0.0,0.0,0.0,0.0,0.0,0.0,0.0,0.0,0.025,0.0,0.0,0.0,0.925,0.025,0.025,0.0,0.0,0.0,0.0,0.0,0.0,0.0,0.0,0.0,0.0,0.0,0.0,0.025,0.0,0.0,0.0,0.0,0.925,0.025,0.025,0.0,0.0,0.0,0.0,0.0,0.0,0.0,0.0,0.0,0.0,0.0,0.0,0.025,0.0,0.0,0.0,0.0,0.925,0.025,0.025,0.0,0.0,0.0,0.0,0.0,0.0,0.0,0.0,0.0,0.0,0.0,0.0,0.025,0.0,0.0,0.0,0.0,0.95,0.025,0.0,0.0,0.0,0.0,0.0,0.0,0.0,0.0,0.0,0.0,0.0,0.0,0.0,0.0,0.0,0.025,0.0,0.0,0.95,0.0,0.025,0.0,0.0,0.0,0.0,0.0,0.0,0.0,0.0,0.0,0.0,0.0,0.0,0.0,0.025,0.0,0.0,0.0,0.925,0.05,0.0,0.0,0.0,0.0,0.0,0.0,0.0,0.0,0.0,0.0,0.0,0.0,0.0,0.0,0.0,0.025,0.0,0.0,0.925,0.05,0.0,0.0,0.0,0.0,0.0,0.0,0.0,0.0,0.0,0.0,0.0,0.0,0.0,0.0,0.025,0.0,0.0,0.0,0.31589147286821706,0.4437984496124031,0.011627906976744186,0.0,0.16666666666666666,0.011627906976744186,0.015503875968992248,0.0,0.01744186046511628,0.007751937984496124,0.009689922480620155,0.0,0.0,0.0,0.0,0.0,0.0,0.0,0.0,0.0,0.18613138686131386,0.2427007299270073,0.1989051094890511,0.1989051094890511,0.03832116788321168,0.03467153284671533,0.012773722627737226,0.0072992700729927005,0.020072992700729927,0.016423357664233577,0.010948905109489052,0.0072992700729927005,0.009124087591240875,0.0036496350364963502,0.010948905109489052,0.0018248175182481751,0.0,0.0,0.0,0.0,0.13090909090909092,0.18727272727272729,0.16727272727272727,0.14727272727272728,0.12,0.08545454545454545,0.03090909090909091,0.04909090909090909,0.023636363636363636,0.012727272727272728,0.025454545454545455,0.01090909090909091,0.007272727272727273,0.0018181818181818182,0.0,0.0,0.0,0.0,0.0,0.0,0.11272727272727273,0.24545454545454545,0.2727272727272727,0.11272727272727273,0.056363636363636366,0.04181818181818182,0.05272727272727273,0.03636363636363636,0.023636363636363636,0.01090909090909091,0.01090909090909091,0.005454545454545455,0.00909090909090909,0.00909090909090909,0.0,0.0,0.0,0.0,0.0,0.0,0.2381818181818182,0.41818181818181815,0.1690909090909091,0.08363636363636363,0.03272727272727273,0.005454545454545455,0.0,0.0018181818181818182,0.0036363636363636364,0.0,0.005454545454545455,0.01818181818181818,0.007272727272727273,0.0018181818181818182,0.005454545454545455,0.007272727272727273,0.0018181818181818182,0.0,0.0,0.0,0.21454545454545454,0.48363636363636364,0.2381818181818182,0.04363636363636364,0.0,0.0,0.0,0.0,0.0018181818181818182,0.0018181818181818182,0.0036363636363636364,0.0036363636363636364,0.007272727272727273,0.0018181818181818182,0.0,0.0,0.0,0.0,0.0,0.0,0.24,0.5872727272727273,0.13818181818181818,0.02727272727272727,0.0,0.0036363636363636364,0.0036363636363636364,0.0,0.0,0.0,0.0,0.0,0.0,0.0,0.0,0.0,0.0,0.0,0.0,0.0,0.30727272727272725,0.6327272727272727,0.04909090909090909,0.0,0.01090909090909091,0.0,0.0,0.0,0.0,0.0,0.0,0.0,0.0,0.0,0.0,0.0,0.0,0.0,0.0,0.0,0.3490909090909091,0.6254545454545455,0.025454545454545455,0.0,0.0,0.0,0.0,0.0,0.0,0.0,0.0,0.0,0.0,0.0,0.0,0.0,0.0,0.0,0.0,0.0,0.3690909090909091,0.6309090909090909,0.0,0.0,0.0,0.0,0.0,0.0,0.0,0.0,0.0,0.0,0.0,0.0,0.0,0.0,0.0,0.0,0.0,0.0,0.38545454545454544,0.5854545454545454,0.02909090909090909,0.0,0.0,0.0,0.0,0.0,0.0,0.0,0.0,0.0,0.0,0.0,0.0,0.0,0.0,0.0,0.0,0.0,0.3618181818181818,0.610909090909091,0.02727272727272727,0.0,0.0,0.0,0.0,0.0,0.0,0.0,0.0,0.0,0.0,0.0,0.0,0.0,0.0,0.0,0.0,0.0,0.3890909090909091,0.6018181818181818,0.00909090909090909,0.0,0.0,0.0,0.0,0.0,0.0,0.0,0.0,0.0,0.0,0.0,0.0,0.0,0.0,0.0,0.0,0.0,0.39454545454545453,0.6036363636363636,0.0018181818181818182,0.0,0.0,0.0,0.0,0.0,0.0,0.0,0.0,0.0,0.0,0.0,0.0,0.0,0.0,0.0,0.0,0.0,0.4036363636363636,0.5945454545454546,0.0018181818181818182,0.0,0.0,0.0,0.0,0.0,0.0,0.0,0.0,0.0,0.0,0.0,0.0,0.0,0.0,0.0,0.0,0.0,0.39454545454545453,0.5981818181818181,0.007272727272727273,0.0,0.0,0.0,0.0,0.0,0.0,0.0,0.0,0.0,0.0,0.0,0.0,0.0,0.0,0.0,0.0,0.0,AMB
0.5576923076923077,0.21153846153846154,0.022435897435897436,0.009615384615384616,0.009615384615384616,0.00641025641025641,0.003205128205128205,0.003205128205128205,0.0016025641025641025,0.003205128205128205,0.0016025641025641025,0.0,0.003205128205128205,0.003205128205128205,0.0016025641025641025,0.0,0.017628205128205128,0.0016025641025641025,0.028846153846153848,0.11378205128205128,0.20341614906832298,0.10714285714285714,0.06521739130434782,0.049689440993788817,0.08074534161490683,0.05124223602484472,0.046583850931677016,0.024844720496894408,0.04192546583850932,0.04503105590062112,0.046583850931677016,0.03571428571428571,0.020186335403726708,0.018633540372670808,0.003105590062111801,0.004658385093167702,0.007763975155279503,0.012422360248447204,0.03571428571428571,0.09937888198757763,0.09161490683229814,0.10093167701863354,0.08540372670807453,0.09006211180124224,0.13198757763975155,0.08074534161490683,0.08540372670807453,0.049689440993788817,0.04503105590062112,0.034161490683229816,0.024844720496894408,0.020186335403726708,0.017080745341614908,0.010869565217391304,0.010869565217391304,0.0015527950310559005,0.017080745341614908,0.012422360248447204,0.015527950310559006,0.07453416149068323,0.20496894409937888,0.20031055900621117,0.18012422360248448,0.12732919254658384,0.07919254658385093,0.04813664596273292,0.03881987577639751,0.024844720496894408,0.015527950310559006,0.009316770186335404,0.010869565217391304,0.006211180124223602,0.006211180124223602,0.0015527950310559005,0.0015527950310559005,0.0,0.003105590062111801,0.003105590062111801,0.007763975155279503,0.031055900621118012,0.37577639751552794,0.42391304347826086,0.13664596273291926,0.03571428571428571,0.013975155279503106,0.006211180124223602,0.007763975155279503,0.0,0.0,0.0,0.0,0.0,0.0,0.0,0.0,0.0,0.0,0.0,0.0,0.0,0.4813664596273292,0.34627329192546585,0.12577639751552794,0.031055900621118012,0.003105590062111801,0.0,0.0,0.0,0.0,0.0,0.0,0.0,0.004658385093167702,0.0015527950310559005,0.0,0.0,0.0,0.0,0.006211180124223602,0.0,0.5093167701863354,0.37888198757763975,0.06055900621118013,0.03571428571428571,0.012422360248447204,0.0,0.0,0.0,0.0,0.0,0.0,0.0,0.0,0.0,0.0,0.0,0.0,0.0,0.0,0.003105590062111801,0.639751552795031,0.3090062111801242,0.04813664596273292,0.003105590062111801,0.0,0.0,0.0,0.0,0.0,0.0,0.0,0.0,0.0,0.0,0.0,0.0,0.0,0.0,0.0,0.0,0.6211180124223602,0.34782608695652173,0.031055900621118012,0.0,0.0,0.0,0.0,0.0,0.0,0.0,0.0,0.0,0.0,0.0,0.0,0.0,0.0,0.0,0.0,0.0,0.6413043478260869,0.3307453416149068,0.027950310559006212,0.0,0.0,0.0,0.0,0.0,0.0,0.0,0.0,0.0,0.0,0.0,0.0,0.0,0.0,0.0,0.0,0.0,0.6614906832298136,0.3198757763975155,0.018633540372670808,0.0,0.0,0.0,0.0,0.0,0.0,0.0,0.0,0.0,0.0,0.0,0.0,0.0,0.0,0.0,0.0,0.0,0.6754658385093167,0.2779503105590062,0.04503105590062112,0.0015527950310559005,0.0,0.0,0.0,0.0,0.0,0.0,0.0,0.0,0.0,0.0,0.0,0.0,0.0,0.0,0.0,0.0,0.7003105590062112,0.2919254658385093,0.004658385093167702,0.0,0.0,0.0,0.0,0.0,0.0,0.0,0.0,0.0,0.0,0.0,0.0,0.0,0.0,0.0,0.0,0.003105590062111801,0.6754658385093167,0.3198757763975155,0.004658385093167702,0.0,0.0,0.0,0.0,0.0,0.0,0.0,0.0,0.0,0.0,0.0,0.0,0.0,0.0,0.0,0.0,0.0,0.7127329192546584,0.2670807453416149,0.017080745341614908,0.0,0.0,0.0,0.0,0.0,0.0,0.0,0.0,0.0,0.0,0.0,0.0,0.0,0.0,0.0,0.0,0.003105590062111801,0.7204968944099379,0.2406832298136646,0.034161490683229816,0.0015527950310559005,0.0,0.0,0.0,0.0,0.0,0.0,0.0,0.0,0.0,0.0,0.0,0.0,0.0,0.0,0.0,0.003105590062111801,0.95,0.0,0.025,0.0,0.0,0.0,0.0,0.0,0.0,0.0,0.0,0.0,0.0,0.0,0.0,0.025,0.0,0.0,0.0,0.0,0.925,0.025,0.0,0.0,0.025,0.0,0.0,0.0,0.0,0.0,0.0,0.0,0.025,0.0,0.0,0.0,0.0,0.0,0.0,0.0,0.925,0.025,0.0,0.025,0.0,0.0,0.0,0.0,0.0,0.0,0.0,0.025,0.0,0.0,0.0,0.0,0.0,0.0,0.0,0.0,0.925,0.025,0.025,0.0,0.0,0.0,0.0,0.0,0.0,0.0,0.0,0.0,0.0,0.0,0.025,0.0,0.0,0.0,0.0,0.0,0.925,0.025,0.025,0.0,0.0,0.0,0.0,0.0,0.0,0.0,0.0,0.0,0.0,0.0,0.025,0.0,0.0,0.0,0.0,0.0,0.925,0.025,0.0,0.025,0.0,0.0,0.0,0.0,0.0,0.0,0.0,0.0,0.0,0.0,0.025,0.0,0.0,0.0,0.0,0.0,0.975,0.0,0.0,0.0,0.0,0.0,0.0,0.0,0.0,0.0,0.0,0.0,0.0,0.0,0.0,0.0,0.0,0.0,0.025,0.0,0.95,0.025,0.0,0.0,0.0,0.0,0.0,0.0,0.0,0.0,0.0,0.0,0.0,0.0,0.0,0.0,0.025,0.0,0.0,0.0,0.95,0.025,0.0,0.0,0.0,0.0,0.0,0.0,0.0,0.0,0.0,0.0,0.0,0.0,0.0,0.0,0.0,0.0,0.025,0.0,0.95,0.025,0.0,0.0,0.0,0.0,0.0,0.0,0.0,0.0,0.0,0.0,0.0,0.0,0.0,0.0,0.0,0.025,0.0,0.0,0.95,0.0,0.025,0.0,0.0,0.0,0.0,0.0,0.0,0.0,0.0,0.0,0.0,0.0,0.0,0.0,0.0,0.025,0.0,0.0,0.95,0.0,0.025,0.0,0.0,0.0,0.0,0.0,0.0,0.0,0.0,0.0,0.0,0.0,0.0,0.0,0.025,0.0,0.0,0.0,0.975,0.0,0.0,0.0,0.0,0.0,0.0,0.0,0.0,0.0,0.0,0.0,0.0,0.0,0.0,0.0,0.0,0.0,0.0,0.025,0.95,0.025,0.0,0.0,0.0,0.0,0.0,0.0,0.0,0.0,0.0,0.0,0.0,0.0,0.0,0.0,0.0,0.025,0.0,0.0,0.975,0.0,0.0,0.0,0.0,0.0,0.0,0.0,0.0,0.0,0.0,0.0,0.0,0.0,0.0,0.0,0.0,0.0,0.0,0.025,0.975,0.0,0.0,0.0,0.0,0.0,0.0,0.0,0.0,0.0,0.0,0.0,0.0,0.0,0.0,0.0,0.0,0.0,0.0,0.025,0.3333333333333333,0.4391025641025641,0.03205128205128205,0.014423076923076924,0.08974358974358974,0.009615384615384616,0.004807692307692308,0.004807692307692308,0.027243589743589744,0.01282051282051282,0.00641025641025641,0.01282051282051282,0.01282051282051282,0.0,0.0,0.0,0.0,0.0,0.0,0.0,0.13043478260869565,0.18167701863354038,0.11180124223602485,0.13975155279503104,0.06987577639751552,0.06832298136645963,0.06987577639751552,0.06832298136645963,0.024844720496894408,0.027950310559006212,0.026397515527950312,0.010869565217391304,0.015527950310559006,0.017080745341614908,0.024844720496894408,0.007763975155279503,0.004658385093167702,0.0,0.0,0.0,0.040372670807453416,0.14751552795031056,0.14751552795031056,0.2795031055900621,0.07608695652173914,0.09627329192546584,0.040372670807453416,0.037267080745341616,0.018633540372670808,0.017080745341614908,0.012422360248447204,0.018633540372670808,0.007763975155279503,0.018633540372670808,0.027950310559006212,0.007763975155279503,0.004658385093167702,0.0015527950310559005,0.0,0.0,0.13198757763975155,0.281055900621118,0.327639751552795,0.12111801242236025,0.03260869565217391,0.037267080745341616,0.024844720496894408,0.012422360248447204,0.003105590062111801,0.003105590062111801,0.007763975155279503,0.003105590062111801,0.0,0.004658385093167702,0.006211180124223602,0.003105590062111801,0.0,0.0,0.0,0.0,0.2111801242236025,0.6319875776397516,0.13819875776397517,0.015527950310559006,0.003105590062111801,0.0,0.0,0.0,0.0,0.0,0.0,0.0,0.0,0.0,0.0,0.0,0.0,0.0,0.0,0.0,0.2919254658385093,0.5450310559006211,0.14906832298136646,0.0015527950310559005,0.0,0.0,0.004658385093167702,0.0,0.0,0.006211180124223602,0.0015527950310559005,0.0,0.0,0.0,0.0,0.0,0.0,0.0,0.0,0.0,0.30745341614906835,0.5916149068322981,0.09627329192546584,0.0015527950310559005,0.003105590062111801,0.0,0.0,0.0,0.0,0.0,0.0,0.0,0.0,0.0,0.0,0.0,0.0,0.0,0.0,0.0,0.35248447204968947,0.6164596273291926,0.031055900621118012,0.0,0.0,0.0,0.0,0.0,0.0,0.0,0.0,0.0,0.0,0.0,0.0,0.0,0.0,0.0,0.0,0.0,0.3198757763975155,0.6785714285714286,0.0015527950310559005,0.0,0.0,0.0,0.0,0.0,0.0,0.0,0.0,0.0,0.0,0.0,0.0,0.0,0.0,0.0,0.0,0.0,0.3416149068322981,0.656832298136646,0.0015527950310559005,0.0,0.0,0.0,0.0,0.0,0.0,0.0,0.0,0.0,0.0,0.0,0.0,0.0,0.0,0.0,0.0,0.0,0.3555900621118012,0.6413043478260869,0.003105590062111801,0.0,0.0,0.0,0.0,0.0,0.0,0.0,0.0,0.0,0.0,0.0,0.0,0.0,0.0,0.0,0.0,0.0,0.36180124223602483,0.6133540372670807,0.024844720496894408,0.0,0.0,0.0,0.0,0.0,0.0,0.0,0.0,0.0,0.0,0.0,0.0,0.0,0.0,0.0,0.0,0.0,0.3385093167701863,0.6583850931677019,0.0,0.0,0.003105590062111801,0.0,0.0,0.0,0.0,0.0,0.0,0.0,0.0,0.0,0.0,0.0,0.0,0.0,0.0,0.0,0.3385093167701863,0.6614906832298136,0.0,0.0,0.0,0.0,0.0,0.0,0.0,0.0,0.0,0.0,0.0,0.0,0.0,0.0,0.0,0.0,0.0,0.0,0.34316770186335405,0.6490683229813664,0.004658385093167702,0.0,0.003105590062111801,0.0,0.0,0.0,0.0,0.0,0.0,0.0,0.0,0.0,0.0,0.0,0.0,0.0,0.0,0.0,0.36490683229813664,0.6211180124223602,0.010869565217391304,0.0,0.0015527950310559005,0.0015527950310559005,0.0,0.0,0.0,0.0,0.0,0.0,0.0,0.0,0.0,0.0,0.0,0.0,0.0,0.0,UM90
0.5308641975308642,0.21693121693121692,0.029982363315696647,0.005291005291005291,0.001763668430335097,0.0,0.0,0.0,0.0,0.0,0.0,0.0,0.005291005291005291,0.0,0.0,0.0,0.010582010582010581,0.0,0.059964726631393295,0.13932980599647266,0.2937181663837012,0.16468590831918506,0.0831918505942275,0.059422750424448216,0.04584040747028863,0.02037351443123939,0.03225806451612903,0.015280135823429542,0.013582342954159592,0.015280135823429542,0.008488964346349746,0.01697792869269949,0.006791171477079796,0.01867572156196944,0.01697792869269949,0.01697792869269949,0.01697792869269949,0.013582342954159592,0.02037351443123939,0.12054329371816638,0.09491525423728814,0.13728813559322034,0.10677966101694915,0.08305084745762711,0.09491525423728814,0.07288135593220339,0.09152542372881356,0.05084745762711865,0.04067796610169491,0.03559322033898305,0.020338983050847456,0.02711864406779661,0.020338983050847456,0.013559322033898305,0.015254237288135594,0.010169491525423728,0.003389830508474576,0.00847457627118644,0.013559322033898305,0.059322033898305086,0.2440677966101695,0.2559322033898305,0.14745762711864407,0.1016949152542373,0.06779661016949153,0.030508474576271188,0.02711864406779661,0.013559322033898305,0.003389830508474576,0.0,0.003389830508474576,0.001694915254237288,0.0,0.0,0.00847457627118644,0.010169491525423728,0.015254237288135594,0.011864406779661017,0.013559322033898305,0.04406779661016949,0.2745762711864407,0.3423728813559322,0.14915254237288136,0.08305084745762711,0.05254237288135593,0.03728813559322034,0.020338983050847456,0.006779661016949152,0.0,0.0,0.0,0.0,0.0,0.0,0.001694915254237288,0.0,0.010169491525423728,0.001694915254237288,0.003389830508474576,0.01694915254237288,0.3677966101694915,0.39152542372881355,0.14576271186440679,0.06440677966101695,0.022033898305084745,0.001694915254237288,0.0,0.0,0.0,0.0,0.0,0.0,0.0,0.0,0.0,0.0,0.0,0.0,0.0,0.006779661016949152,0.48135593220338985,0.4067796610169492,0.09661016949152543,0.015254237288135594,0.0,0.0,0.0,0.0,0.0,0.0,0.0,0.0,0.0,0.0,0.0,0.0,0.0,0.0,0.0,0.0,0.611864406779661,0.33728813559322035,0.04745762711864407,0.0,0.0,0.0,0.0,0.0,0.0,0.0,0.0,0.0,0.0,0.0,0.0,0.0,0.0,0.0,0.0,0.003389830508474576,0.6847457627118644,0.2745762711864407,0.03728813559322034,0.0,0.0,0.0,0.0,0.0,0.0,0.0,0.0,0.0,0.0,0.0,0.0,0.0,0.0,0.0,0.0,0.003389830508474576,0.7237288135593221,0.2440677966101695,0.03220338983050847,0.0,0.0,0.0,0.0,0.0,0.0,0.0,0.0,0.0,0.0,0.0,0.0,0.0,0.0,0.0,0.0,0.0,0.688135593220339,0.2576271186440678,0.04915254237288136,0.005084745762711864,0.0,0.0,0.0,0.0,0.0,0.0,0.0,0.0,0.0,0.0,0.0,0.0,0.0,0.0,0.0,0.0,0.6966101694915254,0.29322033898305083,0.010169491525423728,0.0,0.0,0.0,0.0,0.0,0.0,0.0,0.0,0.0,0.0,0.0,0.0,0.0,0.0,0.0,0.0,0.0,0.7610169491525424,0.2305084745762712,0.00847457627118644,0.0,0.0,0.0,0.0,0.0,0.0,0.0,0.0,0.0,0.0,0.0,0.0,0.0,0.0,0.0,0.0,0.0,0.7830508474576271,0.21525423728813559,0.001694915254237288,0.0,0.0,0.0,0.0,0.0,0.0,0.0,0.0,0.0,0.0,0.0,0.0,0.0,0.0,0.0,0.0,0.0,0.7457627118644068,0.24067796610169492,0.013559322033898305,0.0,0.0,0.0,0.0,0.0,0.0,0.0,0.0,0.0,0.0,0.0,0.0,0.0,0.0,0.0,0.0,0.0,0.7016949152542373,0.24067796610169492,0.0576271186440678,0.0,0.0,0.0,0.0,0.0,0.0,0.0,0.0,0.0,0.0,0.0,0.0,0.0,0.0,0.0,0.0,0.0,0.95,0.0,0.025,0.0,0.0,0.0,0.0,0.0,0.0,0.0,0.0,0.0,0.0,0.0,0.0,0.0,0.025,0.0,0.0,0.0,0.925,0.025,0.0,0.0,0.025,0.0,0.0,0.0,0.0,0.0,0.0,0.0,0.025,0.0,0.0,0.0,0.0,0.0,0.0,0.0,0.925,0.025,0.0,0.0,0.025,0.0,0.0,0.0,0.0,0.0,0.0,0.0,0.025,0.0,0.0,0.0,0.0,0.0,0.0,0.0,0.925,0.025,0.0,0.025,0.0,0.0,0.0,0.0,0.0,0.0,0.0,0.0,0.0,0.025,0.0,0.0,0.0,0.0,0.0,0.0,0.925,0.0,0.025,0.025,0.0,0.0,0.0,0.0,0.0,0.0,0.0,0.0,0.025,0.0,0.0,0.0,0.0,0.0,0.0,0.0,0.975,0.0,0.0,0.0,0.0,0.0,0.0,0.0,0.0,0.0,0.0,0.0,0.0,0.0,0.0,0.0,0.0,0.0,0.025,0.0,0.95,0.0,0.025,0.0,0.0,0.0,0.0,0.0,0.0,0.0,0.0,0.0,0.0,0.0,0.0,0.0,0.025,0.0,0.0,0.0,0.975,0.0,0.0,0.0,0.0,0.0,0.0,0.0,0.0,0.0,0.0,0.0,0.0,0.0,0.0,0.0,0.0,0.0,0.025,0.0,0.975,0.0,0.0,0.0,0.0,0.0,0.0,0.0,0.0,0.0,0.0,0.0,0.0,0.0,0.0,0.0,0.0,0.0,0.0,0.025,0.95,0.025,0.0,0.0,0.0,0.0,0.0,0.0,0.0,0.0,0.0,0.0,0.0,0.0,0.0,0.0,0.0,0.025,0.0,0.0,0.925,0.025,0.0,0.0,0.025,0.0,0.0,0.0,0.0,0.0,0.0,0.0,0.0,0.0,0.025,0.0,0.0,0.0,0.0,0.0,0.95,0.025,0.0,0.0,0.0,0.0,0.0,0.0,0.0,0.0,0.0,0.0,0.0,0.0,0.0,0.0,0.0,0.025,0.0,0.0,0.975,0.0,0.0,0.0,0.0,0.0,0.0,0.0,0.0,0.0,0.0,0.0,0.0,0.0,0.0,0.0,0.0,0.0,0.0,0.025,0.95,0.025,0.0,0.0,0.0,0.0,0.0,0.0,0.0,0.0,0.0,0.0,0.0,0.0,0.0,0.0,0.0,0.0,0.025,0.0,0.95,0.025,0.0,0.0,0.0,0.0,0.0,0.0,0.0,0.0,0.0,0.0,0.0,0.0,0.0,0.0,0.0,0.0,0.025,0.0,0.95,0.0,0.0,0.025,0.0,0.0,0.0,0.0,0.0,0.0,0.0,0.0,0.0,0.0,0.0,0.0,0.025,0.0,0.0,0.0,0.3403880070546737,0.42151675485008816,0.02292768959435626,0.0,0.11992945326278659,0.007054673721340388,0.015873015873015872,0.021164021164021163,0.02292768959435626,0.005291005291005291,0.02292768959435626,0.0,0.0,0.0,0.0,0.0,0.0,0.0,0.0,0.0,0.1935483870967742,0.2699490662139219,0.12563667232597622,0.07640067911714771,0.06791171477079797,0.042444821731748725,0.02037351443123939,0.011884550084889643,0.030560271646859084,0.01867572156196944,0.01867572156196944,0.035653650254668934,0.010186757215619695,0.025466893039049237,0.013582342954159592,0.013582342954159592,0.02037351443123939,0.0050933786078098476,0.0,0.0,0.04745762711864407,0.17627118644067796,0.18305084745762712,0.19491525423728814,0.1135593220338983,0.11864406779661017,0.013559322033898305,0.022033898305084745,0.05084745762711865,0.030508474576271188,0.00847457627118644,0.006779661016949152,0.003389830508474576,0.006779661016949152,0.01694915254237288,0.005084745762711864,0.001694915254237288,0.0,0.0,0.0,0.14745762711864407,0.3644067796610169,0.22372881355932203,0.1152542372881356,0.05084745762711865,0.005084745762711864,0.003389830508474576,0.001694915254237288,0.006779661016949152,0.005084745762711864,0.022033898305084745,0.01864406779661017,0.005084745762711864,0.00847457627118644,0.010169491525423728,0.00847457627118644,0.003389830508474576,0.0,0.0,0.0,0.14915254237288136,0.5,0.22542372881355932,0.0711864406779661,0.020338983050847456,0.006779661016949152,0.0,0.0,0.006779661016949152,0.001694915254237288,0.0,0.005084745762711864,0.006779661016949152,0.003389830508474576,0.003389830508474576,0.0,0.0,0.0,0.0,0.0,0.21525423728813559,0.5796610169491525,0.19322033898305085,0.005084745762711864,0.003389830508474576,0.003389830508474576,0.0,0.0,0.0,0.0,0.0,0.0,0.0,0.0,0.0,0.0,0.0,0.0,0.0,0.0,0.26949152542372884,0.6559322033898305,0.07457627118644068,0.0,0.0,0.0,0.0,0.0,0.0,0.0,0.0,0.0,0.0,0.0,0.0,0.0,0.0,0.0,0.0,0.0,0.3576271186440678,0.6169491525423729,0.022033898305084745,0.0,0.001694915254237288,0.001694915254237288,0.0,0.0,0.0,0.0,0.0,0.0,0.0,0.0,0.0,0.0,0.0,0.0,0.0,0.0,0.3576271186440678,0.6288135593220339,0.010169491525423728,0.0,0.003389830508474576,0.0,0.0,0.0,0.0,0.0,0.0,0.0,0.0,0.0,0.0,0.0,0.0,0.0,0.0,0.0,0.3813559322033898,0.6050847457627119,0.013559322033898305,0.0,0.0,0.0,0.0,0.0,0.0,0.0,0.0,0.0,0.0,0.0,0.0,0.0,0.0,0.0,0.0,0.0,0.3593220338983051,0.6050847457627119,0.03559322033898305,0.0,0.0,0.0,0.0,0.0,0.0,0.0,0.0,0.0,0.0,0.0,0.0,0.0,0.0,0.0,0.0,0.0,0.3677966101694915,0.6271186440677966,0.005084745762711864,0.0,0.0,0.0,0.0,0.0,0.0,0.0,0.0,0.0,0.0,0.0,0.0,0.0,0.0,0.0,0.0,0.0,0.3610169491525424,0.6372881355932203,0.001694915254237288,0.0,0.0,0.0,0.0,0.0,0.0,0.0,0.0,0.0,0.0,0.0,0.0,0.0,0.0,0.0,0.0,0.0,0.39661016949152544,0.6033898305084746,0.0,0.0,0.0,0.0,0.0,0.0,0.0,0.0,0.0,0.0,0.0,0.0,0.0,0.0,0.0,0.0,0.0,0.0,0.3610169491525424,0.6389830508474577,0.0,0.0,0.0,0.0,0.0,0.0,0.0,0.0,0.0,0.0,0.0,0.0,0.0,0.0,0.0,0.0,0.0,0.0,0.3440677966101695,0.611864406779661,0.04406779661016949,0.0,0.0,0.0,0.0,0.0,0.0,0.0,0.0,0.0,0.0,0.0,0.0,0.0,0.0,0.0,0.0,0.0,UM90
0.5731922398589065,0.19047619047619047,0.04056437389770723,0.012345679012345678,0.008818342151675485,0.0,0.003527336860670194,0.0,0.0,0.0,0.0,0.001763668430335097,0.0,0.0,0.0,0.0,0.003527336860670194,0.010582010582010581,0.015873015873015872,0.13932980599647266,0.11472602739726027,0.11986301369863013,0.09246575342465753,0.0702054794520548,0.08047945205479452,0.059931506849315065,0.07876712328767123,0.03595890410958904,0.0547945205479452,0.03424657534246575,0.030821917808219176,0.0136986301369863,0.015410958904109588,0.011986301369863013,0.010273972602739725,0.02226027397260274,0.015410958904109588,0.0136986301369863,0.02910958904109589,0.0958904109589041,0.14505119453924914,0.14334470989761092,0.10921501706484642,0.09726962457337884,0.10580204778156997,0.1075085324232082,0.052901023890784986,0.040955631399317405,0.03583617747440273,0.015358361774744027,0.01877133105802048,0.010238907849829351,0.006825938566552901,0.0017064846416382253,0.0,0.0034129692832764505,0.006825938566552901,0.013651877133105802,0.01877133105802048,0.06655290102389079,0.22696245733788395,0.22013651877133106,0.15187713310580206,0.11092150170648464,0.12116040955631399,0.07167235494880546,0.027303754266211604,0.008532423208191127,0.005119453924914676,0.0034129692832764505,0.0,0.0017064846416382253,0.0,0.0017064846416382253,0.0,0.0,0.005119453924914676,0.0017064846416382253,0.0034129692832764505,0.03924914675767918,0.2645051194539249,0.3856655290102389,0.15699658703071673,0.09044368600682594,0.05631399317406143,0.01877133105802048,0.005119453924914676,0.0017064846416382253,0.0,0.0,0.0,0.0,0.0,0.0,0.0,0.0,0.010238907849829351,0.0,0.0,0.010238907849829351,0.48976109215017066,0.4197952218430034,0.07849829351535836,0.010238907849829351,0.0017064846416382253,0.0,0.0,0.0,0.0,0.0,0.0,0.0,0.0,0.0,0.0,0.0,0.0,0.0,0.0,0.0,0.48976109215017066,0.39419795221843,0.09385665529010238,0.008532423208191127,0.0017064846416382253,0.0,0.0,0.0,0.0,0.0,0.0,0.0,0.0,0.0,0.0,0.0,0.0,0.0,0.0,0.011945392491467578,0.6126279863481229,0.295221843003413,0.07849829351535836,0.011945392491467578,0.0017064846416382253,0.0,0.0,0.0,0.0,0.0,0.0,0.0,0.0,0.0,0.0,0.0,0.0,0.0,0.0,0.0,0.6569965870307167,0.31569965870307165,0.023890784982935155,0.0,0.0,0.0,0.0,0.0,0.0,0.0,0.0,0.0,0.0,0.0,0.0,0.0,0.0,0.0,0.0,0.0034129692832764505,0.6808873720136519,0.29180887372013653,0.027303754266211604,0.0,0.0,0.0,0.0,0.0,0.0,0.0,0.0,0.0,0.0,0.0,0.0,0.0,0.0,0.0,0.0,0.0,0.71160409556314,0.27474402730375425,0.013651877133105802,0.0,0.0,0.0,0.0,0.0,0.0,0.0,0.0,0.0,0.0,0.0,0.0,0.0,0.0,0.0,0.0,0.0,0.7696245733788396,0.22696245733788395,0.0034129692832764505,0.0,0.0,0.0,0.0,0.0,0.0,0.0,0.0,0.0,0.0,0.0,0.0,0.0,0.0,0.0,0.0,0.0,0.7508532423208191,0.24061433447098976,0.008532423208191127,0.0,0.0,0.0,0.0,0.0,0.0,0.0,0.0,0.0,0.0,0.0,0.0,0.0,0.0,0.0,0.0,0.0,0.7150170648464164,0.2781569965870307,0.006825938566552901,0.0,0.0,0.0,0.0,0.0,0.0,0.0,0.0,0.0,0.0,0.0,0.0,0.0,0.0,0.0,0.0,0.0,0.7559726962457338,0.1962457337883959,0.04436860068259386,0.0034129692832764505,0.0,0.0,0.0,0.0,0.0,0.0,0.0,0.0,0.0,0.0,0.0,0.0,0.0,0.0,0.0,0.0,0.8088737201365188,0.17918088737201365,0.011945392491467578,0.0,0.0,0.0,0.0,0.0,0.0,0.0,0.0,0.0,0.0,0.0,0.0,0.0,0.0,0.0,0.0,0.0,0.95,0.0,0.0,0.025,0.0,0.0,0.0,0.0,0.0,0.0,0.0,0.0,0.0,0.0,0.0,0.025,0.0,0.0,0.0,0.0,0.925,0.0,0.025,0.0,0.025,0.0,0.0,0.0,0.0,0.0,0.025,0.0,0.0,0.0,0.0,0.0,0.0,0.0,0.0,0.0,0.925,0.025,0.025,0.0,0.0,0.0,0.0,0.0,0.0,0.0,0.0,0.0,0.0,0.025,0.0,0.0,0.0,0.0,0.0,0.0,0.925,0.025,0.0,0.025,0.0,0.0,0.0,0.0,0.0,0.0,0.0,0.0,0.0,0.0,0.025,0.0,0.0,0.0,0.0,0.0,0.975,0.0,0.0,0.0,0.0,0.0,0.0,0.0,0.0,0.0,0.0,0.0,0.0,0.0,0.0,0.0,0.0,0.025,0.0,0.0,0.95,0.0,0.025,0.0,0.0,0.0,0.0,0.0,0.0,0.0,0.0,0.0,0.0,0.0,0.0,0.025,0.0,0.0,0.0,0.0,0.975,0.0,0.0,0.0,0.0,0.0,0.0,0.0,0.0,0.0,0.0,0.0,0.0,0.0,0.0,0.0,0.0,0.0,0.0,0.025,0.925,0.025,0.025,0.0,0.0,0.0,0.0,0.0,0.0,0.0,0.0,0.0,0.0,0.0,0.0,0.025,0.0,0.0,0.0,0.0,0.975,0.0,0.0,0.0,0.0,0.0,0.0,0.0,0.0,0.0,0.0,0.0,0.0,0.0,0.0,0.0,0.0,0.0,0.0,0.025,0.95,0.025,0.0,0.0,0.0,0.0,0.0,0.0,0.0,0.0,0.0,0.0,0.0,0.0,0.0,0.0,0.0,0.025,0.0,0.0,0.95,0.0,0.025,0.0,0.0,0.0,0.0,0.0,0.0,0.0,0.0,0.0,0.0,0.0,0.0,0.0,0.0,0.025,0.0,0.0,0.95,0.025,0.0,0.0,0.0,0.0,0.0,0.0,0.0,0.0,0.0,0.0,0.0,0.0,0.0,0.0,0.0,0.0,0.025,0.0,0.95,0.0,0.025,0.0,0.0,0.0,0.0,0.0,0.0,0.0,0.0,0.0,0.0,0.0,0.0,0.0,0.0,0.025,0.0,0.0,0.95,0.0,0.0,0.0,0.025,0.0,0.0,0.0,0.0,0.0,0.0,0.0,0.0,0.0,0.025,0.0,0.0,0.0,0.0,0.0,0.925,0.025,0.0,0.025,0.0,0.0,0.0,0.0,0.0,0.0,0.0,0.0,0.0,0.0,0.025,0.0,0.0,0.0,0.0,0.0,0.95,0.0,0.025,0.0,0.0,0.0,0.0,0.0,0.0,0.0,0.0,0.0,0.0,0.0,0.0,0.0,0.0,0.025,0.0,0.0,0.32098765432098764,0.4444444444444444,0.0564373897707231,0.007054673721340388,0.08818342151675485,0.007054673721340388,0.007054673721340388,0.0,0.019400352733686066,0.005291005291005291,0.001763668430335097,0.014109347442680775,0.007054673721340388,0.007054673721340388,0.012345679012345678,0.001763668430335097,0.0,0.0,0.0,0.0,0.06164383561643835,0.1678082191780822,0.14726027397260275,0.1523972602739726,0.08732876712328767,0.11301369863013698,0.0547945205479452,0.025684931506849314,0.02226027397260274,0.017123287671232876,0.02054794520547945,0.03595890410958904,0.04794520547945205,0.00684931506849315,0.0017123287671232876,0.011986301369863013,0.025684931506849314,0.0,0.0,0.0,0.08361774744027303,0.19795221843003413,0.189419795221843,0.22696245733788395,0.12116040955631399,0.030716723549488054,0.04778156996587031,0.01877133105802048,0.010238907849829351,0.0017064846416382253,0.015358361774744027,0.011945392491467578,0.006825938566552901,0.0017064846416382253,0.006825938566552901,0.011945392491467578,0.011945392491467578,0.005119453924914676,0.0,0.0,0.13310580204778158,0.310580204778157,0.3037542662116041,0.17406143344709898,0.020477815699658702,0.011945392491467578,0.010238907849829351,0.0,0.0017064846416382253,0.0034129692832764505,0.0017064846416382253,0.0,0.0017064846416382253,0.0034129692832764505,0.006825938566552901,0.0034129692832764505,0.010238907849829351,0.0034129692832764505,0.0,0.0,0.16382252559726962,0.49829351535836175,0.26791808873720135,0.04778156996587031,0.0034129692832764505,0.005119453924914676,0.0034129692832764505,0.0,0.010238907849829351,0.0,0.0,0.0,0.0,0.0,0.0,0.0,0.0,0.0,0.0,0.0,0.29692832764505117,0.6399317406143344,0.06313993174061433,0.0,0.0,0.0,0.0,0.0,0.0,0.0,0.0,0.0,0.0,0.0,0.0,0.0,0.0,0.0,0.0,0.0,0.2883959044368601,0.6296928327645052,0.06996587030716724,0.0,0.005119453924914676,0.006825938566552901,0.0,0.0,0.0,0.0,0.0,0.0,0.0,0.0,0.0,0.0,0.0,0.0,0.0,0.0,0.3583617747440273,0.5750853242320819,0.06655290102389079,0.0,0.0,0.0,0.0,0.0,0.0,0.0,0.0,0.0,0.0,0.0,0.0,0.0,0.0,0.0,0.0,0.0,0.3839590443686007,0.5921501706484642,0.020477815699658702,0.0,0.0017064846416382253,0.0017064846416382253,0.0,0.0,0.0,0.0,0.0,0.0,0.0,0.0,0.0,0.0,0.0,0.0,0.0,0.0,0.37372013651877134,0.6160409556313993,0.010238907849829351,0.0,0.0,0.0,0.0,0.0,0.0,0.0,0.0,0.0,0.0,0.0,0.0,0.0,0.0,0.0,0.0,0.0,0.3839590443686007,0.60580204778157,0.010238907849829351,0.0,0.0,0.0,0.0,0.0,0.0,0.0,0.0,0.0,0.0,0.0,0.0,0.0,0.0,0.0,0.0,0.0,0.4044368600682594,0.5955631399317406,0.0,0.0,0.0,0.0,0.0,0.0,0.0,0.0,0.0,0.0,0.0,0.0,0.0,0.0,0.0,0.0,0.0,0.0,0.4044368600682594,0.590443686006826,0.005119453924914676,0.0,0.0,0.0,0.0,0.0,0.0,0.0,0.0,0.0,0.0,0.0,0.0,0.0,0.0,0.0,0.0,0.0,0.3822525597269625,0.6177474402730375,0.0,0.0,0.0,0.0,0.0,0.0,0.0,0.0,0.0,0.0,0.0,0.0,0.0,0.0,0.0,0.0,0.0,0.0,0.39419795221843,0.5665529010238908,0.03924914675767918,0.0,0.0,0.0,0.0,0.0,0.0,0.0,0.0,0.0,0.0,0.0,0.0,0.0,0.0,0.0,0.0,0.0,0.3993174061433447,0.5853242320819113,0.015358361774744027,0.0,0.0,0.0,0.0,0.0,0.0,0.0,0.0,0.0,0.0,0.0,0.0,0.0,0.0,0.0,0.0,0.0,UM90
0.5853658536585366,0.2,0.024390243902439025,0.011382113821138212,0.004878048780487805,0.0016260162601626016,0.0,0.0,0.0,0.0,0.0,0.0,0.0016260162601626016,0.0032520325203252032,0.0032520325203252032,0.0032520325203252032,0.013008130081300813,0.0032520325203252032,0.03739837398373984,0.1073170731707317,0.21565495207667731,0.16613418530351437,0.10702875399361023,0.07348242811501597,0.07348242811501597,0.051118210862619806,0.01757188498402556,0.023961661341853034,0.02875399361022364,0.02875399361022364,0.01597444089456869,0.009584664536741214,0.004792332268370607,0.006389776357827476,0.001597444089456869,0.01437699680511182,0.020766773162939296,0.003194888178913738,0.038338658146964855,0.09904153354632587,0.13258785942492013,0.1389776357827476,0.15175718849840256,0.10223642172523961,0.10383386581469649,0.07028753993610223,0.052715654952076675,0.022364217252396165,0.04472843450479233,0.01437699680511182,0.022364217252396165,0.012779552715654952,0.006389776357827476,0.004792332268370607,0.007987220447284345,0.001597444089456869,0.006389776357827476,0.011182108626198083,0.01757188498402556,0.07507987220447285,0.16932907348242812,0.24281150159744408,0.18370607028753994,0.15335463258785942,0.11501597444089456,0.06389776357827476,0.038338658146964855,0.007987220447284345,0.0,0.0,0.0,0.0,0.0,0.0,0.001597444089456869,0.0,0.0,0.0,0.009584664536741214,0.01437699680511182,0.3961661341853035,0.38817891373801916,0.1182108626198083,0.04952076677316294,0.027156549520766772,0.003194888178913738,0.0,0.0,0.0,0.0,0.0,0.0,0.0,0.0,0.004792332268370607,0.0,0.0,0.0,0.003194888178913738,0.009584664536741214,0.4744408945686901,0.3738019169329074,0.11182108626198083,0.03035143769968051,0.0,0.0,0.0,0.0,0.0,0.0,0.0,0.0,0.0,0.0,0.0,0.0,0.0,0.0,0.0,0.009584664536741214,0.4504792332268371,0.4073482428115016,0.11980830670926518,0.022364217252396165,0.0,0.0,0.0,0.0,0.0,0.0,0.0,0.0,0.0,0.0,0.0,0.0,0.0,0.0,0.0,0.0,0.5303514376996805,0.35782747603833864,0.08626198083067092,0.023961661341853034,0.001597444089456869,0.0,0.0,0.0,0.0,0.0,0.0,0.0,0.0,0.0,0.0,0.0,0.0,0.0,0.0,0.0,0.4696485623003195,0.4185303514376997,0.10862619808306709,0.003194888178913738,0.0,0.0,0.0,0.0,0.0,0.0,0.0,0.0,0.0,0.0,0.0,0.0,0.0,0.0,0.0,0.0,0.634185303514377,0.35942492012779553,0.003194888178913738,0.0,0.0,0.0,0.0,0.0,0.0,0.0,0.0,0.0,0.0,0.0,0.0,0.0,0.0,0.0,0.0,0.003194888178913738,0.6805111821086262,0.26677316293929715,0.04153354632587859,0.011182108626198083,0.0,0.0,0.0,0.0,0.0,0.0,0.0,0.0,0.0,0.0,0.0,0.0,0.0,0.0,0.0,0.0,0.6757188498402555,0.2779552715654952,0.0463258785942492,0.0,0.0,0.0,0.0,0.0,0.0,0.0,0.0,0.0,0.0,0.0,0.0,0.0,0.0,0.0,0.0,0.0,0.731629392971246,0.26198083067092653,0.006389776357827476,0.0,0.0,0.0,0.0,0.0,0.0,0.0,0.0,0.0,0.0,0.0,0.0,0.0,0.0,0.0,0.0,0.0,0.7507987220447284,0.22364217252396165,0.025559105431309903,0.0,0.0,0.0,0.0,0.0,0.0,0.0,0.0,0.0,0.0,0.0,0.0,0.0,0.0,0.0,0.0,0.0,0.7987220447284346,0.19329073482428116,0.007987220447284345,0.0,0.0,0.0,0.0,0.0,0.0,0.0,0.0,0.0,0.0,0.0,0.0,0.0,0.0,0.0,0.0,0.0,0.7939297124600639,0.20607028753993611,0.0,0.0,0.0,0.0,0.0,0.0,0.0,0.0,0.0,0.0,0.0,0.0,0.0,0.0,0.0,0.0,0.0,0.0,0.95,0.0,0.0,0.025,0.0,0.0,0.0,0.0,0.0,0.0,0.0,0.0,0.0,0.0,0.025,0.0,0.0,0.0,0.0,0.0,0.925,0.0,0.025,0.0,0.0,0.025,0.0,0.0,0.0,0.0,0.025,0.0,0.0,0.0,0.0,0.0,0.0,0.0,0.0,0.0,0.925,0.025,0.0,0.025,0.0,0.0,0.0,0.0,0.0,0.0,0.0,0.0,0.0,0.025,0.0,0.0,0.0,0.0,0.0,0.0,0.925,0.025,0.025,0.0,0.0,0.0,0.0,0.0,0.0,0.0,0.0,0.0,0.0,0.0,0.025,0.0,0.0,0.0,0.0,0.0,0.925,0.0,0.025,0.0,0.025,0.0,0.0,0.0,0.0,0.0,0.0,0.025,0.0,0.0,0.0,0.0,0.0,0.0,0.0,0.0,0.975,0.0,0.0,0.0,0.0,0.0,0.0,0.0,0.0,0.0,0.0,0.0,0.0,0.0,0.0,0.0,0.0,0.0,0.0,0.025,0.95,0.0,0.025,0.0,0.0,0.0,0.0,0.0,0.0,0.0,0.0,0.0,0.0,0.0,0.0,0.025,0.0,0.0,0.0,0.0,0.95,0.0,0.025,0.0,0.0,0.0,0.0,0.0,0.0,0.0,0.0,0.0,0.0,0.0,0.0,0.0,0.025,0.0,0.0,0.0,0.95,0.0,0.025,0.0,0.0,0.0,0.0,0.0,0.0,0.0,0.0,0.0,0.0,0.0,0.0,0.0,0.025,0.0,0.0,0.0,0.975,0.0,0.0,0.0,0.0,0.0,0.0,0.0,0.0,0.0,0.0,0.0,0.0,0.0,0.0,0.0,0.0,0.0,0.0,0.025,0.95,0.0,0.025,0.0,0.0,0.0,0.0,0.0,0.0,0.0,0.0,0.0,0.0,0.0,0.0,0.025,0.0,0.0,0.0,0.0,0.95,0.0,0.025,0.0,0.0,0.0,0.0,0.0,0.0,0.0,0.0,0.0,0.0,0.0,0.0,0.0,0.0,0.025,0.0,0.0,0.95,0.025,0.0,0.0,0.0,0.0,0.0,0.0,0.0,0.0,0.0,0.0,0.0,0.0,0.0,0.0,0.0,0.0,0.025,0.0,0.975,0.0,0.0,0.0,0.0,0.0,0.0,0.0,0.0,0.0,0.0,0.0,0.0,0.0,0.0,0.0,0.0,0.0,0.0,0.025,0.95,0.025,0.0,0.0,0.0,0.0,0.0,0.0,0.0,0.0,0.0,0.0,0.0,0.0,0.0,0.0,0.0,0.0,0.025,0.0,0.95,0.0,0.025,0.0,0.0,0.0,0.0,0.0,0.0,0.0,0.0,0.0,0.0,0.0,0.0,0.0,0.0,0.025,0.0,0.0,0.3772357723577236,0.4097560975609756,0.03577235772357724,0.004878048780487805,0.07154471544715447,0.0032520325203252032,0.00975609756097561,0.004878048780487805,0.022764227642276424,0.0032520325203252032,0.016260162601626018,0.011382113821138212,0.00975609756097561,0.011382113821138212,0.0,0.0065040650406504065,0.0016260162601626016,0.0,0.0,0.0,0.10543130990415335,0.28434504792332266,0.17731629392971246,0.10063897763578275,0.054313099041533544,0.06869009584664537,0.03354632587859425,0.019169329073482427,0.025559105431309903,0.023961661341853034,0.022364217252396165,0.019169329073482427,0.025559105431309903,0.023961661341853034,0.009584664536741214,0.006389776357827476,0.0,0.0,0.0,0.0,0.06869009584664537,0.2012779552715655,0.26038338658146964,0.18370607028753994,0.05591054313099041,0.07188498402555911,0.04472843450479233,0.03035143769968051,0.01437699680511182,0.006389776357827476,0.011182108626198083,0.01437699680511182,0.011182108626198083,0.012779552715654952,0.011182108626198083,0.001597444089456869,0.0,0.0,0.0,0.0,0.11022364217252396,0.31309904153354634,0.3402555910543131,0.20447284345047922,0.007987220447284345,0.004792332268370607,0.0,0.006389776357827476,0.003194888178913738,0.003194888178913738,0.003194888178913738,0.003194888178913738,0.0,0.0,0.0,0.0,0.0,0.0,0.0,0.0,0.23322683706070288,0.5638977635782748,0.18370607028753994,0.001597444089456869,0.0,0.0,0.0,0.003194888178913738,0.0,0.009584664536741214,0.004792332268370607,0.0,0.0,0.0,0.0,0.0,0.0,0.0,0.0,0.0,0.2939297124600639,0.6022364217252396,0.09424920127795527,0.0,0.006389776357827476,0.003194888178913738,0.0,0.0,0.0,0.0,0.0,0.0,0.0,0.0,0.0,0.0,0.0,0.0,0.0,0.0,0.24440894568690097,0.6565495207667732,0.09904153354632587,0.0,0.0,0.0,0.0,0.0,0.0,0.0,0.0,0.0,0.0,0.0,0.0,0.0,0.0,0.0,0.0,0.0,0.29233226837060705,0.6246006389776357,0.08306709265175719,0.0,0.0,0.0,0.0,0.0,0.0,0.0,0.0,0.0,0.0,0.0,0.0,0.0,0.0,0.0,0.0,0.0,0.2523961661341853,0.6661341853035144,0.08146964856230032,0.0,0.0,0.0,0.0,0.0,0.0,0.0,0.0,0.0,0.0,0.0,0.0,0.0,0.0,0.0,0.0,0.0,0.3466453674121406,0.6501597444089456,0.0,0.0,0.003194888178913738,0.0,0.0,0.0,0.0,0.0,0.0,0.0,0.0,0.0,0.0,0.0,0.0,0.0,0.0,0.0,0.33865814696485624,0.6230031948881789,0.038338658146964855,0.0,0.0,0.0,0.0,0.0,0.0,0.0,0.0,0.0,0.0,0.0,0.0,0.0,0.0,0.0,0.0,0.0,0.33865814696485624,0.646964856230032,0.01437699680511182,0.0,0.0,0.0,0.0,0.0,0.0,0.0,0.0,0.0,0.0,0.0,0.0,0.0,0.0,0.0,0.0,0.0,0.36421725239616615,0.6325878594249201,0.003194888178913738,0.0,0.0,0.0,0.0,0.0,0.0,0.0,0.0,0.0,0.0,0.0,0.0,0.0,0.0,0.0,0.0,0.0,0.35942492012779553,0.634185303514377,0.006389776357827476,0.0,0.0,0.0,0.0,0.0,0.0,0.0,0.0,0.0,0.0,0.0,0.0,0.0,0.0,0.0,0.0,0.0,0.3801916932907348,0.6198083067092651,0.0,0.0,0.0,0.0,0.0,0.0,0.0,0.0,0.0,0.0,0.0,0.0,0.0,0.0,0.0,0.0,0.0,0.0,0.3738019169329074,0.6261980830670927,0.0,0.0,0.0,0.0,0.0,0.0,0.0,0.0,0.0,0.0,0.0,0.0,0.0,0.0,0.0,0.0,0.0,0.0,UM90
0.5600706713780919,0.18374558303886926,0.03356890459363958,0.0035335689045936395,0.0,0.0,0.0,0.0,0.0,0.0,0.0017667844522968198,0.0017667844522968198,0.0,0.0,0.007067137809187279,0.0,0.0176678445229682,0.0017667844522968198,0.0,0.18904593639575973,0.23946037099494097,0.1551433389544688,0.10118043844856661,0.06745362563237774,0.06745362563237774,0.021922428330522766,0.025295109612141653,0.023608768971332208,0.013490725126475547,0.03372681281618887,0.02023608768971332,0.016863406408094434,0.013490725126475547,0.016863406408094434,0.016863406408094434,0.021922428330522766,0.03035413153456998,0.011804384485666104,0.021922428330522766,0.08094435075885328,0.12605042016806722,0.13949579831932774,0.14453781512605043,0.10588235294117647,0.09915966386554621,0.07058823529411765,0.02689075630252101,0.01680672268907563,0.025210084033613446,0.01680672268907563,0.02857142857142857,0.01680672268907563,0.013445378151260505,0.021848739495798318,0.008403361344537815,0.0067226890756302525,0.013445378151260505,0.008403361344537815,0.021848739495798318,0.08907563025210084,0.12100840336134454,0.11932773109243698,0.16470588235294117,0.1546218487394958,0.16134453781512606,0.08235294117647059,0.03529411764705882,0.04201680672268908,0.015126050420168067,0.005042016806722689,0.005042016806722689,0.0016806722689075631,0.0,0.0016806722689075631,0.008403361344537815,0.0016806722689075631,0.008403361344537815,0.0016806722689075631,0.03865546218487395,0.031932773109243695,0.3899159663865546,0.3831932773109244,0.1361344537815126,0.052100840336134456,0.023529411764705882,0.0033613445378151263,0.0,0.0,0.0,0.0,0.0,0.0,0.0,0.0,0.0,0.0,0.0,0.0,0.0033613445378151263,0.008403361344537815,0.34789915966386553,0.4,0.1546218487394958,0.07226890756302522,0.021848739495798318,0.0,0.0,0.0,0.0,0.0,0.0,0.0,0.0,0.0,0.0,0.0,0.0,0.0,0.0,0.0033613445378151263,0.5008403361344538,0.35126050420168065,0.08907563025210084,0.021848739495798318,0.03529411764705882,0.0016806722689075631,0.0,0.0,0.0,0.0,0.0,0.0,0.0,0.0,0.0,0.0,0.0,0.0,0.0,0.0,0.561344537815126,0.36134453781512604,0.05714285714285714,0.01680672268907563,0.0,0.0,0.0,0.0,0.0,0.0,0.0,0.0,0.0,0.0,0.0,0.0,0.0,0.0,0.0,0.0033613445378151263,0.6907563025210084,0.2823529411764706,0.01680672268907563,0.010084033613445379,0.0,0.0,0.0,0.0,0.0,0.0,0.0,0.0,0.0,0.0,0.0,0.0,0.0,0.0,0.0,0.0,0.6605042016806723,0.3126050420168067,0.02689075630252101,0.0,0.0,0.0,0.0,0.0,0.0,0.0,0.0,0.0,0.0,0.0,0.0,0.0,0.0,0.0,0.0,0.0,0.6487394957983194,0.32605042016806723,0.01680672268907563,0.0016806722689075631,0.0,0.0,0.0,0.0,0.0,0.0,0.0,0.0,0.0,0.0,0.0,0.0,0.0,0.0,0.0,0.0067226890756302525,0.7394957983193278,0.2453781512605042,0.015126050420168067,0.0,0.0,0.0,0.0,0.0,0.0,0.0,0.0,0.0,0.0,0.0,0.0,0.0,0.0,0.0,0.0,0.0,0.7058823529411765,0.2907563025210084,0.0033613445378151263,0.0,0.0,0.0,0.0,0.0,0.0,0.0,0.0,0.0,0.0,0.0,0.0,0.0,0.0,0.0,0.0,0.0,0.7344537815126051,0.26554621848739496,0.0,0.0,0.0,0.0,0.0,0.0,0.0,0.0,0.0,0.0,0.0,0.0,0.0,0.0,0.0,0.0,0.0,0.0,0.761344537815126,0.23865546218487396,0.0,0.0,0.0,0.0,0.0,0.0,0.0,0.0,0.0,0.0,0.0,0.0,0.0,0.0,0.0,0.0,0.0,0.0,0.8117647058823529,0.18823529411764706,0.0,0.0,0.0,0.0,0.0,0.0,0.0,0.0,0.0,0.0,0.0,0.0,0.0,0.0,0.0,0.0,0.0,0.0,0.95,0.025,0.0,0.0,0.0,0.0,0.0,0.0,0.0,0.0,0.0,0.0,0.0,0.0,0.0,0.0,0.0,0.0,0.025,0.0,0.925,0.025,0.0,0.0,0.0,0.025,0.0,0.0,0.0,0.0,0.0,0.025,0.0,0.0,0.0,0.0,0.0,0.0,0.0,0.0,0.925,0.0,0.025,0.0,0.025,0.0,0.0,0.0,0.0,0.0,0.0,0.025,0.0,0.0,0.0,0.0,0.0,0.0,0.0,0.0,0.925,0.025,0.0,0.025,0.0,0.0,0.0,0.0,0.0,0.0,0.0,0.0,0.0,0.0,0.025,0.0,0.0,0.0,0.0,0.0,0.95,0.025,0.0,0.0,0.0,0.0,0.0,0.0,0.0,0.0,0.0,0.0,0.0,0.0,0.0,0.0,0.0,0.0,0.025,0.0,0.95,0.025,0.0,0.0,0.0,0.0,0.0,0.0,0.0,0.0,0.0,0.0,0.0,0.0,0.0,0.0,0.025,0.0,0.0,0.0,0.925,0.025,0.025,0.0,0.0,0.0,0.0,0.0,0.0,0.0,0.0,0.0,0.0,0.0,0.0,0.025,0.0,0.0,0.0,0.0,0.975,0.0,0.0,0.0,0.0,0.0,0.0,0.0,0.0,0.0,0.0,0.0,0.0,0.0,0.0,0.0,0.0,0.0,0.025,0.0,0.95,0.0,0.025,0.0,0.0,0.0,0.0,0.0,0.0,0.0,0.0,0.0,0.0,0.0,0.0,0.0,0.0,0.025,0.0,0.0,0.95,0.025,0.0,0.0,0.0,0.0,0.0,0.0,0.0,0.0,0.0,0.0,0.0,0.0,0.0,0.0,0.0,0.025,0.0,0.0,0.975,0.0,0.0,0.0,0.0,0.0,0.0,0.0,0.0,0.0,0.0,0.0,0.0,0.0,0.0,0.0,0.0,0.0,0.0,0.025,0.95,0.025,0.0,0.0,0.0,0.0,0.0,0.0,0.0,0.0,0.0,0.0,0.0,0.0,0.0,0.0,0.0,0.0,0.025,0.0,0.95,0.0,0.0,0.0,0.025,0.0,0.0,0.0,0.0,0.0,0.0,0.0,0.0,0.0,0.025,0.0,0.0,0.0,0.0,0.0,0.95,0.025,0.0,0.0,0.0,0.0,0.0,0.0,0.0,0.0,0.0,0.0,0.0,0.0,0.0,0.0,0.0,0.0,0.025,0.0,0.975,0.0,0.0,0.0,0.0,0.0,0.0,0.0,0.0,0.0,0.0,0.0,0.0,0.0,0.0,0.0,0.0,0.0,0.0,0.025,0.975,0.0,0.0,0.0,0.0,0.0,0.0,0.0,0.0,0.0,0.0,0.0,0.0,0.0,0.0,0.0,0.0,0.0,0.0,0.025,0.37279151943462896,0.3763250883392226,0.03180212014134275,0.0,0.1625441696113074,0.0017667844522968198,0.0,0.0,0.024734982332155476,0.01060070671378092,0.0017667844522968198,0.00530035335689046,0.007067137809187279,0.00530035335689046,0.0,0.0,0.0,0.0,0.0,0.0,0.15345699831365936,0.23440134907251264,0.16694772344013492,0.10623946037099494,0.025295109612141653,0.0657672849915683,0.04215851602023609,0.03035413153456998,0.026981450252951095,0.03541315345699832,0.03035413153456998,0.04047217537942664,0.00505902192242833,0.016863406408094434,0.0016863406408094434,0.006745362563237774,0.011804384485666104,0.0,0.0,0.0,0.07563025210084033,0.1899159663865546,0.26218487394957984,0.16302521008403362,0.04201680672268908,0.040336134453781515,0.021848739495798318,0.05546218487394958,0.018487394957983194,0.021848739495798318,0.013445378151260505,0.015126050420168067,0.015126050420168067,0.021848739495798318,0.008403361344537815,0.010084033613445379,0.020168067226890758,0.005042016806722689,0.0,0.0,0.08403361344537816,0.16470588235294117,0.33277310924369746,0.24873949579831933,0.05042016806722689,0.025210084033613446,0.010084033613445379,0.013445378151260505,0.031932773109243695,0.015126050420168067,0.010084033613445379,0.0067226890756302525,0.005042016806722689,0.0016806722689075631,0.0,0.0,0.0,0.0,0.0,0.0,0.253781512605042,0.534453781512605,0.18487394957983194,0.015126050420168067,0.0016806722689075631,0.0067226890756302525,0.0,0.0033613445378151263,0.0,0.0,0.0,0.0,0.0,0.0,0.0,0.0,0.0,0.0,0.0,0.0,0.19831932773109243,0.5798319327731093,0.21680672268907564,0.0016806722689075631,0.0016806722689075631,0.0016806722689075631,0.0,0.0,0.0,0.0,0.0,0.0,0.0,0.0,0.0,0.0,0.0,0.0,0.0,0.0,0.28907563025210087,0.584873949579832,0.1092436974789916,0.01680672268907563,0.0,0.0,0.0,0.0,0.0,0.0,0.0,0.0,0.0,0.0,0.0,0.0,0.0,0.0,0.0,0.0,0.3226890756302521,0.6134453781512605,0.06050420168067227,0.0,0.0033613445378151263,0.0,0.0,0.0,0.0,0.0,0.0,0.0,0.0,0.0,0.0,0.0,0.0,0.0,0.0,0.0,0.3899159663865546,0.5865546218487395,0.023529411764705882,0.0,0.0,0.0,0.0,0.0,0.0,0.0,0.0,0.0,0.0,0.0,0.0,0.0,0.0,0.0,0.0,0.0,0.3697478991596639,0.6151260504201681,0.015126050420168067,0.0,0.0,0.0,0.0,0.0,0.0,0.0,0.0,0.0,0.0,0.0,0.0,0.0,0.0,0.0,0.0,0.0,0.346218487394958,0.6420168067226891,0.005042016806722689,0.0,0.0033613445378151263,0.0033613445378151263,0.0,0.0,0.0,0.0,0.0,0.0,0.0,0.0,0.0,0.0,0.0,0.0,0.0,0.0,0.4084033613445378,0.5831932773109244,0.008403361344537815,0.0,0.0,0.0,0.0,0.0,0.0,0.0,0.0,0.0,0.0,0.0,0.0,0.0,0.0,0.0,0.0,0.0,0.41008403361344536,0.5899159663865546,0.0,0.0,0.0,0.0,0.0,0.0,0.0,0.0,0.0,0.0,0.0,0.0,0.0,0.0,0.0,0.0,0.0,0.0,0.39327731092436974,0.6067226890756302,0.0,0.0,0.0,0.0,0.0,0.0,0.0,0.0,0.0,0.0,0.0,0.0,0.0,0.0,0.0,0.0,0.0,0.0,0.4050420168067227,0.5949579831932773,0.0,0.0,0.0,0.0,0.0,0.0,0.0,0.0,0.0,0.0,0.0,0.0,0.0,0.0,0.0,0.0,0.0,0.0,0.43865546218487395,0.561344537815126,0.0,0.0,0.0,0.0,0.0,0.0,0.0,0.0,0.0,0.0,0.0,0.0,0.0,0.0,0.0,0.0,0.0,0.0,UM90
0.47594501718213056,0.19072164948453607,0.0859106529209622,0.02577319587628866,0.015463917525773196,0.006872852233676976,0.006872852233676976,0.005154639175257732,0.001718213058419244,0.00859106529209622,0.0,0.0,0.003436426116838488,0.001718213058419244,0.00859106529209622,0.003436426116838488,0.012027491408934709,0.0,0.027491408934707903,0.12027491408934708,0.19734660033167495,0.1625207296849088,0.15257048092868988,0.11940298507462686,0.0812603648424544,0.07131011608623548,0.026533996683250415,0.014925373134328358,0.01990049751243781,0.013266998341625208,0.001658374792703151,0.0,0.0,0.001658374792703151,0.006633499170812604,0.001658374792703151,0.006633499170812604,0.003316749585406302,0.03316749585406302,0.08623548922056384,0.15728476821192053,0.18874172185430463,0.1390728476821192,0.09105960264900662,0.076158940397351,0.052980132450331126,0.04470198675496689,0.029801324503311258,0.028145695364238412,0.026490066225165563,0.013245033112582781,0.018211920529801324,0.018211920529801324,0.008278145695364239,0.009933774834437087,0.006622516556291391,0.004966887417218543,0.0033112582781456954,0.024834437086092714,0.057947019867549666,0.20695364238410596,0.22019867549668873,0.1771523178807947,0.10264900662251655,0.08112582781456953,0.048013245033112585,0.033112582781456956,0.026490066225165563,0.016556291390728478,0.013245033112582781,0.013245033112582781,0.004966887417218543,0.0016556291390728477,0.0016556291390728477,0.0,0.0016556291390728477,0.0033112582781456954,0.004966887417218543,0.018211920529801324,0.024834437086092714,0.4056291390728477,0.32781456953642385,0.12748344370860928,0.048013245033112585,0.033112582781456956,0.013245033112582781,0.0,0.0,0.0016556291390728477,0.0,0.0,0.0,0.0,0.0016556291390728477,0.0016556291390728477,0.0016556291390728477,0.009933774834437087,0.0033112582781456954,0.0033112582781456954,0.02152317880794702,0.42549668874172186,0.38576158940397354,0.09933774834437085,0.048013245033112585,0.03642384105960265,0.0016556291390728477,0.0,0.0,0.0,0.0,0.0,0.0,0.0,0.0,0.0,0.0,0.0,0.0,0.0033112582781456954,0.0,0.39072847682119205,0.3841059602649007,0.14735099337748345,0.029801324503311258,0.028145695364238412,0.011589403973509934,0.004966887417218543,0.0,0.0,0.0,0.0,0.0,0.0,0.0,0.0,0.0,0.0,0.0,0.0,0.0033112582781456954,0.6076158940397351,0.3576158940397351,0.029801324503311258,0.004966887417218543,0.0,0.0,0.0,0.0,0.0,0.0,0.0,0.0,0.0,0.0,0.0,0.0,0.0,0.0,0.0,0.0,0.597682119205298,0.32781456953642385,0.06291390728476821,0.004966887417218543,0.0,0.0,0.0,0.0,0.0,0.0,0.0,0.0,0.0,0.0,0.0,0.0,0.0,0.0,0.0,0.006622516556291391,0.6208609271523179,0.33774834437086093,0.03145695364238411,0.009933774834437087,0.0,0.0,0.0,0.0,0.0,0.0,0.0,0.0,0.0,0.0,0.0,0.0,0.0,0.0,0.0,0.0,0.6192052980132451,0.3344370860927152,0.046357615894039736,0.0,0.0,0.0,0.0,0.0,0.0,0.0,0.0,0.0,0.0,0.0,0.0,0.0,0.0,0.0,0.0,0.0,0.6374172185430463,0.3443708609271523,0.018211920529801324,0.0,0.0,0.0,0.0,0.0,0.0,0.0,0.0,0.0,0.0,0.0,0.0,0.0,0.0,0.0,0.0,0.0,0.6903973509933775,0.28807947019867547,0.02152317880794702,0.0,0.0,0.0,0.0,0.0,0.0,0.0,0.0,0.0,0.0,0.0,0.0,0.0,0.0,0.0,0.0,0.0,0.6705298013245033,0.2847682119205298,0.04304635761589404,0.0016556291390728477,0.0,0.0,0.0,0.0,0.0,0.0,0.0,0.0,0.0,0.0,0.0,0.0,0.0,0.0,0.0,0.0,0.7433774834437086,0.25662251655629137,0.0,0.0,0.0,0.0,0.0,0.0,0.0,0.0,0.0,0.0,0.0,0.0,0.0,0.0,0.0,0.0,0.0,0.0,0.7019867549668874,0.2947019867549669,0.0033112582781456954,0.0,0.0,0.0,0.0,0.0,0.0,0.0,0.0,0.0,0.0,0.0,0.0,0.0,0.0,0.0,0.0,0.0,0.95,0.0,0.0,0.025,0.0,0.0,0.0,0.0,0.0,0.0,0.0,0.0,0.0,0.025,0.0,0.0,0.0,0.0,0.0,0.0,0.95,0.0,0.0,0.025,0.0,0.0,0.0,0.0,0.0,0.0,0.0,0.0,0.0,0.0,0.025,0.0,0.0,0.0,0.0,0.0,0.925,0.025,0.0,0.0,0.025,0.0,0.0,0.0,0.0,0.0,0.0,0.0,0.025,0.0,0.0,0.0,0.0,0.0,0.0,0.0,0.925,0.025,0.0,0.025,0.0,0.0,0.0,0.0,0.0,0.0,0.0,0.0,0.0,0.0,0.025,0.0,0.0,0.0,0.0,0.0,0.925,0.0,0.05,0.0,0.0,0.0,0.0,0.0,0.0,0.0,0.0,0.0,0.0,0.025,0.0,0.0,0.0,0.0,0.0,0.0,0.95,0.025,0.0,0.0,0.0,0.0,0.0,0.0,0.0,0.0,0.0,0.0,0.0,0.0,0.0,0.0,0.0,0.025,0.0,0.0,0.95,0.025,0.0,0.0,0.0,0.0,0.0,0.0,0.0,0.0,0.0,0.0,0.0,0.0,0.0,0.0,0.0,0.025,0.0,0.0,0.95,0.0,0.025,0.0,0.0,0.0,0.0,0.0,0.0,0.0,0.0,0.0,0.0,0.0,0.0,0.0,0.025,0.0,0.0,0.0,0.975,0.0,0.0,0.0,0.0,0.0,0.0,0.0,0.0,0.0,0.0,0.0,0.0,0.0,0.0,0.0,0.0,0.0,0.0,0.025,0.95,0.0,0.025,0.0,0.0,0.0,0.0,0.0,0.0,0.0,0.0,0.0,0.0,0.0,0.0,0.0,0.0,0.025,0.0,0.0,0.95,0.0,0.0,0.025,0.0,0.0,0.0,0.0,0.0,0.0,0.0,0.0,0.0,0.0,0.0,0.0,0.025,0.0,0.0,0.0,0.95,0.025,0.0,0.0,0.0,0.0,0.0,0.0,0.0,0.0,0.0,0.0,0.0,0.0,0.0,0.0,0.0,0.025,0.0,0.0,0.95,0.025,0.0,0.0,0.0,0.0,0.0,0.0,0.0,0.0,0.0,0.0,0.0,0.0,0.0,0.0,0.0,0.025,0.0,0.0,0.95,0.0,0.025,0.0,0.0,0.0,0.0,0.0,0.0,0.0,0.0,0.0,0.0,0.0,0.0,0.0,0.0,0.025,0.0,0.0,0.95,0.025,0.0,0.0,0.0,0.0,0.0,0.0,0.0,0.0,0.0,0.0,0.0,0.0,0.0,0.0,0.0,0.0,0.025,0.0,0.95,0.025,0.0,0.0,0.0,0.0,0.0,0.0,0.0,0.0,0.0,0.0,0.0,0.0,0.0,0.0,0.0,0.0,0.025,0.0,0.29037800687285226,0.39690721649484534,0.08934707903780069,0.02577319587628866,0.07216494845360824,0.012027491408934709,0.005154639175257732,0.00859106529209622,0.022336769759450172,0.00859106529209622,0.020618556701030927,0.00859106529209622,0.006872852233676976,0.013745704467353952,0.00859106529209622,0.005154639175257732,0.005154639175257732,0.0,0.0,0.0,0.1310116086235489,0.23383084577114427,0.24543946932006633,0.1724709784411277,0.05970149253731343,0.03648424543946932,0.026533996683250415,0.006633499170812604,0.014925373134328358,0.013266998341625208,0.01824212271973466,0.014925373134328358,0.004975124378109453,0.006633499170812604,0.008291873963515755,0.004975124378109453,0.001658374792703151,0.0,0.0,0.0,0.09105960264900662,0.24834437086092714,0.23841059602649006,0.11920529801324503,0.07119205298013245,0.0728476821192053,0.028145695364238412,0.028145695364238412,0.013245033112582781,0.02152317880794702,0.023178807947019868,0.019867549668874173,0.013245033112582781,0.011589403973509934,0.0,0.0,0.0,0.0,0.0,0.0,0.09933774834437085,0.3360927152317881,0.3228476821192053,0.09602649006622517,0.054635761589403975,0.03145695364238411,0.014900662251655629,0.009933774834437087,0.0033112582781456954,0.004966887417218543,0.0,0.004966887417218543,0.004966887417218543,0.008278145695364239,0.0033112582781456954,0.0033112582781456954,0.0016556291390728477,0.0,0.0,0.0,0.2599337748344371,0.49834437086092714,0.15728476821192053,0.041390728476821195,0.0,0.006622516556291391,0.0,0.0,0.009933774834437087,0.0033112582781456954,0.0016556291390728477,0.0,0.0033112582781456954,0.006622516556291391,0.006622516556291391,0.0033112582781456954,0.0016556291390728477,0.0,0.0,0.0,0.23509933774834438,0.5993377483443708,0.15397350993377484,0.008278145695364239,0.0,0.0,0.0,0.0033112582781456954,0.0,0.0,0.0,0.0,0.0,0.0,0.0,0.0,0.0,0.0,0.0,0.0,0.23013245033112584,0.5662251655629139,0.173841059602649,0.026490066225165563,0.0,0.0033112582781456954,0.0,0.0,0.0,0.0,0.0,0.0,0.0,0.0,0.0,0.0,0.0,0.0,0.0,0.0,0.3658940397350993,0.609271523178808,0.024834437086092714,0.0,0.0,0.0,0.0,0.0,0.0,0.0,0.0,0.0,0.0,0.0,0.0,0.0,0.0,0.0,0.0,0.0,0.3576158940397351,0.5860927152317881,0.04966887417218543,0.0,0.0033112582781456954,0.0033112582781456954,0.0,0.0,0.0,0.0,0.0,0.0,0.0,0.0,0.0,0.0,0.0,0.0,0.0,0.0,0.35927152317880795,0.6142384105960265,0.026490066225165563,0.0,0.0,0.0,0.0,0.0,0.0,0.0,0.0,0.0,0.0,0.0,0.0,0.0,0.0,0.0,0.0,0.0,0.36258278145695366,0.6109271523178808,0.026490066225165563,0.0,0.0,0.0,0.0,0.0,0.0,0.0,0.0,0.0,0.0,0.0,0.0,0.0,0.0,0.0,0.0,0.0,0.34602649006622516,0.6506622516556292,0.0033112582781456954,0.0,0.0,0.0,0.0,0.0,0.0,0.0,0.0,0.0,0.0,0.0,0.0,0.0,0.0,0.0,0.0,0.0,0.3443708609271523,0.6440397350993378,0.011589403973509934,0.0,0.0,0.0,0.0,0.0,0.0,0.0,0.0,0.0,0.0,0.0,0.0,0.0,0.0,0.0,0.0,0.0,0.326158940397351,0.6324503311258278,0.041390728476821195,0.0,0.0,0.0,0.0,0.0,0.0,0.0,0.0,0.0,0.0,0.0,0.0,0.0,0.0,0.0,0.0,0.0,0.3526490066225166,0.6473509933774835,0.0,0.0,0.0,0.0,0.0,0.0,0.0,0.0,0.0,0.0,0.0,0.0,0.0,0.0,0.0,0.0,0.0,0.0,0.3079470198675497,0.6920529801324503,0.0,0.0,0.0,0.0,0.0,0.0,0.0,0.0,0.0,0.0,0.0,0.0,0.0,0.0,0.0,0.0,0.0,0.0,CO2
0.41935483870967744,0.24731182795698925,0.08294930875576037,0.030721966205837174,0.01228878648233487,0.006144393241167435,0.006144393241167435,0.0015360983102918587,0.0030721966205837174,0.0,0.0015360983102918587,0.0015360983102918587,0.004608294930875576,0.004608294930875576,0.004608294930875576,0.0030721966205837174,0.019969278033794162,0.007680491551459293,0.04608294930875576,0.0967741935483871,0.15749235474006115,0.15749235474006115,0.08409785932721713,0.11009174311926606,0.09327217125382263,0.06880733944954129,0.07033639143730887,0.047400611620795105,0.04281345565749235,0.0290519877675841,0.022935779816513763,0.00764525993883792,0.009174311926605505,0.0030581039755351682,0.0030581039755351682,0.0045871559633027525,0.00764525993883792,0.0030581039755351682,0.02599388379204893,0.05198776758409786,0.08689024390243902,0.125,0.11432926829268293,0.125,0.14329268292682926,0.10975609756097561,0.06859756097560976,0.042682926829268296,0.039634146341463415,0.019817073170731708,0.007621951219512195,0.01524390243902439,0.006097560975609756,0.004573170731707317,0.003048780487804878,0.003048780487804878,0.006097560975609756,0.007621951219512195,0.013719512195121951,0.057926829268292686,0.28810975609756095,0.2621951219512195,0.15701219512195122,0.10060975609756098,0.06859756097560976,0.038109756097560975,0.041158536585365856,0.006097560975609756,0.006097560975609756,0.004573170731707317,0.0,0.0,0.001524390243902439,0.004573170731707317,0.0,0.0,0.003048780487804878,0.0,0.012195121951219513,0.006097560975609756,0.5548780487804879,0.2698170731707317,0.14329268292682926,0.013719512195121951,0.001524390243902439,0.0,0.0,0.0,0.001524390243902439,0.0,0.0,0.0,0.001524390243902439,0.0,0.0,0.0,0.003048780487804878,0.0,0.0,0.010670731707317074,0.3429878048780488,0.3628048780487805,0.1448170731707317,0.08384146341463415,0.054878048780487805,0.007621951219512195,0.0,0.0,0.0,0.0,0.0,0.0,0.0,0.0,0.0,0.0,0.0,0.0,0.0,0.003048780487804878,0.49847560975609756,0.3429878048780488,0.09908536585365854,0.036585365853658534,0.021341463414634148,0.001524390243902439,0.0,0.0,0.0,0.0,0.0,0.0,0.0,0.0,0.0,0.0,0.0,0.0,0.0,0.0,0.4527439024390244,0.3643292682926829,0.13719512195121952,0.036585365853658534,0.009146341463414634,0.0,0.0,0.0,0.0,0.0,0.0,0.0,0.0,0.0,0.0,0.0,0.0,0.0,0.0,0.0,0.573170731707317,0.34146341463414637,0.07317073170731707,0.012195121951219513,0.0,0.0,0.0,0.0,0.0,0.0,0.0,0.0,0.0,0.0,0.0,0.0,0.0,0.0,0.0,0.0,0.6737804878048781,0.2896341463414634,0.03201219512195122,0.004573170731707317,0.0,0.0,0.0,0.0,0.0,0.0,0.0,0.0,0.0,0.0,0.0,0.0,0.0,0.0,0.0,0.0,0.676829268292683,0.3003048780487805,0.022865853658536585,0.0,0.0,0.0,0.0,0.0,0.0,0.0,0.0,0.0,0.0,0.0,0.0,0.0,0.0,0.0,0.0,0.0,0.6753048780487805,0.2850609756097561,0.036585365853658534,0.0,0.0,0.0,0.0,0.0,0.0,0.0,0.0,0.0,0.0,0.0,0.0,0.0,0.0,0.0,0.0,0.003048780487804878,0.7271341463414634,0.2530487804878049,0.019817073170731708,0.0,0.0,0.0,0.0,0.0,0.0,0.0,0.0,0.0,0.0,0.0,0.0,0.0,0.0,0.0,0.0,0.0,0.7987804878048781,0.20121951219512196,0.0,0.0,0.0,0.0,0.0,0.0,0.0,0.0,0.0,0.0,0.0,0.0,0.0,0.0,0.0,0.0,0.0,0.0,0.6692073170731707,0.32621951219512196,0.004573170731707317,0.0,0.0,0.0,0.0,0.0,0.0,0.0,0.0,0.0,0.0,0.0,0.0,0.0,0.0,0.0,0.0,0.0,0.7195121951219512,0.2728658536585366,0.007621951219512195,0.0,0.0,0.0,0.0,0.0,0.0,0.0,0.0,0.0,0.0,0.0,0.0,0.0,0.0,0.0,0.0,0.0,0.925,0.025,0.0,0.025,0.0,0.0,0.0,0.0,0.0,0.0,0.0,0.0,0.0,0.025,0.0,0.0,0.0,0.0,0.0,0.0,0.925,0.025,0.0,0.0,0.0,0.025,0.0,0.0,0.0,0.0,0.025,0.0,0.0,0.0,0.0,0.0,0.0,0.0,0.0,0.0,0.925,0.025,0.0,0.0,0.025,0.0,0.0,0.0,0.0,0.0,0.0,0.025,0.0,0.0,0.0,0.0,0.0,0.0,0.0,0.0,0.925,0.05,0.0,0.0,0.0,0.0,0.0,0.0,0.0,0.0,0.0,0.0,0.0,0.0,0.0,0.0,0.025,0.0,0.0,0.0,0.925,0.05,0.0,0.0,0.0,0.0,0.0,0.0,0.0,0.0,0.0,0.0,0.0,0.0,0.0,0.0,0.025,0.0,0.0,0.0,0.95,0.025,0.0,0.0,0.0,0.0,0.0,0.0,0.0,0.0,0.0,0.0,0.0,0.0,0.0,0.0,0.0,0.025,0.0,0.0,0.925,0.025,0.025,0.0,0.0,0.0,0.0,0.0,0.0,0.0,0.0,0.0,0.0,0.0,0.0,0.025,0.0,0.0,0.0,0.0,0.95,0.0,0.025,0.0,0.0,0.0,0.0,0.0,0.0,0.0,0.0,0.0,0.0,0.0,0.0,0.025,0.0,0.0,0.0,0.0,0.95,0.0,0.025,0.0,0.0,0.0,0.0,0.0,0.0,0.0,0.0,0.0,0.0,0.0,0.0,0.0,0.025,0.0,0.0,0.0,0.95,0.025,0.0,0.0,0.0,0.0,0.0,0.0,0.0,0.0,0.0,0.0,0.0,0.0,0.0,0.0,0.0,0.0,0.025,0.0,0.95,0.0,0.025,0.0,0.0,0.0,0.0,0.0,0.0,0.0,0.0,0.0,0.0,0.0,0.0,0.0,0.025,0.0,0.0,0.0,0.975,0.0,0.0,0.0,0.0,0.0,0.0,0.0,0.0,0.0,0.0,0.0,0.0,0.0,0.0,0.0,0.0,0.0,0.0,0.025,0.975,0.0,0.0,0.0,0.0,0.0,0.0,0.0,0.0,0.0,0.0,0.0,0.0,0.0,0.0,0.0,0.0,0.0,0.0,0.025,0.975,0.0,0.0,0.0,0.0,0.0,0.0,0.0,0.0,0.0,0.0,0.0,0.0,0.0,0.0,0.0,0.0,0.0,0.0,0.025,0.975,0.0,0.0,0.0,0.0,0.0,0.0,0.0,0.0,0.0,0.0,0.0,0.0,0.0,0.0,0.0,0.0,0.0,0.025,0.0,0.95,0.0,0.025,0.0,0.0,0.0,0.0,0.0,0.0,0.0,0.0,0.0,0.0,0.0,0.0,0.0,0.0,0.025,0.0,0.0,0.22580645161290322,0.4393241167434716,0.11674347158218126,0.015360983102918587,0.05837173579109063,0.016897081413210446,0.0015360983102918587,0.018433179723502304,0.016897081413210446,0.021505376344086023,0.01228878648233487,0.018433179723502304,0.021505376344086023,0.004608294930875576,0.006144393241167435,0.0015360983102918587,0.004608294930875576,0.0,0.0,0.0,0.07033639143730887,0.2400611620795107,0.17584097859327216,0.1819571865443425,0.11773700305810397,0.08103975535168195,0.035168195718654434,0.019877675840978593,0.013761467889908258,0.009174311926605505,0.0061162079510703364,0.013761467889908258,0.01529051987767584,0.0030581039755351682,0.009174311926605505,0.00764525993883792,0.0,0.0,0.0,0.0,0.027439024390243903,0.17378048780487804,0.23932926829268292,0.2865853658536585,0.09451219512195122,0.04725609756097561,0.03201219512195122,0.009146341463414634,0.019817073170731708,0.001524390243902439,0.004573170731707317,0.012195121951219513,0.007621951219512195,0.010670731707317074,0.019817073170731708,0.012195121951219513,0.001524390243902439,0.0,0.0,0.0,0.13109756097560976,0.4222560975609756,0.28353658536585363,0.09908536585365854,0.022865853658536585,0.019817073170731708,0.001524390243902439,0.006097560975609756,0.001524390243902439,0.007621951219512195,0.004573170731707317,0.0,0.0,0.0,0.0,0.0,0.0,0.0,0.0,0.0,0.35365853658536583,0.5030487804878049,0.12652439024390244,0.0,0.0,0.006097560975609756,0.0,0.0,0.0,0.0,0.001524390243902439,0.001524390243902439,0.001524390243902439,0.0,0.006097560975609756,0.0,0.0,0.0,0.0,0.0,0.19054878048780488,0.5579268292682927,0.21189024390243902,0.036585365853658534,0.0,0.003048780487804878,0.0,0.0,0.0,0.0,0.0,0.0,0.0,0.0,0.0,0.0,0.0,0.0,0.0,0.0,0.31097560975609756,0.5487804878048781,0.125,0.01524390243902439,0.0,0.0,0.0,0.0,0.0,0.0,0.0,0.0,0.0,0.0,0.0,0.0,0.0,0.0,0.0,0.0,0.25914634146341464,0.5945121951219512,0.14634146341463414,0.0,0.0,0.0,0.0,0.0,0.0,0.0,0.0,0.0,0.0,0.0,0.0,0.0,0.0,0.0,0.0,0.0,0.3079268292682927,0.6326219512195121,0.05945121951219512,0.0,0.0,0.0,0.0,0.0,0.0,0.0,0.0,0.0,0.0,0.0,0.0,0.0,0.0,0.0,0.0,0.0,0.35060975609756095,0.6204268292682927,0.028963414634146343,0.0,0.0,0.0,0.0,0.0,0.0,0.0,0.0,0.0,0.0,0.0,0.0,0.0,0.0,0.0,0.0,0.0,0.3673780487804878,0.6189024390243902,0.013719512195121951,0.0,0.0,0.0,0.0,0.0,0.0,0.0,0.0,0.0,0.0,0.0,0.0,0.0,0.0,0.0,0.0,0.0,0.3094512195121951,0.6692073170731707,0.018292682926829267,0.0,0.001524390243902439,0.001524390243902439,0.0,0.0,0.0,0.0,0.0,0.0,0.0,0.0,0.0,0.0,0.0,0.0,0.0,0.0,0.36890243902439024,0.6295731707317073,0.001524390243902439,0.0,0.0,0.0,0.0,0.0,0.0,0.0,0.0,0.0,0.0,0.0,0.0,0.0,0.0,0.0,0.0,0.0,0.35365853658536583,0.6463414634146342,0.0,0.0,0.0,0.0,0.0,0.0,0.0,0.0,0.0,0.0,0.0,0.0,0.0,0.0,0.0,0.0,0.0,0.0,0.2804878048780488,0.7195121951219512,0.0,0.0,0.0,0.0,0.0,0.0,0.0,0.0,0.0,0.0,0.0,0.0,0.0,0.0,0.0,0.0,0.0,0.0,0.33689024390243905,0.663109756097561,0.0,0.0,0.0,0.0,0.0,0.0,0.0,0.0,0.0,0.0,0.0,0.0,0.0,0.0,0.0,0.0,0.0,0.0,CO2
0.4778481012658228,0.1787974683544304,0.0490506329113924,0.03322784810126582,0.03164556962025317,0.0189873417721519,0.011075949367088608,0.0031645569620253164,0.0031645569620253164,0.0,0.0031645569620253164,0.004746835443037975,0.0031645569620253164,0.004746835443037975,0.0015822784810126582,0.006329113924050633,0.020569620253164556,0.0031645569620253164,0.0490506329113924,0.09651898734177215,0.1826625386996904,0.1996904024767802,0.15015479876160992,0.10371517027863777,0.07739938080495357,0.07430340557275542,0.04179566563467492,0.020123839009287926,0.01393188854489164,0.0046439628482972135,0.0,0.0046439628482972135,0.0030959752321981426,0.0015479876160990713,0.0030959752321981426,0.0030959752321981426,0.007739938080495356,0.01393188854489164,0.021671826625386997,0.07275541795665634,0.1375579598145286,0.11282843894899536,0.10200927357032458,0.08809891808346214,0.10510046367851623,0.0695517774343122,0.0695517774343122,0.03863987635239567,0.02009273570324575,0.027820710973724884,0.015455950540958269,0.017001545595054096,0.0077279752704791345,0.021638330757341576,0.023183925811437404,0.01854714064914992,0.03245749613601236,0.00463678516228748,0.010819165378670788,0.07727975270479134,0.21792890262751158,0.24574961360123648,0.20247295208655333,0.0865533230293663,0.0633693972179289,0.03400309119010819,0.03400309119010819,0.023183925811437404,0.02009273570324575,0.030911901081916538,0.0077279752704791345,0.0061823802163833074,0.0,0.0,0.0,0.0,0.0,0.0,0.015455950540958269,0.012364760432766615,0.42040185471406494,0.31375579598145287,0.1205564142194745,0.07264296754250386,0.04482225656877898,0.010819165378670788,0.0,0.0,0.0,0.0,0.0,0.0,0.0,0.0,0.0015455950540958269,0.0,0.0,0.0,0.00463678516228748,0.010819165378670788,0.3462132921174652,0.3616692426584235,0.22102009273570325,0.0633693972179289,0.00463678516228748,0.0,0.0,0.0,0.0,0.0,0.0,0.0,0.0,0.0,0.0,0.0,0.0,0.0,0.0,0.0030911901081916537,0.46367851622874806,0.3276661514683153,0.1205564142194745,0.05100463678516229,0.030911901081916538,0.0030911901081916537,0.0,0.0,0.0,0.0,0.0,0.0,0.0,0.0,0.0,0.0,0.0,0.0,0.0,0.0030911901081916537,0.5100463678516228,0.3554868624420402,0.10819165378670788,0.02627511591962906,0.0,0.0,0.0,0.0,0.0,0.0,0.0,0.0,0.0,0.0,0.0,0.0,0.0,0.0,0.0,0.0,0.624420401854714,0.3400309119010819,0.03400309119010819,0.0015455950540958269,0.0,0.0,0.0,0.0,0.0,0.0,0.0,0.0,0.0,0.0,0.0,0.0,0.0,0.0,0.0,0.0,0.6692426584234931,0.28129829984544047,0.04173106646058733,0.0077279752704791345,0.0,0.0,0.0,0.0,0.0,0.0,0.0,0.0,0.0,0.0,0.0,0.0,0.0,0.0,0.0,0.0,0.7017001545595054,0.29520865533230295,0.0030911901081916537,0.0,0.0,0.0,0.0,0.0,0.0,0.0,0.0,0.0,0.0,0.0,0.0,0.0,0.0,0.0,0.0,0.0,0.7217928902627512,0.21638330757341576,0.05873261205564142,0.0030911901081916537,0.0,0.0,0.0,0.0,0.0,0.0,0.0,0.0,0.0,0.0,0.0,0.0,0.0,0.0,0.0,0.0,0.723338485316847,0.27666151468315303,0.0,0.0,0.0,0.0,0.0,0.0,0.0,0.0,0.0,0.0,0.0,0.0,0.0,0.0,0.0,0.0,0.0,0.0,0.7851622874806801,0.2132921174652241,0.0015455950540958269,0.0,0.0,0.0,0.0,0.0,0.0,0.0,0.0,0.0,0.0,0.0,0.0,0.0,0.0,0.0,0.0,0.0,0.7758887171561051,0.2241112828438949,0.0,0.0,0.0,0.0,0.0,0.0,0.0,0.0,0.0,0.0,0.0,0.0,0.0,0.0,0.0,0.0,0.0,0.0,0.7434312210200927,0.25656877897990726,0.0,0.0,0.0,0.0,0.0,0.0,0.0,0.0,0.0,0.0,0.0,0.0,0.0,0.0,0.0,0.0,0.0,0.0,0.925,0.025,0.0,0.0,0.0,0.025,0.0,0.0,0.0,0.0,0.0,0.025,0.0,0.0,0.0,0.0,0.0,0.0,0.0,0.0,0.9,0.025,0.025,0.0,0.0,0.025,0.0,0.0,0.0,0.0,0.025,0.0,0.0,0.0,0.0,0.0,0.0,0.0,0.0,0.0,0.925,0.025,0.0,0.0,0.025,0.0,0.0,0.0,0.0,0.0,0.0,0.025,0.0,0.0,0.0,0.0,0.0,0.0,0.0,0.0,0.95,0.0,0.0,0.025,0.0,0.0,0.0,0.0,0.0,0.0,0.0,0.0,0.0,0.0,0.0,0.025,0.0,0.0,0.0,0.0,0.925,0.025,0.025,0.0,0.0,0.0,0.0,0.0,0.0,0.0,0.0,0.0,0.0,0.0,0.0,0.025,0.0,0.0,0.0,0.0,0.95,0.025,0.0,0.0,0.0,0.0,0.0,0.0,0.0,0.0,0.0,0.0,0.0,0.0,0.0,0.0,0.0,0.025,0.0,0.0,0.95,0.025,0.0,0.0,0.0,0.0,0.0,0.0,0.0,0.0,0.0,0.0,0.0,0.0,0.0,0.0,0.0,0.025,0.0,0.0,0.925,0.05,0.0,0.0,0.0,0.0,0.0,0.0,0.0,0.0,0.0,0.0,0.0,0.0,0.0,0.025,0.0,0.0,0.0,0.0,0.95,0.025,0.0,0.0,0.0,0.0,0.0,0.0,0.0,0.0,0.0,0.0,0.0,0.0,0.0,0.0,0.0,0.025,0.0,0.0,0.925,0.05,0.0,0.0,0.0,0.0,0.0,0.0,0.0,0.0,0.0,0.0,0.0,0.0,0.0,0.0,0.025,0.0,0.0,0.0,0.95,0.0,0.025,0.0,0.0,0.0,0.0,0.0,0.0,0.0,0.0,0.0,0.0,0.0,0.0,0.0,0.0,0.025,0.0,0.0,0.95,0.025,0.0,0.0,0.0,0.0,0.0,0.0,0.0,0.0,0.0,0.0,0.0,0.0,0.0,0.0,0.025,0.0,0.0,0.0,0.975,0.0,0.0,0.0,0.0,0.0,0.0,0.0,0.0,0.0,0.0,0.0,0.0,0.0,0.0,0.0,0.0,0.0,0.0,0.025,0.95,0.025,0.0,0.0,0.0,0.0,0.0,0.0,0.0,0.0,0.0,0.0,0.0,0.0,0.0,0.0,0.0,0.0,0.025,0.0,0.95,0.0,0.0,0.025,0.0,0.0,0.0,0.0,0.0,0.0,0.0,0.0,0.0,0.0,0.0,0.0,0.025,0.0,0.0,0.0,0.95,0.025,0.0,0.0,0.0,0.0,0.0,0.0,0.0,0.0,0.0,0.0,0.0,0.0,0.0,0.0,0.0,0.025,0.0,0.0,0.27689873417721517,0.375,0.08544303797468354,0.05063291139240506,0.04746835443037975,0.014240506329113924,0.006329113924050633,0.006329113924050633,0.03322784810126582,0.014240506329113924,0.02689873417721519,0.023734177215189875,0.030063291139240507,0.00949367088607595,0.0,0.0,0.0,0.0,0.0,0.0,0.09442724458204334,0.29102167182662536,0.21362229102167182,0.19814241486068113,0.03560371517027864,0.03560371517027864,0.018575851393188854,0.0046439628482972135,0.007739938080495356,0.018575851393188854,0.017027863777089782,0.010835913312693499,0.015479876160990712,0.015479876160990712,0.01393188854489164,0.006191950464396285,0.0030959752321981426,0.0,0.0,0.0,0.08191653786707882,0.16846986089644514,0.18856259659969088,0.18547140649149924,0.09273570324574962,0.06027820710973725,0.023183925811437404,0.0061823802163833074,0.015455950540958269,0.04945904173106646,0.04636785162287481,0.03245749613601236,0.023183925811437404,0.00927357032457496,0.00463678516228748,0.0,0.00927357032457496,0.0030911901081916537,0.0,0.0,0.14528593508500773,0.3323029366306028,0.2797527047913447,0.10819165378670788,0.04173106646058733,0.05564142194744977,0.023183925811437404,0.012364760432766615,0.0015455950540958269,0.0,0.0,0.0,0.0,0.0,0.0,0.0,0.0,0.0,0.0,0.0,0.24884080370942813,0.4884080370942813,0.22102009273570325,0.02472952086553323,0.0030911901081916537,0.0061823802163833074,0.0,0.0,0.0,0.0,0.0,0.0061823802163833074,0.0015455950540958269,0.0,0.0,0.0,0.0,0.0,0.0,0.0,0.2009273570324575,0.5595054095826894,0.23493044822256567,0.0015455950540958269,0.0,0.0030911901081916537,0.0,0.0,0.0,0.0,0.0,0.0,0.0,0.0,0.0,0.0,0.0,0.0,0.0,0.0,0.2735703245749614,0.5471406491499228,0.160741885625966,0.015455950540958269,0.0015455950540958269,0.0015455950540958269,0.0,0.0,0.0,0.0,0.0,0.0,0.0,0.0,0.0,0.0,0.0,0.0,0.0,0.0,0.28129829984544047,0.6012364760432767,0.11746522411128284,0.0,0.0,0.0,0.0,0.0,0.0,0.0,0.0,0.0,0.0,0.0,0.0,0.0,0.0,0.0,0.0,0.0,0.30602782071097373,0.6661514683153014,0.027820710973724884,0.0,0.0,0.0,0.0,0.0,0.0,0.0,0.0,0.0,0.0,0.0,0.0,0.0,0.0,0.0,0.0,0.0,0.36476043276661513,0.5873261205564142,0.04791344667697063,0.0,0.0,0.0,0.0,0.0,0.0,0.0,0.0,0.0,0.0,0.0,0.0,0.0,0.0,0.0,0.0,0.0,0.3802163833075734,0.6182380216383307,0.0015455950540958269,0.0,0.0,0.0,0.0,0.0,0.0,0.0,0.0,0.0,0.0,0.0,0.0,0.0,0.0,0.0,0.0,0.0,0.3740340030911901,0.5780525502318392,0.04791344667697063,0.0,0.0,0.0,0.0,0.0,0.0,0.0,0.0,0.0,0.0,0.0,0.0,0.0,0.0,0.0,0.0,0.0,0.35394126738794435,0.6460587326120556,0.0,0.0,0.0,0.0,0.0,0.0,0.0,0.0,0.0,0.0,0.0,0.0,0.0,0.0,0.0,0.0,0.0,0.0,0.3894899536321484,0.6105100463678517,0.0,0.0,0.0,0.0,0.0,0.0,0.0,0.0,0.0,0.0,0.0,0.0,0.0,0.0,0.0,0.0,0.0,0.0,0.3415765069551777,0.6584234930448223,0.0,0.0,0.0,0.0,0.0,0.0,0.0,0.0,0.0,0.0,0.0,0.0,0.0,0.0,0.0,0.0,0.0,0.0,0.2921174652241113,0.7078825347758887,0.0,0.0,0.0,0.0,0.0,0.0,0.0,0.0,0.0,0.0,0.0,0.0,0.0,0.0,0.0,0.0,0.0,0.0,CO2
0.4847457627118644,0.18305084745762712,0.05593220338983051,0.022033898305084745,0.013559322033898305,0.00847457627118644,0.003389830508474576,0.003389830508474576,0.003389830508474576,0.001694915254237288,0.001694915254237288,0.00847457627118644,0.003389830508474576,0.005084745762711864,0.0,0.0,0.020338983050847456,0.001694915254237288,0.022033898305084745,0.1576271186440678,0.18226600985221675,0.1297208538587849,0.09195402298850575,0.10509031198686371,0.10509031198686371,0.03940886699507389,0.04926108374384237,0.022988505747126436,0.03776683087027915,0.031198686371100164,0.009852216748768473,0.014778325123152709,0.009852216748768473,0.006568144499178982,0.011494252873563218,0.008210180623973728,0.013136288998357963,0.011494252873563218,0.03940886699507389,0.08045977011494253,0.12479474548440066,0.18883415435139572,0.13793103448275862,0.09688013136288999,0.08702791461412152,0.07389162561576355,0.07717569786535304,0.022988505747126436,0.014778325123152709,0.013136288998357963,0.016420361247947456,0.008210180623973728,0.019704433497536946,0.022988505747126436,0.008210180623973728,0.019704433497536946,0.0049261083743842365,0.009852216748768473,0.008210180623973728,0.04433497536945813,0.20689655172413793,0.24302134646962234,0.16584564860426929,0.10509031198686371,0.0755336617405583,0.042692939244663386,0.041050903119868636,0.0361247947454844,0.026272577996715927,0.013136288998357963,0.011494252873563218,0.003284072249589491,0.0,0.0,0.0,0.0,0.006568144499178982,0.0016420361247947454,0.0,0.021346469622331693,0.4088669950738916,0.3563218390804598,0.12479474548440066,0.0755336617405583,0.0180623973727422,0.0016420361247947454,0.0,0.0,0.0,0.0,0.0,0.0,0.0,0.0,0.003284072249589491,0.0,0.0,0.0,0.0,0.011494252873563218,0.4876847290640394,0.4236453201970443,0.06732348111658457,0.019704433497536946,0.0016420361247947454,0.0,0.0,0.0,0.0,0.0,0.0,0.0,0.0,0.0,0.0,0.0,0.0,0.0,0.0,0.0,0.4039408866995074,0.41050903119868637,0.11986863711001643,0.052545155993431854,0.013136288998357963,0.0,0.0,0.0,0.0,0.0,0.0,0.0,0.0,0.0,0.0,0.0,0.0,0.0,0.0,0.0,0.5829228243021346,0.3136288998357964,0.08374384236453201,0.009852216748768473,0.003284072249589491,0.0,0.0,0.0,0.0,0.0,0.0,0.0,0.0,0.0,0.0,0.0,0.0,0.0,0.0,0.006568144499178982,0.638752052545156,0.3415435139573071,0.019704433497536946,0.0,0.0,0.0,0.0,0.0,0.0,0.0,0.0,0.0,0.0,0.0,0.0,0.0,0.0,0.0,0.0,0.0,0.6535303776683087,0.3054187192118227,0.041050903119868636,0.0,0.0,0.0,0.0,0.0,0.0,0.0,0.0,0.0,0.0,0.0,0.0,0.0,0.0,0.0,0.0,0.0,0.7471264367816092,0.2512315270935961,0.0016420361247947454,0.0,0.0,0.0,0.0,0.0,0.0,0.0,0.0,0.0,0.0,0.0,0.0,0.0,0.0,0.0,0.0,0.0,0.6551724137931034,0.3366174055829228,0.008210180623973728,0.0,0.0,0.0,0.0,0.0,0.0,0.0,0.0,0.0,0.0,0.0,0.0,0.0,0.0,0.0,0.0,0.0,0.7389162561576355,0.26108374384236455,0.0,0.0,0.0,0.0,0.0,0.0,0.0,0.0,0.0,0.0,0.0,0.0,0.0,0.0,0.0,0.0,0.0,0.0,0.735632183908046,0.2594417077175698,0.0049261083743842365,0.0,0.0,0.0,0.0,0.0,0.0,0.0,0.0,0.0,0.0,0.0,0.0,0.0,0.0,0.0,0.0,0.0,0.7947454844006568,0.20525451559934318,0.0,0.0,0.0,0.0,0.0,0.0,0.0,0.0,0.0,0.0,0.0,0.0,0.0,0.0,0.0,0.0,0.0,0.0,0.7553366174055829,0.24466338259441708,0.0,0.0,0.0,0.0,0.0,0.0,0.0,0.0,0.0,0.0,0.0,0.0,0.0,0.0,0.0,0.0,0.0,0.0,0.95,0.0,0.0,0.025,0.0,0.0,0.0,0.0,0.0,0.0,0.0,0.0,0.0,0.0,0.0,0.025,0.0,0.0,0.0,0.0,0.9,0.025,0.025,0.0,0.025,0.0,0.0,0.0,0.0,0.0,0.025,0.0,0.0,0.0,0.0,0.0,0.0,0.0,0.0,0.0,0.9,0.05,0.0,0.0,0.025,0.0,0.0,0.0,0.0,0.0,0.0,0.025,0.0,0.0,0.0,0.0,0.0,0.0,0.0,0.0,0.925,0.025,0.025,0.0,0.0,0.0,0.0,0.0,0.0,0.0,0.0,0.0,0.0,0.0,0.0,0.025,0.0,0.0,0.0,0.0,0.925,0.0,0.05,0.0,0.0,0.0,0.0,0.0,0.0,0.0,0.0,0.0,0.0,0.0,0.025,0.0,0.0,0.0,0.0,0.0,0.95,0.0,0.025,0.0,0.0,0.0,0.0,0.0,0.0,0.0,0.0,0.0,0.0,0.0,0.0,0.025,0.0,0.0,0.0,0.0,0.95,0.0,0.025,0.0,0.0,0.0,0.0,0.0,0.0,0.0,0.0,0.0,0.0,0.0,0.0,0.025,0.0,0.0,0.0,0.0,0.975,0.0,0.0,0.0,0.0,0.0,0.0,0.0,0.0,0.0,0.0,0.0,0.0,0.0,0.0,0.0,0.0,0.0,0.0,0.025,0.95,0.0,0.025,0.0,0.0,0.0,0.0,0.0,0.0,0.0,0.0,0.0,0.0,0.0,0.0,0.0,0.0,0.025,0.0,0.0,0.95,0.0,0.025,0.0,0.0,0.0,0.0,0.0,0.0,0.0,0.0,0.0,0.0,0.0,0.0,0.0,0.0,0.025,0.0,0.0,0.95,0.025,0.0,0.0,0.0,0.0,0.0,0.0,0.0,0.0,0.0,0.0,0.0,0.0,0.0,0.0,0.0,0.0,0.025,0.0,0.975,0.0,0.0,0.0,0.0,0.0,0.0,0.0,0.0,0.0,0.0,0.0,0.0,0.0,0.0,0.0,0.0,0.0,0.025,0.0,0.975,0.0,0.0,0.0,0.0,0.0,0.0,0.0,0.0,0.0,0.0,0.0,0.0,0.0,0.0,0.0,0.0,0.0,0.025,0.0,0.95,0.025,0.0,0.0,0.0,0.0,0.0,0.0,0.0,0.0,0.0,0.0,0.0,0.0,0.0,0.0,0.0,0.0,0.025,0.0,0.95,0.025,0.0,0.0,0.0,0.0,0.0,0.0,0.0,0.0,0.0,0.0,0.0,0.0,0.0,0.0,0.0,0.0,0.025,0.0,0.95,0.025,0.0,0.0,0.0,0.0,0.0,0.0,0.0,0.0,0.0,0.0,0.0,0.0,0.0,0.0,0.0,0.025,0.0,0.0,0.2830508474576271,0.3864406779661017,0.07966101694915254,0.020338983050847456,0.10677966101694915,0.00847457627118644,0.010169491525423728,0.01694915254237288,0.04915254237288136,0.01864406779661017,0.00847457627118644,0.010169491525423728,0.001694915254237288,0.0,0.0,0.0,0.0,0.0,0.0,0.0,0.11330049261083744,0.18226600985221675,0.1986863711001642,0.1625615763546798,0.06568144499178982,0.06239737274220033,0.04433497536945813,0.011494252873563218,0.0180623973727422,0.019704433497536946,0.022988505747126436,0.019704433497536946,0.027914614121510674,0.029556650246305417,0.021346469622331693,0.0,0.0,0.0,0.0,0.0,0.060755336617405585,0.26108374384236455,0.21018062397372742,0.20689655172413793,0.07717569786535304,0.021346469622331693,0.021346469622331693,0.024630541871921183,0.026272577996715927,0.042692939244663386,0.016420361247947456,0.013136288998357963,0.0016420361247947454,0.013136288998357963,0.003284072249589491,0.0,0.0,0.0,0.0,0.0,0.11330049261083744,0.35467980295566504,0.2660098522167488,0.11986863711001643,0.05582922824302135,0.04597701149425287,0.022988505747126436,0.006568144499178982,0.0016420361247947454,0.0049261083743842365,0.008210180623973728,0.0,0.0,0.0,0.0,0.0,0.0,0.0,0.0,0.0,0.2348111658456486,0.5402298850574713,0.2019704433497537,0.008210180623973728,0.0,0.003284072249589491,0.0,0.0,0.0,0.006568144499178982,0.0049261083743842365,0.0,0.0,0.0,0.0,0.0,0.0,0.0,0.0,0.0,0.2545155993431856,0.6765188834154351,0.06896551724137931,0.0,0.0,0.0,0.0,0.0,0.0,0.0,0.0,0.0,0.0,0.0,0.0,0.0,0.0,0.0,0.0,0.0,0.2019704433497537,0.6338259441707718,0.1592775041050903,0.0049261083743842365,0.0,0.0,0.0,0.0,0.0,0.0,0.0,0.0,0.0,0.0,0.0,0.0,0.0,0.0,0.0,0.0,0.3103448275862069,0.6091954022988506,0.07389162561576355,0.0,0.006568144499178982,0.0,0.0,0.0,0.0,0.0,0.0,0.0,0.0,0.0,0.0,0.0,0.0,0.0,0.0,0.0,0.30377668308702793,0.6880131362889984,0.008210180623973728,0.0,0.0,0.0,0.0,0.0,0.0,0.0,0.0,0.0,0.0,0.0,0.0,0.0,0.0,0.0,0.0,0.0,0.361247947454844,0.6157635467980296,0.022988505747126436,0.0,0.0,0.0,0.0,0.0,0.0,0.0,0.0,0.0,0.0,0.0,0.0,0.0,0.0,0.0,0.0,0.0,0.38095238095238093,0.6190476190476191,0.0,0.0,0.0,0.0,0.0,0.0,0.0,0.0,0.0,0.0,0.0,0.0,0.0,0.0,0.0,0.0,0.0,0.0,0.33004926108374383,0.6699507389162561,0.0,0.0,0.0,0.0,0.0,0.0,0.0,0.0,0.0,0.0,0.0,0.0,0.0,0.0,0.0,0.0,0.0,0.0,0.3448275862068966,0.6551724137931034,0.0,0.0,0.0,0.0,0.0,0.0,0.0,0.0,0.0,0.0,0.0,0.0,0.0,0.0,0.0,0.0,0.0,0.0,0.3284072249589491,0.6715927750410509,0.0,0.0,0.0,0.0,0.0,0.0,0.0,0.0,0.0,0.0,0.0,0.0,0.0,0.0,0.0,0.0,0.0,0.0,0.36288998357963875,0.6371100164203612,0.0,0.0,0.0,0.0,0.0,0.0,0.0,0.0,0.0,0.0,0.0,0.0,0.0,0.0,0.0,0.0,0.0,0.0,0.3169129720853859,0.6830870279146142,0.0,0.0,0.0,0.0,0.0,0.0,0.0,0.0,0.0,0.0,0.0,0.0,0.0,0.0,0.0,0.0,0.0,0.0,CO2
0.4567901234567901,0.18055555555555555,0.06327160493827161,0.037037037037037035,0.030864197530864196,0.016975308641975308,0.009259259259259259,0.004629629629629629,0.0030864197530864196,0.007716049382716049,0.0,0.006172839506172839,0.006172839506172839,0.0030864197530864196,0.0030864197530864196,0.0030864197530864196,0.006172839506172839,0.0,0.046296296296296294,0.11574074074074074,0.11363636363636363,0.1484848484848485,0.1,0.08787878787878788,0.09545454545454546,0.07727272727272727,0.045454545454545456,0.03939393939393939,0.03333333333333333,0.03939393939393939,0.03636363636363636,0.02878787878787879,0.010606060606060607,0.015151515151515152,0.010606060606060607,0.004545454545454545,0.010606060606060607,0.007575757575757576,0.013636363636363636,0.08181818181818182,0.15582450832072617,0.18456883509833585,0.08925869894099848,0.06656580937972768,0.0832072617246596,0.060514372163388806,0.037821482602118005,0.036308623298033284,0.037821482602118005,0.028744326777609682,0.019667170953101363,0.03177004538577912,0.01664145234493192,0.019667170953101363,0.009077155824508321,0.006051437216338881,0.0030257186081694403,0.019667170953101363,0.028744326777609682,0.06505295007564296,0.27685325264750377,0.22087745839636913,0.13313161875945537,0.06656580937972768,0.06354009077155824,0.060514372163388806,0.057488653555219364,0.036308623298033284,0.018154311649016642,0.01361573373676248,0.0015128593040847202,0.0,0.0015128593040847202,0.0015128593040847202,0.0015128593040847202,0.0,0.006051437216338881,0.0030257186081694403,0.007564296520423601,0.030257186081694403,0.36459909228441756,0.3812405446293495,0.17095310136157338,0.049924357034795766,0.006051437216338881,0.0045385779122541605,0.0030257186081694403,0.0,0.0,0.0,0.0,0.0,0.0,0.0,0.0,0.0015128593040847202,0.0,0.0015128593040847202,0.0045385779122541605,0.012102874432677761,0.443267776096823,0.44780635400907715,0.07866868381240545,0.018154311649016642,0.007564296520423601,0.0,0.0,0.0,0.0,0.0,0.0,0.0,0.0,0.0,0.0,0.0,0.0,0.0,0.0,0.0045385779122541605,0.540090771558245,0.37972768532526474,0.07261724659606657,0.007564296520423601,0.0,0.0,0.0,0.0,0.0,0.0,0.0,0.0,0.0,0.0,0.0,0.0,0.0,0.0,0.0,0.0,0.5824508320726173,0.34493192133131617,0.0453857791225416,0.018154311649016642,0.006051437216338881,0.0,0.0,0.0,0.0,0.0,0.0,0.0,0.0,0.0,0.0,0.0,0.0,0.0,0.0,0.0030257186081694403,0.6157337367624811,0.33434190620272314,0.046898638426626324,0.0030257186081694403,0.0,0.0,0.0,0.0,0.0,0.0,0.0,0.0,0.0,0.0,0.0,0.0,0.0,0.0,0.0,0.0,0.6641452344931922,0.24508320726172467,0.07866868381240545,0.012102874432677761,0.0,0.0,0.0,0.0,0.0,0.0,0.0,0.0,0.0,0.0,0.0,0.0,0.0,0.0,0.0,0.0,0.7155824508320726,0.27987897125567324,0.0045385779122541605,0.0,0.0,0.0,0.0,0.0,0.0,0.0,0.0,0.0,0.0,0.0,0.0,0.0,0.0,0.0,0.0,0.0,0.745839636913767,0.22844175491679275,0.025718608169440244,0.0,0.0,0.0,0.0,0.0,0.0,0.0,0.0,0.0,0.0,0.0,0.0,0.0,0.0,0.0,0.0,0.0,0.7413010590015129,0.24508320726172467,0.01361573373676248,0.0,0.0,0.0,0.0,0.0,0.0,0.0,0.0,0.0,0.0,0.0,0.0,0.0,0.0,0.0,0.0,0.0,0.7715582450832073,0.22692889561270801,0.0015128593040847202,0.0,0.0,0.0,0.0,0.0,0.0,0.0,0.0,0.0,0.0,0.0,0.0,0.0,0.0,0.0,0.0,0.0,0.7609682299546142,0.22844175491679275,0.01059001512859304,0.0,0.0,0.0,0.0,0.0,0.0,0.0,0.0,0.0,0.0,0.0,0.0,0.0,0.0,0.0,0.0,0.0,0.7382753403933434,0.2617246596066566,0.0,0.0,0.0,0.0,0.0,0.0,0.0,0.0,0.0,0.0,0.0,0.0,0.0,0.0,0.0,0.0,0.0,0.0,0.95,0.0,0.0,0.025,0.0,0.0,0.0,0.0,0.0,0.0,0.0,0.0,0.0,0.0,0.025,0.0,0.0,0.0,0.0,0.0,0.925,0.025,0.0,0.0,0.025,0.0,0.0,0.0,0.0,0.0,0.0,0.025,0.0,0.0,0.0,0.0,0.0,0.0,0.0,0.0,0.925,0.025,0.0,0.0,0.0,0.025,0.0,0.0,0.0,0.0,0.0,0.025,0.0,0.0,0.0,0.0,0.0,0.0,0.0,0.0,0.925,0.025,0.0,0.025,0.0,0.0,0.0,0.0,0.0,0.0,0.0,0.0,0.0,0.0,0.025,0.0,0.0,0.0,0.0,0.0,0.925,0.025,0.0,0.025,0.0,0.0,0.0,0.0,0.0,0.0,0.0,0.0,0.0,0.025,0.0,0.0,0.0,0.0,0.0,0.0,0.975,0.0,0.0,0.0,0.0,0.0,0.0,0.0,0.0,0.0,0.0,0.0,0.0,0.0,0.0,0.0,0.0,0.0,0.025,0.0,0.95,0.0,0.025,0.0,0.0,0.0,0.0,0.0,0.0,0.0,0.0,0.0,0.0,0.0,0.0,0.0,0.025,0.0,0.0,0.0,0.975,0.0,0.0,0.0,0.0,0.0,0.0,0.0,0.0,0.0,0.0,0.0,0.0,0.0,0.0,0.0,0.0,0.0,0.025,0.0,0.95,0.025,0.0,0.0,0.0,0.0,0.0,0.0,0.0,0.0,0.0,0.0,0.0,0.0,0.0,0.0,0.025,0.0,0.0,0.0,0.95,0.025,0.0,0.0,0.0,0.0,0.0,0.0,0.0,0.0,0.0,0.0,0.0,0.0,0.0,0.0,0.025,0.0,0.0,0.0,0.95,0.025,0.0,0.0,0.0,0.0,0.0,0.0,0.0,0.0,0.0,0.0,0.0,0.0,0.0,0.0,0.0,0.0,0.025,0.0,0.95,0.0,0.025,0.0,0.0,0.0,0.0,0.0,0.0,0.0,0.0,0.0,0.0,0.0,0.0,0.0,0.0,0.025,0.0,0.0,0.95,0.0,0.025,0.0,0.0,0.0,0.0,0.0,0.0,0.0,0.0,0.0,0.0,0.0,0.0,0.0,0.025,0.0,0.0,0.0,0.975,0.0,0.0,0.0,0.0,0.0,0.0,0.0,0.0,0.0,0.0,0.0,0.0,0.0,0.0,0.0,0.0,0.0,0.0,0.025,0.925,0.05,0.0,0.0,0.0,0.0,0.0,0.0,0.0,0.0,0.0,0.0,0.0,0.0,0.0,0.0,0.0,0.025,0.0,0.0,0.975,0.0,0.0,0.0,0.0,0.0,0.0,0.0,0.0,0.0,0.0,0.0,0.0,0.0,0.0,0.0,0.0,0.0,0.025,0.0,0.25308641975308643,0.3904320987654321,0.08796296296296297,0.047839506172839504,0.09567901234567901,0.007716049382716049,0.021604938271604937,0.024691358024691357,0.033950617283950615,0.006172839506172839,0.016975308641975308,0.012345679012345678,0.0015432098765432098,0.0,0.0,0.0,0.0,0.0,0.0,0.0,0.04393939393939394,0.22424242424242424,0.16515151515151516,0.18484848484848485,0.07272727272727272,0.07424242424242425,0.06666666666666667,0.06666666666666667,0.015151515151515152,0.010606060606060607,0.00909090909090909,0.010606060606060607,0.007575757575757576,0.006060606060606061,0.015151515151515152,0.022727272727272728,0.004545454545454545,0.0,0.0,0.0,0.09379727685325265,0.2632375189107413,0.12859304084720122,0.16338880484114976,0.05143721633888049,0.059001512859304085,0.048411497730711045,0.048411497730711045,0.02723146747352496,0.024205748865355523,0.03177004538577912,0.01361573373676248,0.018154311649016642,0.009077155824508321,0.007564296520423601,0.006051437216338881,0.006051437216338881,0.0,0.0,0.0,0.1422087745839637,0.3721633888048411,0.1800302571860817,0.17397881996974282,0.057488653555219364,0.025718608169440244,0.009077155824508321,0.0030257186081694403,0.0,0.0,0.0030257186081694403,0.006051437216338881,0.007564296520423601,0.01059001512859304,0.006051437216338881,0.0030257186081694403,0.0,0.0,0.0,0.0,0.2102874432677761,0.5718608169440242,0.18456883509833585,0.01361573373676248,0.0015128593040847202,0.0015128593040847202,0.0,0.0,0.0,0.0,0.0,0.0030257186081694403,0.0015128593040847202,0.006051437216338881,0.0045385779122541605,0.0015128593040847202,0.0,0.0,0.0,0.0,0.24962178517397882,0.6671709531013615,0.07564296520423601,0.0030257186081694403,0.0030257186081694403,0.0015128593040847202,0.0,0.0,0.0,0.0,0.0,0.0,0.0,0.0,0.0,0.0,0.0,0.0,0.0,0.0,0.31164901664145234,0.6369137670196672,0.05143721633888049,0.0,0.0,0.0,0.0,0.0,0.0,0.0,0.0,0.0,0.0,0.0,0.0,0.0,0.0,0.0,0.0,0.0,0.3464447806354009,0.6036308623298033,0.046898638426626324,0.0,0.0030257186081694403,0.0,0.0,0.0,0.0,0.0,0.0,0.0,0.0,0.0,0.0,0.0,0.0,0.0,0.0,0.0,0.3358547655068079,0.6354009077155824,0.028744326777609682,0.0,0.0,0.0,0.0,0.0,0.0,0.0,0.0,0.0,0.0,0.0,0.0,0.0,0.0,0.0,0.0,0.0,0.35703479576399394,0.5703479576399395,0.07261724659606657,0.0,0.0,0.0,0.0,0.0,0.0,0.0,0.0,0.0,0.0,0.0,0.0,0.0,0.0,0.0,0.0,0.0,0.37821482602118,0.6217851739788199,0.0,0.0,0.0,0.0,0.0,0.0,0.0,0.0,0.0,0.0,0.0,0.0,0.0,0.0,0.0,0.0,0.0,0.0,0.39939485627836613,0.5885022692889561,0.012102874432677761,0.0,0.0,0.0,0.0,0.0,0.0,0.0,0.0,0.0,0.0,0.0,0.0,0.0,0.0,0.0,0.0,0.0,0.37821482602118,0.6217851739788199,0.0,0.0,0.0,0.0,0.0,0.0,0.0,0.0,0.0,0.0,0.0,0.0,0.0,0.0,0.0,0.0,0.0,0.0,0.367624810892587,0.632375189107413,0.0,0.0,0.0,0.0,0.0,0.0,0.0,0.0,0.0,0.0,0.0,0.0,0.0,0.0,0.0,0.0,0.0,0.0,0.37367624810892586,0.6263237518910741,0.0,0.0,0.0,0.0,0.0,0.0,0.0,0.0,0.0,0.0,0.0,0.0,0.0,0.0,0.0,0.0,0.0,0.0,0.34190620272314676,0.6580937972768532,0.0,0.0,0.0,0.0,0.0,0.0,0.0,0.0,0.0,0.0,0.0,0.0,0.0,0.0,0.0,0.0,0.0,0.0,CO2
