@RELATION B014-S04567distLZ
@ATTRIBUTE f1 REAL
@ATTRIBUTE f2 REAL
@ATTRIBUTE f3 REAL
@ATTRIBUTE f4 REAL
@ATTRIBUTE f5 REAL
@ATTRIBUTE f6 REAL
@ATTRIBUTE f7 REAL
@ATTRIBUTE f8 REAL
@ATTRIBUTE f9 REAL
@ATTRIBUTE f10 REAL
@ATTRIBUTE f11 REAL
@ATTRIBUTE f12 REAL
@ATTRIBUTE f13 REAL
@ATTRIBUTE f14 REAL
@ATTRIBUTE f15 REAL
@ATTRIBUTE f16 REAL
@ATTRIBUTE f17 REAL
@ATTRIBUTE f18 REAL
@ATTRIBUTE f19 REAL
@ATTRIBUTE f20 REAL
@ATTRIBUTE f21 REAL
@ATTRIBUTE f22 REAL
@ATTRIBUTE f23 REAL
@ATTRIBUTE f24 REAL
@ATTRIBUTE f25 REAL
@ATTRIBUTE f26 REAL
@ATTRIBUTE f27 REAL
@ATTRIBUTE f28 REAL
@ATTRIBUTE f29 REAL
@ATTRIBUTE f30 REAL
@ATTRIBUTE f31 REAL
@ATTRIBUTE f32 REAL
@ATTRIBUTE f33 REAL
@ATTRIBUTE f34 REAL
@ATTRIBUTE f35 REAL
@ATTRIBUTE f36 REAL
@ATTRIBUTE f37 REAL
@ATTRIBUTE f38 REAL
@ATTRIBUTE f39 REAL
@ATTRIBUTE f40 REAL
@ATTRIBUTE f41 REAL
@ATTRIBUTE f42 REAL
@ATTRIBUTE f43 REAL
@ATTRIBUTE f44 REAL
@ATTRIBUTE f45 REAL
@ATTRIBUTE f46 REAL
@ATTRIBUTE f47 REAL
@ATTRIBUTE f48 REAL
@ATTRIBUTE f49 REAL
@ATTRIBUTE f50 REAL
@ATTRIBUTE f51 REAL
@ATTRIBUTE f52 REAL
@ATTRIBUTE f53 REAL
@ATTRIBUTE f54 REAL
@ATTRIBUTE f55 REAL
@ATTRIBUTE f56 REAL
@ATTRIBUTE f57 REAL
@ATTRIBUTE f58 REAL
@ATTRIBUTE f59 REAL
@ATTRIBUTE f60 REAL
@ATTRIBUTE f61 REAL
@ATTRIBUTE f62 REAL
@ATTRIBUTE f63 REAL
@ATTRIBUTE f64 REAL
@ATTRIBUTE f65 REAL
@ATTRIBUTE f66 REAL
@ATTRIBUTE f67 REAL
@ATTRIBUTE f68 REAL
@ATTRIBUTE f69 REAL
@ATTRIBUTE f70 REAL
@ATTRIBUTE f71 REAL
@ATTRIBUTE f72 REAL
@ATTRIBUTE f73 REAL
@ATTRIBUTE f74 REAL
@ATTRIBUTE f75 REAL
@ATTRIBUTE f76 REAL
@ATTRIBUTE f77 REAL
@ATTRIBUTE f78 REAL
@ATTRIBUTE f79 REAL
@ATTRIBUTE f80 REAL
@ATTRIBUTE f81 REAL
@ATTRIBUTE f82 REAL
@ATTRIBUTE f83 REAL
@ATTRIBUTE f84 REAL
@ATTRIBUTE f85 REAL
@ATTRIBUTE f86 REAL
@ATTRIBUTE f87 REAL
@ATTRIBUTE f88 REAL
@ATTRIBUTE f89 REAL
@ATTRIBUTE f90 REAL
@ATTRIBUTE f91 REAL
@ATTRIBUTE f92 REAL
@ATTRIBUTE f93 REAL
@ATTRIBUTE f94 REAL
@ATTRIBUTE f95 REAL
@ATTRIBUTE f96 REAL
@ATTRIBUTE f97 REAL
@ATTRIBUTE f98 REAL
@ATTRIBUTE f99 REAL
@ATTRIBUTE f100 REAL
@ATTRIBUTE f101 REAL
@ATTRIBUTE f102 REAL
@ATTRIBUTE f103 REAL
@ATTRIBUTE f104 REAL
@ATTRIBUTE f105 REAL
@ATTRIBUTE f106 REAL
@ATTRIBUTE f107 REAL
@ATTRIBUTE f108 REAL
@ATTRIBUTE f109 REAL
@ATTRIBUTE f110 REAL
@ATTRIBUTE f111 REAL
@ATTRIBUTE f112 REAL
@ATTRIBUTE f113 REAL
@ATTRIBUTE f114 REAL
@ATTRIBUTE f115 REAL
@ATTRIBUTE f116 REAL
@ATTRIBUTE f117 REAL
@ATTRIBUTE f118 REAL
@ATTRIBUTE f119 REAL
@ATTRIBUTE f120 REAL
@ATTRIBUTE f121 REAL
@ATTRIBUTE f122 REAL
@ATTRIBUTE f123 REAL
@ATTRIBUTE f124 REAL
@ATTRIBUTE f125 REAL
@ATTRIBUTE f126 REAL
@ATTRIBUTE f127 REAL
@ATTRIBUTE f128 REAL
@ATTRIBUTE f129 REAL
@ATTRIBUTE f130 REAL
@ATTRIBUTE f131 REAL
@ATTRIBUTE f132 REAL
@ATTRIBUTE f133 REAL
@ATTRIBUTE f134 REAL
@ATTRIBUTE f135 REAL
@ATTRIBUTE f136 REAL
@ATTRIBUTE f137 REAL
@ATTRIBUTE f138 REAL
@ATTRIBUTE f139 REAL
@ATTRIBUTE f140 REAL
@ATTRIBUTE f141 REAL
@ATTRIBUTE f142 REAL
@ATTRIBUTE f143 REAL
@ATTRIBUTE f144 REAL
@ATTRIBUTE f145 REAL
@ATTRIBUTE f146 REAL
@ATTRIBUTE f147 REAL
@ATTRIBUTE f148 REAL
@ATTRIBUTE f149 REAL
@ATTRIBUTE f150 REAL
@ATTRIBUTE f151 REAL
@ATTRIBUTE f152 REAL
@ATTRIBUTE f153 REAL
@ATTRIBUTE f154 REAL
@ATTRIBUTE f155 REAL
@ATTRIBUTE f156 REAL
@ATTRIBUTE f157 REAL
@ATTRIBUTE f158 REAL
@ATTRIBUTE f159 REAL
@ATTRIBUTE f160 REAL
@ATTRIBUTE f161 REAL
@ATTRIBUTE f162 REAL
@ATTRIBUTE f163 REAL
@ATTRIBUTE f164 REAL
@ATTRIBUTE f165 REAL
@ATTRIBUTE f166 REAL
@ATTRIBUTE f167 REAL
@ATTRIBUTE f168 REAL
@ATTRIBUTE f169 REAL
@ATTRIBUTE f170 REAL
@ATTRIBUTE f171 REAL
@ATTRIBUTE f172 REAL
@ATTRIBUTE f173 REAL
@ATTRIBUTE f174 REAL
@ATTRIBUTE f175 REAL
@ATTRIBUTE f176 REAL
@ATTRIBUTE f177 REAL
@ATTRIBUTE f178 REAL
@ATTRIBUTE f179 REAL
@ATTRIBUTE f180 REAL
@ATTRIBUTE f181 REAL
@ATTRIBUTE f182 REAL
@ATTRIBUTE f183 REAL
@ATTRIBUTE f184 REAL
@ATTRIBUTE f185 REAL
@ATTRIBUTE f186 REAL
@ATTRIBUTE f187 REAL
@ATTRIBUTE f188 REAL
@ATTRIBUTE f189 REAL
@ATTRIBUTE f190 REAL
@ATTRIBUTE f191 REAL
@ATTRIBUTE f192 REAL
@ATTRIBUTE f193 REAL
@ATTRIBUTE f194 REAL
@ATTRIBUTE f195 REAL
@ATTRIBUTE f196 REAL
@ATTRIBUTE f197 REAL
@ATTRIBUTE f198 REAL
@ATTRIBUTE f199 REAL
@ATTRIBUTE f200 REAL
@ATTRIBUTE f201 REAL
@ATTRIBUTE f202 REAL
@ATTRIBUTE f203 REAL
@ATTRIBUTE f204 REAL
@ATTRIBUTE f205 REAL
@ATTRIBUTE f206 REAL
@ATTRIBUTE f207 REAL
@ATTRIBUTE f208 REAL
@ATTRIBUTE f209 REAL
@ATTRIBUTE f210 REAL
@ATTRIBUTE f211 REAL
@ATTRIBUTE f212 REAL
@ATTRIBUTE f213 REAL
@ATTRIBUTE f214 REAL
@ATTRIBUTE f215 REAL
@ATTRIBUTE f216 REAL
@ATTRIBUTE f217 REAL
@ATTRIBUTE f218 REAL
@ATTRIBUTE f219 REAL
@ATTRIBUTE f220 REAL
@ATTRIBUTE f221 REAL
@ATTRIBUTE f222 REAL
@ATTRIBUTE f223 REAL
@ATTRIBUTE f224 REAL
@ATTRIBUTE f225 REAL
@ATTRIBUTE f226 REAL
@ATTRIBUTE f227 REAL
@ATTRIBUTE f228 REAL
@ATTRIBUTE f229 REAL
@ATTRIBUTE f230 REAL
@ATTRIBUTE f231 REAL
@ATTRIBUTE f232 REAL
@ATTRIBUTE f233 REAL
@ATTRIBUTE f234 REAL
@ATTRIBUTE f235 REAL
@ATTRIBUTE f236 REAL
@ATTRIBUTE f237 REAL
@ATTRIBUTE f238 REAL
@ATTRIBUTE f239 REAL
@ATTRIBUTE f240 REAL
@ATTRIBUTE f241 REAL
@ATTRIBUTE f242 REAL
@ATTRIBUTE f243 REAL
@ATTRIBUTE f244 REAL
@ATTRIBUTE f245 REAL
@ATTRIBUTE f246 REAL
@ATTRIBUTE f247 REAL
@ATTRIBUTE f248 REAL
@ATTRIBUTE f249 REAL
@ATTRIBUTE f250 REAL
@ATTRIBUTE f251 REAL
@ATTRIBUTE f252 REAL
@ATTRIBUTE f253 REAL
@ATTRIBUTE f254 REAL
@ATTRIBUTE f255 REAL
@ATTRIBUTE f256 REAL
@ATTRIBUTE f257 REAL
@ATTRIBUTE f258 REAL
@ATTRIBUTE f259 REAL
@ATTRIBUTE f260 REAL
@ATTRIBUTE f261 REAL
@ATTRIBUTE f262 REAL
@ATTRIBUTE f263 REAL
@ATTRIBUTE f264 REAL
@ATTRIBUTE f265 REAL
@ATTRIBUTE f266 REAL
@ATTRIBUTE f267 REAL
@ATTRIBUTE f268 REAL
@ATTRIBUTE f269 REAL
@ATTRIBUTE f270 REAL
@ATTRIBUTE f271 REAL
@ATTRIBUTE f272 REAL
@ATTRIBUTE f273 REAL
@ATTRIBUTE f274 REAL
@ATTRIBUTE f275 REAL
@ATTRIBUTE f276 REAL
@ATTRIBUTE f277 REAL
@ATTRIBUTE f278 REAL
@ATTRIBUTE f279 REAL
@ATTRIBUTE f280 REAL
@ATTRIBUTE f281 REAL
@ATTRIBUTE f282 REAL
@ATTRIBUTE f283 REAL
@ATTRIBUTE f284 REAL
@ATTRIBUTE f285 REAL
@ATTRIBUTE f286 REAL
@ATTRIBUTE f287 REAL
@ATTRIBUTE f288 REAL
@ATTRIBUTE f289 REAL
@ATTRIBUTE f290 REAL
@ATTRIBUTE f291 REAL
@ATTRIBUTE f292 REAL
@ATTRIBUTE f293 REAL
@ATTRIBUTE f294 REAL
@ATTRIBUTE f295 REAL
@ATTRIBUTE f296 REAL
@ATTRIBUTE f297 REAL
@ATTRIBUTE f298 REAL
@ATTRIBUTE f299 REAL
@ATTRIBUTE f300 REAL
@ATTRIBUTE f301 REAL
@ATTRIBUTE f302 REAL
@ATTRIBUTE f303 REAL
@ATTRIBUTE f304 REAL
@ATTRIBUTE f305 REAL
@ATTRIBUTE f306 REAL
@ATTRIBUTE f307 REAL
@ATTRIBUTE f308 REAL
@ATTRIBUTE f309 REAL
@ATTRIBUTE f310 REAL
@ATTRIBUTE f311 REAL
@ATTRIBUTE f312 REAL
@ATTRIBUTE f313 REAL
@ATTRIBUTE f314 REAL
@ATTRIBUTE f315 REAL
@ATTRIBUTE f316 REAL
@ATTRIBUTE f317 REAL
@ATTRIBUTE f318 REAL
@ATTRIBUTE f319 REAL
@ATTRIBUTE f320 REAL
@ATTRIBUTE class {AMB,CO2,UM90}
@DATA
0.39805825242718446,0.21601941747572814,0.007281553398058253,0.0,0.3786407766990291,0.0,0.0,0.0,0.0,0.0,0.0,0.0,0.0,0.0,0.0,0.0,0.0,0.0,0.0,0.0,0.30196936542669583,0.40700218818380746,0.087527352297593,0.028446389496717725,0.08533916849015317,0.037199124726477024,0.0,0.015317286652078774,0.019693654266958426,0.0087527352297593,0.0087527352297593,0.0,0.0,0.0,0.0,0.0,0.0,0.0,0.0,0.0,0.10822510822510822,0.3658008658008658,0.1471861471861472,0.09740259740259741,0.08225108225108226,0.05844155844155844,0.03896103896103896,0.023809523809523808,0.012987012987012988,0.021645021645021644,0.023809523809523808,0.010822510822510822,0.0021645021645021645,0.006493506493506494,0.0,0.0,0.0,0.0,0.0,0.0,0.05183585313174946,0.2591792656587473,0.17278617710583152,0.2203023758099352,0.08207343412526998,0.028077753779697623,0.032397408207343416,0.017278617710583154,0.07127429805615551,0.017278617710583154,0.0064794816414686825,0.004319654427645789,0.0,0.008639308855291577,0.008639308855291577,0.012958963282937365,0.004319654427645789,0.0021598272138228943,0.0,0.0,0.06695464362850972,0.26997840172786175,0.2224622030237581,0.20086393088552915,0.04319654427645788,0.03455723542116631,0.023758099352051837,0.02591792656587473,0.032397408207343416,0.03023758099352052,0.03455723542116631,0.008639308855291577,0.004319654427645789,0.0021598272138228943,0.0,0.0,0.0,0.0,0.0,0.0,0.1771058315334773,0.42116630669546434,0.3002159827213823,0.06695464362850972,0.01511879049676026,0.008639308855291577,0.0021598272138228943,0.0,0.0064794816414686825,0.0021598272138228943,0.0,0.0,0.0,0.0,0.0,0.0,0.0,0.0,0.0,0.0,0.24838012958963282,0.5053995680345572,0.1879049676025918,0.04103671706263499,0.017278617710583154,0.0,0.0,0.0,0.0,0.0,0.0,0.0,0.0,0.0,0.0,0.0,0.0,0.0,0.0,0.0,0.2526997840172786,0.5809935205183585,0.16198704103671707,0.0,0.0,0.004319654427645789,0.0,0.0,0.0,0.0,0.0,0.0,0.0,0.0,0.0,0.0,0.0,0.0,0.0,0.0,0.2505399568034557,0.6155507559395248,0.1101511879049676,0.0,0.0021598272138228943,0.0021598272138228943,0.0,0.0,0.0,0.012958963282937365,0.0021598272138228943,0.0,0.0,0.004319654427645789,0.0,0.0,0.0,0.0,0.0,0.0,0.31533477321814257,0.6393088552915767,0.04103671706263499,0.0,0.0021598272138228943,0.0021598272138228943,0.0,0.0,0.0,0.0,0.0,0.0,0.0,0.0,0.0,0.0,0.0,0.0,0.0,0.0,0.35853131749460043,0.6047516198704104,0.028077753779697623,0.0,0.008639308855291577,0.0,0.0,0.0,0.0,0.0,0.0,0.0,0.0,0.0,0.0,0.0,0.0,0.0,0.0,0.0,0.31533477321814257,0.67170626349892,0.012958963282937365,0.0,0.0,0.0,0.0,0.0,0.0,0.0,0.0,0.0,0.0,0.0,0.0,0.0,0.0,0.0,0.0,0.0,0.3390928725701944,0.6501079913606912,0.0064794816414686825,0.0,0.004319654427645789,0.0,0.0,0.0,0.0,0.0,0.0,0.0,0.0,0.0,0.0,0.0,0.0,0.0,0.0,0.0,0.2980561555075594,0.6630669546436285,0.038876889848812095,0.0,0.0,0.0,0.0,0.0,0.0,0.0,0.0,0.0,0.0,0.0,0.0,0.0,0.0,0.0,0.0,0.0,0.28725701943844495,0.6997840172786177,0.012958963282937365,0.0,0.0,0.0,0.0,0.0,0.0,0.0,0.0,0.0,0.0,0.0,0.0,0.0,0.0,0.0,0.0,0.0,0.31965442764578833,0.6803455723542117,0.0,0.0,0.0,0.0,0.0,0.0,0.0,0.0,0.0,0.0,0.0,0.0,0.0,0.0,0.0,0.0,0.0,0.0,AMB
0.3972972972972973,0.2,0.0,0.0,0.4027027027027027,0.0,0.0,0.0,0.0,0.0,0.0,0.0,0.0,0.0,0.0,0.0,0.0,0.0,0.0,0.0,0.2925170068027211,0.4126984126984127,0.07936507936507936,0.013605442176870748,0.09523809523809523,0.013605442176870748,0.0022675736961451248,0.0022675736961451248,0.031746031746031744,0.02947845804988662,0.011337868480725623,0.0045351473922902496,0.0,0.0,0.0022675736961451248,0.009070294784580499,0.0,0.0,0.0,0.0,0.164079822616408,0.24390243902439024,0.164079822616408,0.15521064301552107,0.07095343680709534,0.04212860310421286,0.03325942350332594,0.026607538802660754,0.024390243902439025,0.019955654101995565,0.011086474501108648,0.0066518847006651885,0.011086474501108648,0.0,0.011086474501108648,0.013303769401330377,0.0022172949002217295,0.0,0.0,0.0,0.07538802660753881,0.13303769401330376,0.16186252771618626,0.22838137472283815,0.08869179600886919,0.10199556541019955,0.07538802660753881,0.04212860310421286,0.017738359201773836,0.022172949002217297,0.022172949002217297,0.013303769401330377,0.0,0.0,0.0066518847006651885,0.011086474501108648,0.0,0.0,0.0,0.0,0.04656319290465632,0.23725055432372505,0.1951219512195122,0.24168514412416853,0.082039911308204,0.05543237250554324,0.06430155210643015,0.024390243902439025,0.0,0.0,0.0,0.004434589800443459,0.004434589800443459,0.011086474501108648,0.008869179600886918,0.017738359201773836,0.0066518847006651885,0.0,0.0,0.0,0.16851441241685144,0.4789356984478936,0.31263858093126384,0.03991130820399113,0.0,0.0,0.0,0.0,0.0,0.0,0.0,0.0,0.0,0.0,0.0,0.0,0.0,0.0,0.0,0.0,0.23503325942350334,0.5986696230598669,0.14855875831485588,0.011086474501108648,0.0066518847006651885,0.0,0.0,0.0,0.0,0.0,0.0,0.0,0.0,0.0,0.0,0.0,0.0,0.0,0.0,0.0,0.21286031042128603,0.6274944567627494,0.14634146341463414,0.008869179600886918,0.0,0.004434589800443459,0.0,0.0,0.0,0.0,0.0,0.0,0.0,0.0,0.0,0.0,0.0,0.0,0.0,0.0,0.3303769401330377,0.647450110864745,0.022172949002217297,0.0,0.0,0.0,0.0,0.0,0.0,0.0,0.0,0.0,0.0,0.0,0.0,0.0,0.0,0.0,0.0,0.0,0.37028824833702884,0.5587583148558758,0.050997782705099776,0.0,0.0022172949002217295,0.0,0.0,0.0,0.0,0.0022172949002217295,0.0066518847006651885,0.008869179600886918,0.0,0.0,0.0,0.0,0.0,0.0,0.0,0.0,0.2749445676274945,0.6962305986696231,0.022172949002217297,0.0,0.0,0.0066518847006651885,0.0,0.0,0.0,0.0,0.0,0.0,0.0,0.0,0.0,0.0,0.0,0.0,0.0,0.0,0.31929046563192903,0.6496674057649667,0.026607538802660754,0.0,0.0,0.004434589800443459,0.0,0.0,0.0,0.0,0.0,0.0,0.0,0.0,0.0,0.0,0.0,0.0,0.0,0.0,0.2926829268292683,0.6651884700665188,0.037694013303769404,0.0,0.004434589800443459,0.0,0.0,0.0,0.0,0.0,0.0,0.0,0.0,0.0,0.0,0.0,0.0,0.0,0.0,0.0,0.36363636363636365,0.6341463414634146,0.0022172949002217295,0.0,0.0,0.0,0.0,0.0,0.0,0.0,0.0,0.0,0.0,0.0,0.0,0.0,0.0,0.0,0.0,0.0,0.3370288248337029,0.656319290465632,0.0022172949002217295,0.0,0.004434589800443459,0.0,0.0,0.0,0.0,0.0,0.0,0.0,0.0,0.0,0.0,0.0,0.0,0.0,0.0,0.0,0.36363636363636365,0.6363636363636364,0.0,0.0,0.0,0.0,0.0,0.0,0.0,0.0,0.0,0.0,0.0,0.0,0.0,0.0,0.0,0.0,0.0,0.0,AMB
0.4058679706601467,0.2469437652811736,0.0,0.0,0.33496332518337407,0.0,0.007334963325183374,0.0,0.004889975550122249,0.0,0.0,0.0,0.0,0.0,0.0,0.0,0.0,0.0,0.0,0.0,0.24786324786324787,0.42735042735042733,0.11324786324786325,0.057692307692307696,0.05555555555555555,0.00641025641025641,0.0,0.008547008547008548,0.017094017094017096,0.01282051282051282,0.0405982905982906,0.008547008547008548,0.002136752136752137,0.002136752136752137,0.0,0.0,0.0,0.0,0.0,0.0,0.13829787234042554,0.19148936170212766,0.2276595744680851,0.1127659574468085,0.05106382978723404,0.036170212765957444,0.03404255319148936,0.036170212765957444,0.04042553191489362,0.05319148936170213,0.006382978723404255,0.006382978723404255,0.01276595744680851,0.01276595744680851,0.010638297872340425,0.00851063829787234,0.01702127659574468,0.00425531914893617,0.0,0.0,0.05084745762711865,0.19703389830508475,0.21610169491525424,0.23728813559322035,0.09533898305084745,0.09957627118644068,0.04025423728813559,0.014830508474576272,0.00423728813559322,0.01694915254237288,0.00423728813559322,0.00423728813559322,0.006355932203389831,0.00423728813559322,0.006355932203389831,0.00211864406779661,0.0,0.0,0.0,0.0,0.15889830508474576,0.3114406779661017,0.2457627118644068,0.15254237288135594,0.0211864406779661,0.019067796610169493,0.029661016949152543,0.023305084745762712,0.014830508474576272,0.00211864406779661,0.00847457627118644,0.00211864406779661,0.01059322033898305,0.0,0.0,0.0,0.0,0.0,0.0,0.0,0.2627118644067797,0.527542372881356,0.19915254237288135,0.006355932203389831,0.0,0.00423728813559322,0.0,0.0,0.0,0.0,0.0,0.0,0.0,0.0,0.0,0.0,0.0,0.0,0.0,0.0,0.3220338983050847,0.5466101694915254,0.11440677966101695,0.0,0.0,0.0,0.0,0.0,0.00423728813559322,0.0,0.006355932203389831,0.00423728813559322,0.00211864406779661,0.0,0.0,0.0,0.0,0.0,0.0,0.0,0.2584745762711864,0.614406779661017,0.1228813559322034,0.0,0.00211864406779661,0.00211864406779661,0.0,0.0,0.0,0.0,0.0,0.0,0.0,0.0,0.0,0.0,0.0,0.0,0.0,0.0,0.2584745762711864,0.6207627118644068,0.11864406779661017,0.00211864406779661,0.0,0.0,0.0,0.0,0.0,0.0,0.0,0.0,0.0,0.0,0.0,0.0,0.0,0.0,0.0,0.0,0.2966101694915254,0.635593220338983,0.057203389830508475,0.01059322033898305,0.0,0.0,0.0,0.0,0.0,0.0,0.0,0.0,0.0,0.0,0.0,0.0,0.0,0.0,0.0,0.0,0.3389830508474576,0.5741525423728814,0.08686440677966102,0.0,0.0,0.0,0.0,0.0,0.0,0.0,0.0,0.0,0.0,0.0,0.0,0.0,0.0,0.0,0.0,0.0,0.3961864406779661,0.5444915254237288,0.05508474576271186,0.0,0.00423728813559322,0.0,0.0,0.0,0.0,0.0,0.0,0.0,0.0,0.0,0.0,0.0,0.0,0.0,0.0,0.0,0.3707627118644068,0.6165254237288136,0.012711864406779662,0.0,0.0,0.0,0.0,0.0,0.0,0.0,0.0,0.0,0.0,0.0,0.0,0.0,0.0,0.0,0.0,0.0,0.375,0.5911016949152542,0.03389830508474576,0.0,0.0,0.0,0.0,0.0,0.0,0.0,0.0,0.0,0.0,0.0,0.0,0.0,0.0,0.0,0.0,0.0,0.3940677966101695,0.5783898305084746,0.02754237288135593,0.0,0.0,0.0,0.0,0.0,0.0,0.0,0.0,0.0,0.0,0.0,0.0,0.0,0.0,0.0,0.0,0.0,0.3855932203389831,0.5805084745762712,0.03389830508474576,0.0,0.0,0.0,0.0,0.0,0.0,0.0,0.0,0.0,0.0,0.0,0.0,0.0,0.0,0.0,0.0,0.0,AMB
0.3349397590361446,0.3204819277108434,0.03614457831325301,0.0,0.25783132530120484,0.004819277108433735,0.00963855421686747,0.0024096385542168677,0.033734939759036145,0.0,0.0,0.0,0.0,0.0,0.0,0.0,0.0,0.0,0.0,0.0,0.2653927813163482,0.2929936305732484,0.08280254777070063,0.07855626326963906,0.06581740976645435,0.02335456475583864,0.04883227176220807,0.010615711252653927,0.010615711252653927,0.01910828025477707,0.021231422505307854,0.01910828025477707,0.012738853503184714,0.016985138004246284,0.01910828025477707,0.008492569002123142,0.004246284501061571,0.0,0.0,0.0,0.13778705636743216,0.267223382045929,0.19832985386221294,0.2254697286012526,0.037578288100208766,0.012526096033402923,0.014613778705636743,0.010438413361169102,0.006263048016701462,0.022964509394572025,0.010438413361169102,0.010438413361169102,0.008350730688935281,0.020876826722338204,0.016701461377870562,0.0,0.0,0.0,0.0,0.0,0.07083333333333333,0.2916666666666667,0.28125,0.15,0.04375,0.03958333333333333,0.010416666666666666,0.014583333333333334,0.014583333333333334,0.025,0.014583333333333334,0.01875,0.010416666666666666,0.004166666666666667,0.008333333333333333,0.0020833333333333333,0.0,0.0,0.0,0.0,0.10625,0.3645833333333333,0.21875,0.16666666666666666,0.03333333333333333,0.029166666666666667,0.03125,0.01875,0.010416666666666666,0.014583333333333334,0.00625,0.0,0.0,0.0,0.0,0.0,0.0,0.0,0.0,0.0,0.25,0.5291666666666667,0.18958333333333333,0.016666666666666666,0.008333333333333333,0.0020833333333333333,0.0,0.0,0.004166666666666667,0.0,0.0,0.0,0.0,0.0,0.0,0.0,0.0,0.0,0.0,0.0,0.15,0.5416666666666666,0.19375,0.07916666666666666,0.022916666666666665,0.010416666666666666,0.0020833333333333333,0.0,0.0,0.0,0.0,0.0,0.0,0.0,0.0,0.0,0.0,0.0,0.0,0.0,0.25416666666666665,0.5416666666666666,0.14583333333333334,0.052083333333333336,0.0,0.0020833333333333333,0.0,0.0,0.0020833333333333333,0.0020833333333333333,0.0,0.0,0.0,0.0,0.0,0.0,0.0,0.0,0.0,0.0,0.28541666666666665,0.5395833333333333,0.14375,0.03125,0.0,0.0,0.0,0.0,0.0,0.0,0.0,0.0,0.0,0.0,0.0,0.0,0.0,0.0,0.0,0.0,0.325,0.6395833333333333,0.035416666666666666,0.0,0.0,0.0,0.0,0.0,0.0,0.0,0.0,0.0,0.0,0.0,0.0,0.0,0.0,0.0,0.0,0.0,0.33125,0.6458333333333334,0.022916666666666665,0.0,0.0,0.0,0.0,0.0,0.0,0.0,0.0,0.0,0.0,0.0,0.0,0.0,0.0,0.0,0.0,0.0,0.36875,0.63125,0.0,0.0,0.0,0.0,0.0,0.0,0.0,0.0,0.0,0.0,0.0,0.0,0.0,0.0,0.0,0.0,0.0,0.0,0.36666666666666664,0.6333333333333333,0.0,0.0,0.0,0.0,0.0,0.0,0.0,0.0,0.0,0.0,0.0,0.0,0.0,0.0,0.0,0.0,0.0,0.0,0.3645833333333333,0.6333333333333333,0.0020833333333333333,0.0,0.0,0.0,0.0,0.0,0.0,0.0,0.0,0.0,0.0,0.0,0.0,0.0,0.0,0.0,0.0,0.0,0.3625,0.6270833333333333,0.010416666666666666,0.0,0.0,0.0,0.0,0.0,0.0,0.0,0.0,0.0,0.0,0.0,0.0,0.0,0.0,0.0,0.0,0.0,0.4041666666666667,0.5958333333333333,0.0,0.0,0.0,0.0,0.0,0.0,0.0,0.0,0.0,0.0,0.0,0.0,0.0,0.0,0.0,0.0,0.0,0.0,AMB
0.31589147286821706,0.4437984496124031,0.011627906976744186,0.0,0.16666666666666666,0.011627906976744186,0.015503875968992248,0.0,0.01744186046511628,0.007751937984496124,0.009689922480620155,0.0,0.0,0.0,0.0,0.0,0.0,0.0,0.0,0.0,0.18613138686131386,0.2427007299270073,0.1989051094890511,0.1989051094890511,0.03832116788321168,0.03467153284671533,0.012773722627737226,0.0072992700729927005,0.020072992700729927,0.016423357664233577,0.010948905109489052,0.0072992700729927005,0.009124087591240875,0.0036496350364963502,0.010948905109489052,0.0018248175182481751,0.0,0.0,0.0,0.0,0.13090909090909092,0.18727272727272729,0.16727272727272727,0.14727272727272728,0.12,0.08545454545454545,0.03090909090909091,0.04909090909090909,0.023636363636363636,0.012727272727272728,0.025454545454545455,0.01090909090909091,0.007272727272727273,0.0018181818181818182,0.0,0.0,0.0,0.0,0.0,0.0,0.11272727272727273,0.24545454545454545,0.2727272727272727,0.11272727272727273,0.056363636363636366,0.04181818181818182,0.05272727272727273,0.03636363636363636,0.023636363636363636,0.01090909090909091,0.01090909090909091,0.005454545454545455,0.00909090909090909,0.00909090909090909,0.0,0.0,0.0,0.0,0.0,0.0,0.2381818181818182,0.41818181818181815,0.1690909090909091,0.08363636363636363,0.03272727272727273,0.005454545454545455,0.0,0.0018181818181818182,0.0036363636363636364,0.0,0.005454545454545455,0.01818181818181818,0.007272727272727273,0.0018181818181818182,0.005454545454545455,0.007272727272727273,0.0018181818181818182,0.0,0.0,0.0,0.21454545454545454,0.48363636363636364,0.2381818181818182,0.04363636363636364,0.0,0.0,0.0,0.0,0.0018181818181818182,0.0018181818181818182,0.0036363636363636364,0.0036363636363636364,0.007272727272727273,0.0018181818181818182,0.0,0.0,0.0,0.0,0.0,0.0,0.24,0.5872727272727273,0.13818181818181818,0.02727272727272727,0.0,0.0036363636363636364,0.0036363636363636364,0.0,0.0,0.0,0.0,0.0,0.0,0.0,0.0,0.0,0.0,0.0,0.0,0.0,0.30727272727272725,0.6327272727272727,0.04909090909090909,0.0,0.01090909090909091,0.0,0.0,0.0,0.0,0.0,0.0,0.0,0.0,0.0,0.0,0.0,0.0,0.0,0.0,0.0,0.3490909090909091,0.6254545454545455,0.025454545454545455,0.0,0.0,0.0,0.0,0.0,0.0,0.0,0.0,0.0,0.0,0.0,0.0,0.0,0.0,0.0,0.0,0.0,0.3690909090909091,0.6309090909090909,0.0,0.0,0.0,0.0,0.0,0.0,0.0,0.0,0.0,0.0,0.0,0.0,0.0,0.0,0.0,0.0,0.0,0.0,0.38545454545454544,0.5854545454545454,0.02909090909090909,0.0,0.0,0.0,0.0,0.0,0.0,0.0,0.0,0.0,0.0,0.0,0.0,0.0,0.0,0.0,0.0,0.0,0.3618181818181818,0.610909090909091,0.02727272727272727,0.0,0.0,0.0,0.0,0.0,0.0,0.0,0.0,0.0,0.0,0.0,0.0,0.0,0.0,0.0,0.0,0.0,0.3890909090909091,0.6018181818181818,0.00909090909090909,0.0,0.0,0.0,0.0,0.0,0.0,0.0,0.0,0.0,0.0,0.0,0.0,0.0,0.0,0.0,0.0,0.0,0.39454545454545453,0.6036363636363636,0.0018181818181818182,0.0,0.0,0.0,0.0,0.0,0.0,0.0,0.0,0.0,0.0,0.0,0.0,0.0,0.0,0.0,0.0,0.0,0.4036363636363636,0.5945454545454546,0.0018181818181818182,0.0,0.0,0.0,0.0,0.0,0.0,0.0,0.0,0.0,0.0,0.0,0.0,0.0,0.0,0.0,0.0,0.0,0.39454545454545453,0.5981818181818181,0.007272727272727273,0.0,0.0,0.0,0.0,0.0,0.0,0.0,0.0,0.0,0.0,0.0,0.0,0.0,0.0,0.0,0.0,0.0,AMB
0.3333333333333333,0.4391025641025641,0.03205128205128205,0.014423076923076924,0.08974358974358974,0.009615384615384616,0.004807692307692308,0.004807692307692308,0.027243589743589744,0.01282051282051282,0.00641025641025641,0.01282051282051282,0.01282051282051282,0.0,0.0,0.0,0.0,0.0,0.0,0.0,0.13043478260869565,0.18167701863354038,0.11180124223602485,0.13975155279503104,0.06987577639751552,0.06832298136645963,0.06987577639751552,0.06832298136645963,0.024844720496894408,0.027950310559006212,0.026397515527950312,0.010869565217391304,0.015527950310559006,0.017080745341614908,0.024844720496894408,0.007763975155279503,0.004658385093167702,0.0,0.0,0.0,0.040372670807453416,0.14751552795031056,0.14751552795031056,0.2795031055900621,0.07608695652173914,0.09627329192546584,0.040372670807453416,0.037267080745341616,0.018633540372670808,0.017080745341614908,0.012422360248447204,0.018633540372670808,0.007763975155279503,0.018633540372670808,0.027950310559006212,0.007763975155279503,0.004658385093167702,0.0015527950310559005,0.0,0.0,0.13198757763975155,0.281055900621118,0.327639751552795,0.12111801242236025,0.03260869565217391,0.037267080745341616,0.024844720496894408,0.012422360248447204,0.003105590062111801,0.003105590062111801,0.007763975155279503,0.003105590062111801,0.0,0.004658385093167702,0.006211180124223602,0.003105590062111801,0.0,0.0,0.0,0.0,0.2111801242236025,0.6319875776397516,0.13819875776397517,0.015527950310559006,0.003105590062111801,0.0,0.0,0.0,0.0,0.0,0.0,0.0,0.0,0.0,0.0,0.0,0.0,0.0,0.0,0.0,0.2919254658385093,0.5450310559006211,0.14906832298136646,0.0015527950310559005,0.0,0.0,0.004658385093167702,0.0,0.0,0.006211180124223602,0.0015527950310559005,0.0,0.0,0.0,0.0,0.0,0.0,0.0,0.0,0.0,0.30745341614906835,0.5916149068322981,0.09627329192546584,0.0015527950310559005,0.003105590062111801,0.0,0.0,0.0,0.0,0.0,0.0,0.0,0.0,0.0,0.0,0.0,0.0,0.0,0.0,0.0,0.35248447204968947,0.6164596273291926,0.031055900621118012,0.0,0.0,0.0,0.0,0.0,0.0,0.0,0.0,0.0,0.0,0.0,0.0,0.0,0.0,0.0,0.0,0.0,0.3198757763975155,0.6785714285714286,0.0015527950310559005,0.0,0.0,0.0,0.0,0.0,0.0,0.0,0.0,0.0,0.0,0.0,0.0,0.0,0.0,0.0,0.0,0.0,0.3416149068322981,0.656832298136646,0.0015527950310559005,0.0,0.0,0.0,0.0,0.0,0.0,0.0,0.0,0.0,0.0,0.0,0.0,0.0,0.0,0.0,0.0,0.0,0.3555900621118012,0.6413043478260869,0.003105590062111801,0.0,0.0,0.0,0.0,0.0,0.0,0.0,0.0,0.0,0.0,0.0,0.0,0.0,0.0,0.0,0.0,0.0,0.36180124223602483,0.6133540372670807,0.024844720496894408,0.0,0.0,0.0,0.0,0.0,0.0,0.0,0.0,0.0,0.0,0.0,0.0,0.0,0.0,0.0,0.0,0.0,0.3385093167701863,0.6583850931677019,0.0,0.0,0.003105590062111801,0.0,0.0,0.0,0.0,0.0,0.0,0.0,0.0,0.0,0.0,0.0,0.0,0.0,0.0,0.0,0.3385093167701863,0.6614906832298136,0.0,0.0,0.0,0.0,0.0,0.0,0.0,0.0,0.0,0.0,0.0,0.0,0.0,0.0,0.0,0.0,0.0,0.0,0.34316770186335405,0.6490683229813664,0.004658385093167702,0.0,0.003105590062111801,0.0,0.0,0.0,0.0,0.0,0.0,0.0,0.0,0.0,0.0,0.0,0.0,0.0,0.0,0.0,0.36490683229813664,0.6211180124223602,0.010869565217391304,0.0,0.0015527950310559005,0.0015527950310559005,0.0,0.0,0.0,0.0,0.0,0.0,0.0,0.0,0.0,0.0,0.0,0.0,0.0,0.0,UM90
0.3403880070546737,0.42151675485008816,0.02292768959435626,0.0,0.11992945326278659,0.007054673721340388,0.015873015873015872,0.021164021164021163,0.02292768959435626,0.005291005291005291,0.02292768959435626,0.0,0.0,0.0,0.0,0.0,0.0,0.0,0.0,0.0,0.1935483870967742,0.2699490662139219,0.12563667232597622,0.07640067911714771,0.06791171477079797,0.042444821731748725,0.02037351443123939,0.011884550084889643,0.030560271646859084,0.01867572156196944,0.01867572156196944,0.035653650254668934,0.010186757215619695,0.025466893039049237,0.013582342954159592,0.013582342954159592,0.02037351443123939,0.0050933786078098476,0.0,0.0,0.04745762711864407,0.17627118644067796,0.18305084745762712,0.19491525423728814,0.1135593220338983,0.11864406779661017,0.013559322033898305,0.022033898305084745,0.05084745762711865,0.030508474576271188,0.00847457627118644,0.006779661016949152,0.003389830508474576,0.006779661016949152,0.01694915254237288,0.005084745762711864,0.001694915254237288,0.0,0.0,0.0,0.14745762711864407,0.3644067796610169,0.22372881355932203,0.1152542372881356,0.05084745762711865,0.005084745762711864,0.003389830508474576,0.001694915254237288,0.006779661016949152,0.005084745762711864,0.022033898305084745,0.01864406779661017,0.005084745762711864,0.00847457627118644,0.010169491525423728,0.00847457627118644,0.003389830508474576,0.0,0.0,0.0,0.14915254237288136,0.5,0.22542372881355932,0.0711864406779661,0.020338983050847456,0.006779661016949152,0.0,0.0,0.006779661016949152,0.001694915254237288,0.0,0.005084745762711864,0.006779661016949152,0.003389830508474576,0.003389830508474576,0.0,0.0,0.0,0.0,0.0,0.21525423728813559,0.5796610169491525,0.19322033898305085,0.005084745762711864,0.003389830508474576,0.003389830508474576,0.0,0.0,0.0,0.0,0.0,0.0,0.0,0.0,0.0,0.0,0.0,0.0,0.0,0.0,0.26949152542372884,0.6559322033898305,0.07457627118644068,0.0,0.0,0.0,0.0,0.0,0.0,0.0,0.0,0.0,0.0,0.0,0.0,0.0,0.0,0.0,0.0,0.0,0.3576271186440678,0.6169491525423729,0.022033898305084745,0.0,0.001694915254237288,0.001694915254237288,0.0,0.0,0.0,0.0,0.0,0.0,0.0,0.0,0.0,0.0,0.0,0.0,0.0,0.0,0.3576271186440678,0.6288135593220339,0.010169491525423728,0.0,0.003389830508474576,0.0,0.0,0.0,0.0,0.0,0.0,0.0,0.0,0.0,0.0,0.0,0.0,0.0,0.0,0.0,0.3813559322033898,0.6050847457627119,0.013559322033898305,0.0,0.0,0.0,0.0,0.0,0.0,0.0,0.0,0.0,0.0,0.0,0.0,0.0,0.0,0.0,0.0,0.0,0.3593220338983051,0.6050847457627119,0.03559322033898305,0.0,0.0,0.0,0.0,0.0,0.0,0.0,0.0,0.0,0.0,0.0,0.0,0.0,0.0,0.0,0.0,0.0,0.3677966101694915,0.6271186440677966,0.005084745762711864,0.0,0.0,0.0,0.0,0.0,0.0,0.0,0.0,0.0,0.0,0.0,0.0,0.0,0.0,0.0,0.0,0.0,0.3610169491525424,0.6372881355932203,0.001694915254237288,0.0,0.0,0.0,0.0,0.0,0.0,0.0,0.0,0.0,0.0,0.0,0.0,0.0,0.0,0.0,0.0,0.0,0.39661016949152544,0.6033898305084746,0.0,0.0,0.0,0.0,0.0,0.0,0.0,0.0,0.0,0.0,0.0,0.0,0.0,0.0,0.0,0.0,0.0,0.0,0.3610169491525424,0.6389830508474577,0.0,0.0,0.0,0.0,0.0,0.0,0.0,0.0,0.0,0.0,0.0,0.0,0.0,0.0,0.0,0.0,0.0,0.0,0.3440677966101695,0.611864406779661,0.04406779661016949,0.0,0.0,0.0,0.0,0.0,0.0,0.0,0.0,0.0,0.0,0.0,0.0,0.0,0.0,0.0,0.0,0.0,UM90
0.32098765432098764,0.4444444444444444,0.0564373897707231,0.007054673721340388,0.08818342151675485,0.007054673721340388,0.007054673721340388,0.0,0.019400352733686066,0.005291005291005291,0.001763668430335097,0.014109347442680775,0.007054673721340388,0.007054673721340388,0.012345679012345678,0.001763668430335097,0.0,0.0,0.0,0.0,0.06164383561643835,0.1678082191780822,0.14726027397260275,0.1523972602739726,0.08732876712328767,0.11301369863013698,0.0547945205479452,0.025684931506849314,0.02226027397260274,0.017123287671232876,0.02054794520547945,0.03595890410958904,0.04794520547945205,0.00684931506849315,0.0017123287671232876,0.011986301369863013,0.025684931506849314,0.0,0.0,0.0,0.08361774744027303,0.19795221843003413,0.189419795221843,0.22696245733788395,0.12116040955631399,0.030716723549488054,0.04778156996587031,0.01877133105802048,0.010238907849829351,0.0017064846416382253,0.015358361774744027,0.011945392491467578,0.006825938566552901,0.0017064846416382253,0.006825938566552901,0.011945392491467578,0.011945392491467578,0.005119453924914676,0.0,0.0,0.13310580204778158,0.310580204778157,0.3037542662116041,0.17406143344709898,0.020477815699658702,0.011945392491467578,0.010238907849829351,0.0,0.0017064846416382253,0.0034129692832764505,0.0017064846416382253,0.0,0.0017064846416382253,0.0034129692832764505,0.006825938566552901,0.0034129692832764505,0.010238907849829351,0.0034129692832764505,0.0,0.0,0.16382252559726962,0.49829351535836175,0.26791808873720135,0.04778156996587031,0.0034129692832764505,0.005119453924914676,0.0034129692832764505,0.0,0.010238907849829351,0.0,0.0,0.0,0.0,0.0,0.0,0.0,0.0,0.0,0.0,0.0,0.29692832764505117,0.6399317406143344,0.06313993174061433,0.0,0.0,0.0,0.0,0.0,0.0,0.0,0.0,0.0,0.0,0.0,0.0,0.0,0.0,0.0,0.0,0.0,0.2883959044368601,0.6296928327645052,0.06996587030716724,0.0,0.005119453924914676,0.006825938566552901,0.0,0.0,0.0,0.0,0.0,0.0,0.0,0.0,0.0,0.0,0.0,0.0,0.0,0.0,0.3583617747440273,0.5750853242320819,0.06655290102389079,0.0,0.0,0.0,0.0,0.0,0.0,0.0,0.0,0.0,0.0,0.0,0.0,0.0,0.0,0.0,0.0,0.0,0.3839590443686007,0.5921501706484642,0.020477815699658702,0.0,0.0017064846416382253,0.0017064846416382253,0.0,0.0,0.0,0.0,0.0,0.0,0.0,0.0,0.0,0.0,0.0,0.0,0.0,0.0,0.37372013651877134,0.6160409556313993,0.010238907849829351,0.0,0.0,0.0,0.0,0.0,0.0,0.0,0.0,0.0,0.0,0.0,0.0,0.0,0.0,0.0,0.0,0.0,0.3839590443686007,0.60580204778157,0.010238907849829351,0.0,0.0,0.0,0.0,0.0,0.0,0.0,0.0,0.0,0.0,0.0,0.0,0.0,0.0,0.0,0.0,0.0,0.4044368600682594,0.5955631399317406,0.0,0.0,0.0,0.0,0.0,0.0,0.0,0.0,0.0,0.0,0.0,0.0,0.0,0.0,0.0,0.0,0.0,0.0,0.4044368600682594,0.590443686006826,0.005119453924914676,0.0,0.0,0.0,0.0,0.0,0.0,0.0,0.0,0.0,0.0,0.0,0.0,0.0,0.0,0.0,0.0,0.0,0.3822525597269625,0.6177474402730375,0.0,0.0,0.0,0.0,0.0,0.0,0.0,0.0,0.0,0.0,0.0,0.0,0.0,0.0,0.0,0.0,0.0,0.0,0.39419795221843,0.5665529010238908,0.03924914675767918,0.0,0.0,0.0,0.0,0.0,0.0,0.0,0.0,0.0,0.0,0.0,0.0,0.0,0.0,0.0,0.0,0.0,0.3993174061433447,0.5853242320819113,0.015358361774744027,0.0,0.0,0.0,0.0,0.0,0.0,0.0,0.0,0.0,0.0,0.0,0.0,0.0,0.0,0.0,0.0,0.0,UM90
0.3772357723577236,0.4097560975609756,0.03577235772357724,0.004878048780487805,0.07154471544715447,0.0032520325203252032,0.00975609756097561,0.004878048780487805,0.022764227642276424,0.0032520325203252032,0.016260162601626018,0.011382113821138212,0.00975609756097561,0.011382113821138212,0.0,0.0065040650406504065,0.0016260162601626016,0.0,0.0,0.0,0.10543130990415335,0.28434504792332266,0.17731629392971246,0.10063897763578275,0.054313099041533544,0.06869009584664537,0.03354632587859425,0.019169329073482427,0.025559105431309903,0.023961661341853034,0.022364217252396165,0.019169329073482427,0.025559105431309903,0.023961661341853034,0.009584664536741214,0.006389776357827476,0.0,0.0,0.0,0.0,0.06869009584664537,0.2012779552715655,0.26038338658146964,0.18370607028753994,0.05591054313099041,0.07188498402555911,0.04472843450479233,0.03035143769968051,0.01437699680511182,0.006389776357827476,0.011182108626198083,0.01437699680511182,0.011182108626198083,0.012779552715654952,0.011182108626198083,0.001597444089456869,0.0,0.0,0.0,0.0,0.11022364217252396,0.31309904153354634,0.3402555910543131,0.20447284345047922,0.007987220447284345,0.004792332268370607,0.0,0.006389776357827476,0.003194888178913738,0.003194888178913738,0.003194888178913738,0.003194888178913738,0.0,0.0,0.0,0.0,0.0,0.0,0.0,0.0,0.23322683706070288,0.5638977635782748,0.18370607028753994,0.001597444089456869,0.0,0.0,0.0,0.003194888178913738,0.0,0.009584664536741214,0.004792332268370607,0.0,0.0,0.0,0.0,0.0,0.0,0.0,0.0,0.0,0.2939297124600639,0.6022364217252396,0.09424920127795527,0.0,0.006389776357827476,0.003194888178913738,0.0,0.0,0.0,0.0,0.0,0.0,0.0,0.0,0.0,0.0,0.0,0.0,0.0,0.0,0.24440894568690097,0.6565495207667732,0.09904153354632587,0.0,0.0,0.0,0.0,0.0,0.0,0.0,0.0,0.0,0.0,0.0,0.0,0.0,0.0,0.0,0.0,0.0,0.29233226837060705,0.6246006389776357,0.08306709265175719,0.0,0.0,0.0,0.0,0.0,0.0,0.0,0.0,0.0,0.0,0.0,0.0,0.0,0.0,0.0,0.0,0.0,0.2523961661341853,0.6661341853035144,0.08146964856230032,0.0,0.0,0.0,0.0,0.0,0.0,0.0,0.0,0.0,0.0,0.0,0.0,0.0,0.0,0.0,0.0,0.0,0.3466453674121406,0.6501597444089456,0.0,0.0,0.003194888178913738,0.0,0.0,0.0,0.0,0.0,0.0,0.0,0.0,0.0,0.0,0.0,0.0,0.0,0.0,0.0,0.33865814696485624,0.6230031948881789,0.038338658146964855,0.0,0.0,0.0,0.0,0.0,0.0,0.0,0.0,0.0,0.0,0.0,0.0,0.0,0.0,0.0,0.0,0.0,0.33865814696485624,0.646964856230032,0.01437699680511182,0.0,0.0,0.0,0.0,0.0,0.0,0.0,0.0,0.0,0.0,0.0,0.0,0.0,0.0,0.0,0.0,0.0,0.36421725239616615,0.6325878594249201,0.003194888178913738,0.0,0.0,0.0,0.0,0.0,0.0,0.0,0.0,0.0,0.0,0.0,0.0,0.0,0.0,0.0,0.0,0.0,0.35942492012779553,0.634185303514377,0.006389776357827476,0.0,0.0,0.0,0.0,0.0,0.0,0.0,0.0,0.0,0.0,0.0,0.0,0.0,0.0,0.0,0.0,0.0,0.3801916932907348,0.6198083067092651,0.0,0.0,0.0,0.0,0.0,0.0,0.0,0.0,0.0,0.0,0.0,0.0,0.0,0.0,0.0,0.0,0.0,0.0,0.3738019169329074,0.6261980830670927,0.0,0.0,0.0,0.0,0.0,0.0,0.0,0.0,0.0,0.0,0.0,0.0,0.0,0.0,0.0,0.0,0.0,0.0,UM90
0.37279151943462896,0.3763250883392226,0.03180212014134275,0.0,0.1625441696113074,0.0017667844522968198,0.0,0.0,0.024734982332155476,0.01060070671378092,0.0017667844522968198,0.00530035335689046,0.007067137809187279,0.00530035335689046,0.0,0.0,0.0,0.0,0.0,0.0,0.15345699831365936,0.23440134907251264,0.16694772344013492,0.10623946037099494,0.025295109612141653,0.0657672849915683,0.04215851602023609,0.03035413153456998,0.026981450252951095,0.03541315345699832,0.03035413153456998,0.04047217537942664,0.00505902192242833,0.016863406408094434,0.0016863406408094434,0.006745362563237774,0.011804384485666104,0.0,0.0,0.0,0.07563025210084033,0.1899159663865546,0.26218487394957984,0.16302521008403362,0.04201680672268908,0.040336134453781515,0.021848739495798318,0.05546218487394958,0.018487394957983194,0.021848739495798318,0.013445378151260505,0.015126050420168067,0.015126050420168067,0.021848739495798318,0.008403361344537815,0.010084033613445379,0.020168067226890758,0.005042016806722689,0.0,0.0,0.08403361344537816,0.16470588235294117,0.33277310924369746,0.24873949579831933,0.05042016806722689,0.025210084033613446,0.010084033613445379,0.013445378151260505,0.031932773109243695,0.015126050420168067,0.010084033613445379,0.0067226890756302525,0.005042016806722689,0.0016806722689075631,0.0,0.0,0.0,0.0,0.0,0.0,0.253781512605042,0.534453781512605,0.18487394957983194,0.015126050420168067,0.0016806722689075631,0.0067226890756302525,0.0,0.0033613445378151263,0.0,0.0,0.0,0.0,0.0,0.0,0.0,0.0,0.0,0.0,0.0,0.0,0.19831932773109243,0.5798319327731093,0.21680672268907564,0.0016806722689075631,0.0016806722689075631,0.0016806722689075631,0.0,0.0,0.0,0.0,0.0,0.0,0.0,0.0,0.0,0.0,0.0,0.0,0.0,0.0,0.28907563025210087,0.584873949579832,0.1092436974789916,0.01680672268907563,0.0,0.0,0.0,0.0,0.0,0.0,0.0,0.0,0.0,0.0,0.0,0.0,0.0,0.0,0.0,0.0,0.3226890756302521,0.6134453781512605,0.06050420168067227,0.0,0.0033613445378151263,0.0,0.0,0.0,0.0,0.0,0.0,0.0,0.0,0.0,0.0,0.0,0.0,0.0,0.0,0.0,0.3899159663865546,0.5865546218487395,0.023529411764705882,0.0,0.0,0.0,0.0,0.0,0.0,0.0,0.0,0.0,0.0,0.0,0.0,0.0,0.0,0.0,0.0,0.0,0.3697478991596639,0.6151260504201681,0.015126050420168067,0.0,0.0,0.0,0.0,0.0,0.0,0.0,0.0,0.0,0.0,0.0,0.0,0.0,0.0,0.0,0.0,0.0,0.346218487394958,0.6420168067226891,0.005042016806722689,0.0,0.0033613445378151263,0.0033613445378151263,0.0,0.0,0.0,0.0,0.0,0.0,0.0,0.0,0.0,0.0,0.0,0.0,0.0,0.0,0.4084033613445378,0.5831932773109244,0.008403361344537815,0.0,0.0,0.0,0.0,0.0,0.0,0.0,0.0,0.0,0.0,0.0,0.0,0.0,0.0,0.0,0.0,0.0,0.41008403361344536,0.5899159663865546,0.0,0.0,0.0,0.0,0.0,0.0,0.0,0.0,0.0,0.0,0.0,0.0,0.0,0.0,0.0,0.0,0.0,0.0,0.39327731092436974,0.6067226890756302,0.0,0.0,0.0,0.0,0.0,0.0,0.0,0.0,0.0,0.0,0.0,0.0,0.0,0.0,0.0,0.0,0.0,0.0,0.4050420168067227,0.5949579831932773,0.0,0.0,0.0,0.0,0.0,0.0,0.0,0.0,0.0,0.0,0.0,0.0,0.0,0.0,0.0,0.0,0.0,0.0,0.43865546218487395,0.561344537815126,0.0,0.0,0.0,0.0,0.0,0.0,0.0,0.0,0.0,0.0,0.0,0.0,0.0,0.0,0.0,0.0,0.0,0.0,UM90
0.29037800687285226,0.39690721649484534,0.08934707903780069,0.02577319587628866,0.07216494845360824,0.012027491408934709,0.005154639175257732,0.00859106529209622,0.022336769759450172,0.00859106529209622,0.020618556701030927,0.00859106529209622,0.006872852233676976,0.013745704467353952,0.00859106529209622,0.005154639175257732,0.005154639175257732,0.0,0.0,0.0,0.1310116086235489,0.23383084577114427,0.24543946932006633,0.1724709784411277,0.05970149253731343,0.03648424543946932,0.026533996683250415,0.006633499170812604,0.014925373134328358,0.013266998341625208,0.01824212271973466,0.014925373134328358,0.004975124378109453,0.006633499170812604,0.008291873963515755,0.004975124378109453,0.001658374792703151,0.0,0.0,0.0,0.09105960264900662,0.24834437086092714,0.23841059602649006,0.11920529801324503,0.07119205298013245,0.0728476821192053,0.028145695364238412,0.028145695364238412,0.013245033112582781,0.02152317880794702,0.023178807947019868,0.019867549668874173,0.013245033112582781,0.011589403973509934,0.0,0.0,0.0,0.0,0.0,0.0,0.09933774834437085,0.3360927152317881,0.3228476821192053,0.09602649006622517,0.054635761589403975,0.03145695364238411,0.014900662251655629,0.009933774834437087,0.0033112582781456954,0.004966887417218543,0.0,0.004966887417218543,0.004966887417218543,0.008278145695364239,0.0033112582781456954,0.0033112582781456954,0.0016556291390728477,0.0,0.0,0.0,0.2599337748344371,0.49834437086092714,0.15728476821192053,0.041390728476821195,0.0,0.006622516556291391,0.0,0.0,0.009933774834437087,0.0033112582781456954,0.0016556291390728477,0.0,0.0033112582781456954,0.006622516556291391,0.006622516556291391,0.0033112582781456954,0.0016556291390728477,0.0,0.0,0.0,0.23509933774834438,0.5993377483443708,0.15397350993377484,0.008278145695364239,0.0,0.0,0.0,0.0033112582781456954,0.0,0.0,0.0,0.0,0.0,0.0,0.0,0.0,0.0,0.0,0.0,0.0,0.23013245033112584,0.5662251655629139,0.173841059602649,0.026490066225165563,0.0,0.0033112582781456954,0.0,0.0,0.0,0.0,0.0,0.0,0.0,0.0,0.0,0.0,0.0,0.0,0.0,0.0,0.3658940397350993,0.609271523178808,0.024834437086092714,0.0,0.0,0.0,0.0,0.0,0.0,0.0,0.0,0.0,0.0,0.0,0.0,0.0,0.0,0.0,0.0,0.0,0.3576158940397351,0.5860927152317881,0.04966887417218543,0.0,0.0033112582781456954,0.0033112582781456954,0.0,0.0,0.0,0.0,0.0,0.0,0.0,0.0,0.0,0.0,0.0,0.0,0.0,0.0,0.35927152317880795,0.6142384105960265,0.026490066225165563,0.0,0.0,0.0,0.0,0.0,0.0,0.0,0.0,0.0,0.0,0.0,0.0,0.0,0.0,0.0,0.0,0.0,0.36258278145695366,0.6109271523178808,0.026490066225165563,0.0,0.0,0.0,0.0,0.0,0.0,0.0,0.0,0.0,0.0,0.0,0.0,0.0,0.0,0.0,0.0,0.0,0.34602649006622516,0.6506622516556292,0.0033112582781456954,0.0,0.0,0.0,0.0,0.0,0.0,0.0,0.0,0.0,0.0,0.0,0.0,0.0,0.0,0.0,0.0,0.0,0.3443708609271523,0.6440397350993378,0.011589403973509934,0.0,0.0,0.0,0.0,0.0,0.0,0.0,0.0,0.0,0.0,0.0,0.0,0.0,0.0,0.0,0.0,0.0,0.326158940397351,0.6324503311258278,0.041390728476821195,0.0,0.0,0.0,0.0,0.0,0.0,0.0,0.0,0.0,0.0,0.0,0.0,0.0,0.0,0.0,0.0,0.0,0.3526490066225166,0.6473509933774835,0.0,0.0,0.0,0.0,0.0,0.0,0.0,0.0,0.0,0.0,0.0,0.0,0.0,0.0,0.0,0.0,0.0,0.0,0.3079470198675497,0.6920529801324503,0.0,0.0,0.0,0.0,0.0,0.0,0.0,0.0,0.0,0.0,0.0,0.0,0.0,0.0,0.0,0.0,0.0,0.0,CO2
0.22580645161290322,0.4393241167434716,0.11674347158218126,0.015360983102918587,0.05837173579109063,0.016897081413210446,0.0015360983102918587,0.018433179723502304,0.016897081413210446,0.021505376344086023,0.01228878648233487,0.018433179723502304,0.021505376344086023,0.004608294930875576,0.006144393241167435,0.0015360983102918587,0.004608294930875576,0.0,0.0,0.0,0.07033639143730887,0.2400611620795107,0.17584097859327216,0.1819571865443425,0.11773700305810397,0.08103975535168195,0.035168195718654434,0.019877675840978593,0.013761467889908258,0.009174311926605505,0.0061162079510703364,0.013761467889908258,0.01529051987767584,0.0030581039755351682,0.009174311926605505,0.00764525993883792,0.0,0.0,0.0,0.0,0.027439024390243903,0.17378048780487804,0.23932926829268292,0.2865853658536585,0.09451219512195122,0.04725609756097561,0.03201219512195122,0.009146341463414634,0.019817073170731708,0.001524390243902439,0.004573170731707317,0.012195121951219513,0.007621951219512195,0.010670731707317074,0.019817073170731708,0.012195121951219513,0.001524390243902439,0.0,0.0,0.0,0.13109756097560976,0.4222560975609756,0.28353658536585363,0.09908536585365854,0.022865853658536585,0.019817073170731708,0.001524390243902439,0.006097560975609756,0.001524390243902439,0.007621951219512195,0.004573170731707317,0.0,0.0,0.0,0.0,0.0,0.0,0.0,0.0,0.0,0.35365853658536583,0.5030487804878049,0.12652439024390244,0.0,0.0,0.006097560975609756,0.0,0.0,0.0,0.0,0.001524390243902439,0.001524390243902439,0.001524390243902439,0.0,0.006097560975609756,0.0,0.0,0.0,0.0,0.0,0.19054878048780488,0.5579268292682927,0.21189024390243902,0.036585365853658534,0.0,0.003048780487804878,0.0,0.0,0.0,0.0,0.0,0.0,0.0,0.0,0.0,0.0,0.0,0.0,0.0,0.0,0.31097560975609756,0.5487804878048781,0.125,0.01524390243902439,0.0,0.0,0.0,0.0,0.0,0.0,0.0,0.0,0.0,0.0,0.0,0.0,0.0,0.0,0.0,0.0,0.25914634146341464,0.5945121951219512,0.14634146341463414,0.0,0.0,0.0,0.0,0.0,0.0,0.0,0.0,0.0,0.0,0.0,0.0,0.0,0.0,0.0,0.0,0.0,0.3079268292682927,0.6326219512195121,0.05945121951219512,0.0,0.0,0.0,0.0,0.0,0.0,0.0,0.0,0.0,0.0,0.0,0.0,0.0,0.0,0.0,0.0,0.0,0.35060975609756095,0.6204268292682927,0.028963414634146343,0.0,0.0,0.0,0.0,0.0,0.0,0.0,0.0,0.0,0.0,0.0,0.0,0.0,0.0,0.0,0.0,0.0,0.3673780487804878,0.6189024390243902,0.013719512195121951,0.0,0.0,0.0,0.0,0.0,0.0,0.0,0.0,0.0,0.0,0.0,0.0,0.0,0.0,0.0,0.0,0.0,0.3094512195121951,0.6692073170731707,0.018292682926829267,0.0,0.001524390243902439,0.001524390243902439,0.0,0.0,0.0,0.0,0.0,0.0,0.0,0.0,0.0,0.0,0.0,0.0,0.0,0.0,0.36890243902439024,0.6295731707317073,0.001524390243902439,0.0,0.0,0.0,0.0,0.0,0.0,0.0,0.0,0.0,0.0,0.0,0.0,0.0,0.0,0.0,0.0,0.0,0.35365853658536583,0.6463414634146342,0.0,0.0,0.0,0.0,0.0,0.0,0.0,0.0,0.0,0.0,0.0,0.0,0.0,0.0,0.0,0.0,0.0,0.0,0.2804878048780488,0.7195121951219512,0.0,0.0,0.0,0.0,0.0,0.0,0.0,0.0,0.0,0.0,0.0,0.0,0.0,0.0,0.0,0.0,0.0,0.0,0.33689024390243905,0.663109756097561,0.0,0.0,0.0,0.0,0.0,0.0,0.0,0.0,0.0,0.0,0.0,0.0,0.0,0.0,0.0,0.0,0.0,0.0,CO2
0.27689873417721517,0.375,0.08544303797468354,0.05063291139240506,0.04746835443037975,0.014240506329113924,0.006329113924050633,0.006329113924050633,0.03322784810126582,0.014240506329113924,0.02689873417721519,0.023734177215189875,0.030063291139240507,0.00949367088607595,0.0,0.0,0.0,0.0,0.0,0.0,0.09442724458204334,0.29102167182662536,0.21362229102167182,0.19814241486068113,0.03560371517027864,0.03560371517027864,0.018575851393188854,0.0046439628482972135,0.007739938080495356,0.018575851393188854,0.017027863777089782,0.010835913312693499,0.015479876160990712,0.015479876160990712,0.01393188854489164,0.006191950464396285,0.0030959752321981426,0.0,0.0,0.0,0.08191653786707882,0.16846986089644514,0.18856259659969088,0.18547140649149924,0.09273570324574962,0.06027820710973725,0.023183925811437404,0.0061823802163833074,0.015455950540958269,0.04945904173106646,0.04636785162287481,0.03245749613601236,0.023183925811437404,0.00927357032457496,0.00463678516228748,0.0,0.00927357032457496,0.0030911901081916537,0.0,0.0,0.14528593508500773,0.3323029366306028,0.2797527047913447,0.10819165378670788,0.04173106646058733,0.05564142194744977,0.023183925811437404,0.012364760432766615,0.0015455950540958269,0.0,0.0,0.0,0.0,0.0,0.0,0.0,0.0,0.0,0.0,0.0,0.24884080370942813,0.4884080370942813,0.22102009273570325,0.02472952086553323,0.0030911901081916537,0.0061823802163833074,0.0,0.0,0.0,0.0,0.0,0.0061823802163833074,0.0015455950540958269,0.0,0.0,0.0,0.0,0.0,0.0,0.0,0.2009273570324575,0.5595054095826894,0.23493044822256567,0.0015455950540958269,0.0,0.0030911901081916537,0.0,0.0,0.0,0.0,0.0,0.0,0.0,0.0,0.0,0.0,0.0,0.0,0.0,0.0,0.2735703245749614,0.5471406491499228,0.160741885625966,0.015455950540958269,0.0015455950540958269,0.0015455950540958269,0.0,0.0,0.0,0.0,0.0,0.0,0.0,0.0,0.0,0.0,0.0,0.0,0.0,0.0,0.28129829984544047,0.6012364760432767,0.11746522411128284,0.0,0.0,0.0,0.0,0.0,0.0,0.0,0.0,0.0,0.0,0.0,0.0,0.0,0.0,0.0,0.0,0.0,0.30602782071097373,0.6661514683153014,0.027820710973724884,0.0,0.0,0.0,0.0,0.0,0.0,0.0,0.0,0.0,0.0,0.0,0.0,0.0,0.0,0.0,0.0,0.0,0.36476043276661513,0.5873261205564142,0.04791344667697063,0.0,0.0,0.0,0.0,0.0,0.0,0.0,0.0,0.0,0.0,0.0,0.0,0.0,0.0,0.0,0.0,0.0,0.3802163833075734,0.6182380216383307,0.0015455950540958269,0.0,0.0,0.0,0.0,0.0,0.0,0.0,0.0,0.0,0.0,0.0,0.0,0.0,0.0,0.0,0.0,0.0,0.3740340030911901,0.5780525502318392,0.04791344667697063,0.0,0.0,0.0,0.0,0.0,0.0,0.0,0.0,0.0,0.0,0.0,0.0,0.0,0.0,0.0,0.0,0.0,0.35394126738794435,0.6460587326120556,0.0,0.0,0.0,0.0,0.0,0.0,0.0,0.0,0.0,0.0,0.0,0.0,0.0,0.0,0.0,0.0,0.0,0.0,0.3894899536321484,0.6105100463678517,0.0,0.0,0.0,0.0,0.0,0.0,0.0,0.0,0.0,0.0,0.0,0.0,0.0,0.0,0.0,0.0,0.0,0.0,0.3415765069551777,0.6584234930448223,0.0,0.0,0.0,0.0,0.0,0.0,0.0,0.0,0.0,0.0,0.0,0.0,0.0,0.0,0.0,0.0,0.0,0.0,0.2921174652241113,0.7078825347758887,0.0,0.0,0.0,0.0,0.0,0.0,0.0,0.0,0.0,0.0,0.0,0.0,0.0,0.0,0.0,0.0,0.0,0.0,CO2
0.2830508474576271,0.3864406779661017,0.07966101694915254,0.020338983050847456,0.10677966101694915,0.00847457627118644,0.010169491525423728,0.01694915254237288,0.04915254237288136,0.01864406779661017,0.00847457627118644,0.010169491525423728,0.001694915254237288,0.0,0.0,0.0,0.0,0.0,0.0,0.0,0.11330049261083744,0.18226600985221675,0.1986863711001642,0.1625615763546798,0.06568144499178982,0.06239737274220033,0.04433497536945813,0.011494252873563218,0.0180623973727422,0.019704433497536946,0.022988505747126436,0.019704433497536946,0.027914614121510674,0.029556650246305417,0.021346469622331693,0.0,0.0,0.0,0.0,0.0,0.060755336617405585,0.26108374384236455,0.21018062397372742,0.20689655172413793,0.07717569786535304,0.021346469622331693,0.021346469622331693,0.024630541871921183,0.026272577996715927,0.042692939244663386,0.016420361247947456,0.013136288998357963,0.0016420361247947454,0.013136288998357963,0.003284072249589491,0.0,0.0,0.0,0.0,0.0,0.11330049261083744,0.35467980295566504,0.2660098522167488,0.11986863711001643,0.05582922824302135,0.04597701149425287,0.022988505747126436,0.006568144499178982,0.0016420361247947454,0.0049261083743842365,0.008210180623973728,0.0,0.0,0.0,0.0,0.0,0.0,0.0,0.0,0.0,0.2348111658456486,0.5402298850574713,0.2019704433497537,0.008210180623973728,0.0,0.003284072249589491,0.0,0.0,0.0,0.006568144499178982,0.0049261083743842365,0.0,0.0,0.0,0.0,0.0,0.0,0.0,0.0,0.0,0.2545155993431856,0.6765188834154351,0.06896551724137931,0.0,0.0,0.0,0.0,0.0,0.0,0.0,0.0,0.0,0.0,0.0,0.0,0.0,0.0,0.0,0.0,0.0,0.2019704433497537,0.6338259441707718,0.1592775041050903,0.0049261083743842365,0.0,0.0,0.0,0.0,0.0,0.0,0.0,0.0,0.0,0.0,0.0,0.0,0.0,0.0,0.0,0.0,0.3103448275862069,0.6091954022988506,0.07389162561576355,0.0,0.006568144499178982,0.0,0.0,0.0,0.0,0.0,0.0,0.0,0.0,0.0,0.0,0.0,0.0,0.0,0.0,0.0,0.30377668308702793,0.6880131362889984,0.008210180623973728,0.0,0.0,0.0,0.0,0.0,0.0,0.0,0.0,0.0,0.0,0.0,0.0,0.0,0.0,0.0,0.0,0.0,0.361247947454844,0.6157635467980296,0.022988505747126436,0.0,0.0,0.0,0.0,0.0,0.0,0.0,0.0,0.0,0.0,0.0,0.0,0.0,0.0,0.0,0.0,0.0,0.38095238095238093,0.6190476190476191,0.0,0.0,0.0,0.0,0.0,0.0,0.0,0.0,0.0,0.0,0.0,0.0,0.0,0.0,0.0,0.0,0.0,0.0,0.33004926108374383,0.6699507389162561,0.0,0.0,0.0,0.0,0.0,0.0,0.0,0.0,0.0,0.0,0.0,0.0,0.0,0.0,0.0,0.0,0.0,0.0,0.3448275862068966,0.6551724137931034,0.0,0.0,0.0,0.0,0.0,0.0,0.0,0.0,0.0,0.0,0.0,0.0,0.0,0.0,0.0,0.0,0.0,0.0,0.3284072249589491,0.6715927750410509,0.0,0.0,0.0,0.0,0.0,0.0,0.0,0.0,0.0,0.0,0.0,0.0,0.0,0.0,0.0,0.0,0.0,0.0,0.36288998357963875,0.6371100164203612,0.0,0.0,0.0,0.0,0.0,0.0,0.0,0.0,0.0,0.0,0.0,0.0,0.0,0.0,0.0,0.0,0.0,0.0,0.3169129720853859,0.6830870279146142,0.0,0.0,0.0,0.0,0.0,0.0,0.0,0.0,0.0,0.0,0.0,0.0,0.0,0.0,0.0,0.0,0.0,0.0,CO2
0.25308641975308643,0.3904320987654321,0.08796296296296297,0.047839506172839504,0.09567901234567901,0.007716049382716049,0.021604938271604937,0.024691358024691357,0.033950617283950615,0.006172839506172839,0.016975308641975308,0.012345679012345678,0.0015432098765432098,0.0,0.0,0.0,0.0,0.0,0.0,0.0,0.04393939393939394,0.22424242424242424,0.16515151515151516,0.18484848484848485,0.07272727272727272,0.07424242424242425,0.06666666666666667,0.06666666666666667,0.015151515151515152,0.010606060606060607,0.00909090909090909,0.010606060606060607,0.007575757575757576,0.006060606060606061,0.015151515151515152,0.022727272727272728,0.004545454545454545,0.0,0.0,0.0,0.09379727685325265,0.2632375189107413,0.12859304084720122,0.16338880484114976,0.05143721633888049,0.059001512859304085,0.048411497730711045,0.048411497730711045,0.02723146747352496,0.024205748865355523,0.03177004538577912,0.01361573373676248,0.018154311649016642,0.009077155824508321,0.007564296520423601,0.006051437216338881,0.006051437216338881,0.0,0.0,0.0,0.1422087745839637,0.3721633888048411,0.1800302571860817,0.17397881996974282,0.057488653555219364,0.025718608169440244,0.009077155824508321,0.0030257186081694403,0.0,0.0,0.0030257186081694403,0.006051437216338881,0.007564296520423601,0.01059001512859304,0.006051437216338881,0.0030257186081694403,0.0,0.0,0.0,0.0,0.2102874432677761,0.5718608169440242,0.18456883509833585,0.01361573373676248,0.0015128593040847202,0.0015128593040847202,0.0,0.0,0.0,0.0,0.0,0.0030257186081694403,0.0015128593040847202,0.006051437216338881,0.0045385779122541605,0.0015128593040847202,0.0,0.0,0.0,0.0,0.24962178517397882,0.6671709531013615,0.07564296520423601,0.0030257186081694403,0.0030257186081694403,0.0015128593040847202,0.0,0.0,0.0,0.0,0.0,0.0,0.0,0.0,0.0,0.0,0.0,0.0,0.0,0.0,0.31164901664145234,0.6369137670196672,0.05143721633888049,0.0,0.0,0.0,0.0,0.0,0.0,0.0,0.0,0.0,0.0,0.0,0.0,0.0,0.0,0.0,0.0,0.0,0.3464447806354009,0.6036308623298033,0.046898638426626324,0.0,0.0030257186081694403,0.0,0.0,0.0,0.0,0.0,0.0,0.0,0.0,0.0,0.0,0.0,0.0,0.0,0.0,0.0,0.3358547655068079,0.6354009077155824,0.028744326777609682,0.0,0.0,0.0,0.0,0.0,0.0,0.0,0.0,0.0,0.0,0.0,0.0,0.0,0.0,0.0,0.0,0.0,0.35703479576399394,0.5703479576399395,0.07261724659606657,0.0,0.0,0.0,0.0,0.0,0.0,0.0,0.0,0.0,0.0,0.0,0.0,0.0,0.0,0.0,0.0,0.0,0.37821482602118,0.6217851739788199,0.0,0.0,0.0,0.0,0.0,0.0,0.0,0.0,0.0,0.0,0.0,0.0,0.0,0.0,0.0,0.0,0.0,0.0,0.39939485627836613,0.5885022692889561,0.012102874432677761,0.0,0.0,0.0,0.0,0.0,0.0,0.0,0.0,0.0,0.0,0.0,0.0,0.0,0.0,0.0,0.0,0.0,0.37821482602118,0.6217851739788199,0.0,0.0,0.0,0.0,0.0,0.0,0.0,0.0,0.0,0.0,0.0,0.0,0.0,0.0,0.0,0.0,0.0,0.0,0.367624810892587,0.632375189107413,0.0,0.0,0.0,0.0,0.0,0.0,0.0,0.0,0.0,0.0,0.0,0.0,0.0,0.0,0.0,0.0,0.0,0.0,0.37367624810892586,0.6263237518910741,0.0,0.0,0.0,0.0,0.0,0.0,0.0,0.0,0.0,0.0,0.0,0.0,0.0,0.0,0.0,0.0,0.0,0.0,0.34190620272314676,0.6580937972768532,0.0,0.0,0.0,0.0,0.0,0.0,0.0,0.0,0.0,0.0,0.0,0.0,0.0,0.0,0.0,0.0,0.0,0.0,CO2
