1 6
1 9
1 11
1 13
1 20
1 21
1 25
1 26
1 28
1 32
1 47
2 3
2 10
2 14
2 31
2 33
2 36
2 38
3 2
3 5
3 10
3 17
3 27
3 31
3 38
3 40
3 43
4 7
4 18
4 48
5 3
5 10
5 17
5 27
5 31
5 40
5 43
6 1
6 9
6 17
6 20
6 25
6 28
6 32
6 39
6 44
6 47
7 4
7 18
7 19
7 22
7 35
7 42
7 48
8 12
8 14
8 33
8 34
8 36
8 49
8 52
9 1
9 6
9 11
9 20
9 25
9 26
9 28
9 32
9 39
9 44
9 47
10 2
10 3
10 5
10 14
10 27
10 31
10 36
10 38
10 43
10 53
11 1
11 9
11 13
11 20
11 21
11 26
11 28
11 30
11 32
11 47
11 55
12 8
12 14
12 16
12 29
12 33
12 34
12 41
12 49
12 52
13 1
13 11
13 15
13 20
13 21
13 26
13 30
13 32
13 45
13 55
14 2
14 8
14 10
14 12
14 33
14 34
14 36
14 38
14 49
14 58
15 13
15 21
15 30
15 45
16 12
16 23
16 24
16 29
16 34
16 37
16 41
16 56
17 3
17 5
17 6
17 25
17 27
17 31
17 39
17 40
17 43
17 44
17 54
18 4
18 7
18 19
18 22
18 35
18 42
18 48
19 7
19 18
19 22
19 35
19 42
19 46
19 59
20 1
20 6
20 9
20 11
20 13
20 21
20 25
20 26
20 28
20 32
20 39
20 44
20 47
20 55
20 60
21 1
21 11
21 13
21 15
21 20
21 26
21 30
21 32
21 45
21 55
21 62
21 64
22 7
22 18
22 19
22 35
22 42
22 46
22 48
22 59
22 70
23 16
23 24
23 29
23 37
23 41
23 50
23 51
23 56
23 67
24 16
24 23
24 29
24 37
24 50
24 51
24 57
24 67
24 68
25 1
25 6
25 9
25 17
25 20
25 27
25 28
25 32
25 39
25 40
25 44
25 47
25 54
25 60
25 63
26 1
26 9
26 11
26 13
26 20
26 21
26 28
26 30
26 32
26 39
26 45
26 47
26 55
26 64
27 3
27 5
27 10
27 17
27 25
27 31
27 38
27 40
27 43
27 44
27 54
27 61
27 63
27 73
28 1
28 6
28 9
28 11
28 20
28 25
28 26
28 32
28 39
28 44
28 47
28 55
28 60
28 69
29 12
29 16
29 23
29 24
29 34
29 37
29 41
29 50
29 52
29 56
29 72
29 75
30 11
30 13
30 15
30 21
30 26
30 45
30 62
30 64
30 65
31 2
31 3
31 5
31 10
31 17
31 27
31 36
31 38
31 40
31 43
31 53
31 54
31 61
31 73
32 1
32 6
32 9
32 11
32 13
32 20
32 21
32 25
32 26
32 28
32 39
32 44
32 47
32 55
32 60
32 69
33 2
33 8
33 12
33 14
33 34
33 36
33 38
33 49
33 52
33 53
33 58
33 66
33 71
34 8
34 12
34 14
34 16
34 29
34 33
34 41
34 49
34 52
34 56
34 66
34 75
35 7
35 18
35 19
35 22
35 42
35 46
35 59
35 70
35 78
36 2
36 8
36 10
36 14
36 31
36 33
36 38
36 43
36 49
36 53
36 58
36 61
36 71
36 77
37 16
37 23
37 24
37 29
37 41
37 50
37 51
37 56
37 57
37 67
37 68
37 72
38 2
38 3
38 10
38 14
38 27
38 31
38 33
38 36
38 40
38 43
38 53
38 58
38 61
38 71
38 77
38 80
39 6
39 9
39 17
39 20
39 25
39 26
39 28
39 32
39 40
39 44
39 47
39 55
39 60
39 63
39 69
40 3
40 5
40 17
40 25
40 27
40 31
40 38
40 39
40 43
40 44
40 54
40 61
40 63
40 73
40 79
40 80
41 12
41 16
41 23
41 29
41 34
41 37
41 50
41 52
41 56
41 67
41 72
41 75
42 7
42 18
42 19
42 22
42 35
42 46
42 48
42 59
42 70
42 74
42 78
43 3
43 5
43 10
43 17
43 27
43 31
43 36
43 38
43 40
43 53
43 54
43 61
43 63
43 73
43 77
43 80
44 6
44 9
44 17
44 20
44 25
44 27
44 28
44 32
44 39
44 40
44 47
44 54
44 60
44 63
44 69
44 79
45 13
45 15
45 21
45 26
45 30
45 55
45 62
45 64
45 65
45 86
45 92
46 19
46 22
46 35
46 42
46 59
46 70
46 78
46 93
47 1
47 6
47 9
47 11
47 20
47 25
47 26
47 28
47 32
47 39
47 44
47 55
47 60
47 64
47 69
47 84
47 91
48 4
48 7
48 18
48 22
48 42
48 51
48 57
48 74
48 76
48 83
48 87
48 96
49 8
49 12
49 14
49 33
49 34
49 36
49 52
49 58
49 66
49 71
49 75
49 88
49 89
50 23
50 24
50 29
50 37
50 41
50 51
50 56
50 57
50 67
50 68
50 72
50 81
50 85
51 23
51 24
51 37
51 48
51 50
51 56
51 57
51 67
51 68
51 76
51 81
51 87
52 8
52 12
52 29
52 33
52 34
52 41
52 49
52 56
52 58
52 66
52 71
52 75
52 88
52 90
53 10
53 31
53 33
53 36
53 38
53 43
53 58
53 61
53 71
53 73
53 77
53 80
53 89
53 95
54 17
54 25
54 27
54 31
54 40
54 43
54 44
54 61
54 63
54 73
54 79
54 80
54 99
55 11
55 13
55 20
55 21
55 26
55 28
55 32
55 39
55 45
55 47
55 60
55 62
55 64
55 69
55 82
55 84
55 100
56 16
56 23
56 29
56 34
56 37
56 41
56 50
56 51
56 52
56 67
56 68
56 72
56 75
56 85
56 90
56 102
57 24
57 37
57 48
57 50
57 51
57 67
57 68
57 74
57 76
57 81
57 87
57 98
58 14
58 33
58 36
58 38
58 49
58 52
58 53
58 61
58 66
58 71
58 77
58 88
58 89
58 95
59 19
59 22
59 35
59 42
59 46
59 70
59 74
59 78
59 83
59 93
59 97
60 20
60 25
60 28
60 32
60 39
60 44
60 47
60 55
60 63
60 69
60 79
60 84
60 91
60 94
61 27
61 31
61 36
61 38
61 40
61 43
61 53
61 54
61 58
61 63
61 71
61 73
61 77
61 79
61 80
61 95
61 104
61 106
62 21
62 30
62 45
62 55
62 64
62 65
62 82
62 86
62 92
63 25
63 27
63 39
63 40
63 43
63 44
63 54
63 60
63 61
63 69
63 73
63 79
63 80
63 91
63 94
63 99
63 113
64 21
64 26
64 30
64 45
64 47
64 55
64 62
64 65
64 69
64 82
64 84
64 86
64 100
64 110
65 30
65 45
65 62
65 64
65 82
65 86
65 92
66 33
66 34
66 49
66 52
66 58
66 71
66 75
66 88
66 89
66 90
66 111
67 23
67 24
67 37
67 41
67 50
67 51
67 56
67 57
67 68
67 72
67 76
67 81
67 85
67 98
67 101
67 102
67 105
68 24
68 37
68 50
68 51
68 56
68 57
68 67
68 72
68 76
68 81
68 85
68 87
68 98
68 101
68 105
69 28
69 32
69 39
69 44
69 47
69 55
69 60
69 63
69 64
69 82
69 84
69 91
69 94
69 100
69 112
69 114
70 22
70 35
70 42
70 46
70 59
70 74
70 78
70 83
70 93
70 96
70 97
70 103
70 108
71 33
71 36
71 38
71 49
71 52
71 53
71 58
71 61
71 66
71 77
71 88
71 89
71 95
71 115
72 29
72 37
72 41
72 50
72 56
72 67
72 68
72 75
72 81
72 85
72 90
72 102
72 105
73 27
73 31
73 40
73 43
73 53
73 54
73 61
73 63
73 77
73 79
73 80
73 94
73 99
73 104
73 106
73 113
73 119
74 42
74 48
74 57
74 59
74 70
74 76
74 83
74 87
74 96
74 98
74 103
74 107
74 109
75 29
75 34
75 41
75 49
75 52
75 56
75 66
75 72
75 85
75 88
75 90
75 102
75 111
75 120
76 48
76 51
76 57
76 67
76 68
76 74
76 81
76 83
76 87
76 96
76 98
76 101
76 107
77 36
77 38
77 43
77 53
77 58
77 61
77 71
77 73
77 80
77 89
77 95
77 106
78 35
78 42
78 46
78 59
78 70
78 93
78 97
78 108
79 40
79 44
79 54
79 60
79 61
79 63
79 73
79 80
79 91
79 94
79 99
79 104
79 112
79 113
79 116
79 125
80 38
80 40
80 43
80 53
80 54
80 61
80 63
80 73
80 77
80 79
80 95
80 99
80 104
80 106
80 119
81 50
81 51
81 57
81 67
81 68
81 72
81 76
81 85
81 87
81 98
81 101
81 102
81 105
81 107
81 121
82 55
82 62
82 64
82 65
82 69
82 84
82 86
82 91
82 92
82 100
82 110
82 114
82 117
82 118
83 48
83 59
83 70
83 74
83 76
83 87
83 93
83 96
83 97
83 103
83 107
83 108
83 109
83 123
83 130
84 47
84 55
84 60
84 64
84 69
84 82
84 86
84 91
84 94
84 100
84 110
84 112
84 114
84 132
85 50
85 56
85 67
85 68
85 72
85 75
85 81
85 90
85 101
85 102
85 105
85 120
86 45
86 62
86 64
86 65
86 82
86 84
86 92
86 100
86 110
86 117
86 118
86 133
87 48
87 51
87 57
87 68
87 74
87 76
87 81
87 83
87 96
87 98
87 101
87 103
87 107
87 109
87 121
87 123
88 49
88 52
88 58
88 66
88 71
88 75
88 89
88 90
88 95
88 111
88 115
88 120
88 126
88 128
89 49
89 53
89 58
89 66
89 71
89 77
89 88
89 95
89 106
89 111
89 115
89 122
89 126
89 128
90 52
90 56
90 66
90 72
90 75
90 85
90 88
90 102
90 111
90 120
90 126
90 134
91 47
91 60
91 63
91 69
91 79
91 82
91 84
91 94
91 99
91 100
91 110
91 112
91 113
91 114
91 116
91 124
91 132
92 45
92 62
92 65
92 82
92 86
92 117
92 118
93 46
93 59
93 70
93 78
93 83
93 96
93 97
93 103
93 108
93 109
93 127
93 130
93 131
94 60
94 63
94 69
94 73
94 79
94 84
94 91
94 99
94 112
94 113
94 114
94 116
94 124
94 125
95 53
95 58
95 61
95 71
95 77
95 80
95 88
95 89
95 104
95 106
95 115
95 122
95 128
95 129
95 135
96 48
96 70
96 74
96 76
96 83
96 87
96 93
96 98
96 103
96 107
96 109
96 123
96 130
96 136
97 59
97 70
97 78
97 83
97 93
97 103
97 108
97 127
97 131
98 57
98 67
98 68
98 74
98 76
98 81
98 87
98 96
98 101
98 105
98 107
98 109
98 121
98 123
98 136
98 138
99 54
99 63
99 73
99 79
99 80
99 91
99 94
99 104
99 112
99 113
99 116
99 119
99 124
99 125
99 147
100 55
100 64
100 69
100 82
100 84
100 86
100 91
100 110
100 112
100 114
100 118
100 132
100 142
100 143
101 67
101 68
101 76
101 81
101 85
101 87
101 98
101 102
101 105
101 107
101 121
101 137
101 138
102 56
102 67
102 72
102 75
102 81
102 85
102 90
102 101
102 105
102 120
102 137
102 141
102 145
103 70
103 74
103 83
103 87
103 93
103 96
103 97
103 107
103 108
103 109
103 123
103 127
103 130
103 136
103 139
104 61
104 73
104 79
104 80
104 95
104 99
104 106
104 113
104 116
104 119
104 125
104 129
104 135
105 67
105 68
105 72
105 81
105 85
105 98
105 101
105 102
105 120
105 121
105 137
105 145
106 61
106 73
106 77
106 80
106 89
106 95
106 104
106 115
106 119
106 122
106 129
106 135
106 144
106 149
107 74
107 76
107 81
107 83
107 87
107 96
107 98
107 101
107 103
107 109
107 121
107 123
107 136
107 138
108 70
108 78
108 83
108 93
108 97
108 103
108 109
108 127
108 130
108 131
108 139
108 146
109 74
109 83
109 87
109 93
109 96
109 98
109 103
109 107
109 108
109 123
109 127
109 130
109 136
109 139
110 64
110 82
110 84
110 86
110 91
110 100
110 114
110 117
110 118
110 132
110 133
110 142
110 143
110 152
111 66
111 75
111 88
111 89
111 90
111 115
111 120
111 122
111 126
111 128
111 134
111 151
112 69
112 79
112 84
112 91
112 94
112 99
112 100
112 113
112 114
112 116
112 124
112 125
112 132
112 142
112 148
112 150
113 63
113 73
113 79
113 91
113 94
113 99
113 104
113 112
113 116
113 119
113 124
113 125
113 147
113 148
114 69
114 82
114 84
114 91
114 94
114 100
114 110
114 112
114 116
114 124
114 132
114 142
114 143
114 150
114 152
114 154
115 71
115 88
115 89
115 95
115 106
115 111
115 122
115 126
115 128
115 134
115 135
115 144
115 151
116 79
116 91
116 94
116 99
116 104
116 112
116 113
116 114
116 124
116 125
116 142
116 147
116 148
116 150
117 82
117 86
117 92
117 110
117 118
117 133
117 140
117 161
118 82
118 86
118 92
118 100
118 110
118 117
118 132
118 133
118 140
118 143
118 161
118 165
119 73
119 80
119 99
119 104
119 106
119 113
119 125
119 129
119 135
119 147
119 149
119 153
119 163
119 167
120 75
120 85
120 88
120 90
120 102
120 105
120 111
120 126
120 134
120 141
120 145
120 159
120 160
121 81
121 87
121 98
121 101
121 105
121 107
121 123
121 136
121 137
121 138
121 145
121 155
121 158
122 89
122 95
122 106
122 111
122 115
122 126
122 128
122 129
122 135
122 144
122 149
122 151
122 153
122 168
123 83
123 87
123 96
123 98
123 103
123 107
123 109
123 121
123 130
123 136
123 138
123 139
123 155
123 156
123 157
123 169
124 91
124 94
124 99
124 112
124 113
124 114
124 116
124 125
124 132
124 142
124 147
124 148
124 150
124 152
124 154
124 170
125 79
125 94
125 99
125 104
125 112
125 113
125 116
125 119
125 124
125 129
125 147
125 148
125 150
125 167
126 88
126 89
126 90
126 111
126 115
126 120
126 122
126 128
126 134
126 144
126 151
126 159
126 171
127 93
127 97
127 103
127 108
127 109
127 130
127 131
127 139
127 146
127 156
127 162
128 88
128 89
128 95
128 111
128 115
128 122
128 126
128 134
128 135
128 144
128 151
128 159
128 171
128 172
129 95
129 104
129 106
129 119
129 122
129 125
129 135
129 144
129 147
129 149
129 153
129 163
129 167
129 168
130 83
130 93
130 96
130 103
130 108
130 109
130 123
130 127
130 131
130 136
130 139
130 146
130 156
130 157
130 162
130 169
130 174
131 93
131 97
131 108
131 127
131 130
131 139
131 146
131 162
131 178
132 84
132 91
132 100
132 110
132 112
132 114
132 118
132 124
132 133
132 142
132 143
132 150
132 152
132 154
132 164
132 165
132 170
133 86
133 110
133 117
133 118
133 132
133 140
133 143
133 152
133 161
133 164
133 165
133 179
134 90
134 111
134 115
134 120
134 126
134 128
134 141
134 151
134 159
134 160
134 171
134 173
135 95
135 104
135 106
135 115
135 119
135 122
135 128
135 129
135 144
135 149
135 151
135 153
135 163
135 168
135 172
135 176
135 182
136 96
136 98
136 103
136 107
136 109
136 121
136 123
136 130
136 138
136 139
136 155
136 156
136 157
136 169
136 175
136 184
137 101
137 102
137 105
137 121
137 138
137 141
137 145
137 155
137 158
137 166
138 98
138 101
138 107
138 121
138 123
138 136
138 137
138 145
138 155
138 157
138 158
138 166
138 175
139 103
139 108
139 109
139 123
139 127
139 130
139 131
139 136
139 146
139 156
139 157
139 162
139 169
139 174
139 178
139 183
140 117
140 118
140 133
140 161
140 165
140 186
141 102
141 120
141 134
141 137
141 145
141 159
141 160
141 166
141 173
141 177
142 100
142 110
142 112
142 114
142 116
142 124
142 132
142 143
142 148
142 150
142 152
142 154
142 164
142 170
142 180
143 100
143 110
143 114
143 118
143 132
143 133
143 142
143 150
143 152
143 154
143 164
143 165
143 170
143 179
143 188
144 106
144 115
144 122
144 126
144 128
144 129
144 135
144 149
144 151
144 153
144 168
144 171
144 172
144 176
144 182
145 102
145 105
145 120
145 121
145 137
145 138
145 141
145 155
145 158
145 160
145 166
145 177
145 185
146 108
146 127
146 130
146 131
146 139
146 156
146 162
146 174
146 178
146 183
147 99
147 113
147 116
147 119
147 124
147 125
147 129
147 148
147 150
147 153
147 163
147 167
147 189
148 112
148 113
148 116
148 124
148 125
148 142
148 147
148 150
148 154
148 167
148 170
148 180
149 106
149 119
149 122
149 129
149 135
149 144
149 151
149 153
149 163
149 167
149 168
149 172
149 176
149 181
149 182
149 194
150 112
150 114
150 116
150 124
150 125
150 132
150 142
150 143
150 147
150 148
150 152
150 154
150 170
150 180
151 111
151 115
151 122
151 126
151 128
151 134
151 135
151 144
151 149
151 159
151 168
151 171
151 172
151 176
151 187
151 192
152 110
152 114
152 124
152 132
152 133
152 142
152 143
152 150
152 154
152 164
152 165
152 170
152 179
152 180
152 188
152 193
152 195
153 119
153 122
153 129
153 135
153 144
153 147
153 149
153 163
153 167
153 168
153 176
153 181
153 182
153 189
153 194
154 114
154 124
154 132
154 142
154 143
154 148
154 150
154 152
154 164
154 170
154 180
154 188
154 195
155 121
155 123
155 136
155 137
155 138
155 145
155 157
155 158
155 166
155 169
155 175
155 184
155 190
155 191
156 123
156 127
156 130
156 136
156 139
156 146
156 157
156 162
156 169
156 174
156 178
156 183
156 184
156 197
157 123
157 130
157 136
157 138
157 139
157 155
157 156
157 158
157 169
157 174
157 175
157 184
157 190
157 199
158 121
158 137
158 138
158 145
158 155
158 157
158 166
158 175
158 185
158 190
158 191
159 120
159 126
159 128
159 134
159 141
159 151
159 160
159 171
159 173
159 177
159 187
159 196
160 120
160 134
160 141
160 145
160 159
160 166
160 173
160 177
160 185
160 196
160 201
161 117
161 118
161 133
161 140
161 164
161 165
161 179
161 186
162 127
162 130
162 131
162 139
162 146
162 156
162 174
162 178
162 183
162 197
162 200
162 204
163 119
163 129
163 135
163 147
163 149
163 153
163 167
163 168
163 176
163 181
163 182
163 189
163 194
163 198
164 132
164 133
164 142
164 143
164 152
164 154
164 161
164 165
164 170
164 179
164 186
164 188
164 193
164 195
165 118
165 132
165 133
165 140
165 143
165 152
165 161
165 164
165 179
165 186
165 188
165 193
165 208
166 137
166 138
166 141
166 145
166 155
166 158
166 160
166 173
166 175
166 177
166 185
166 191
166 201
166 205
167 119
167 125
167 129
167 147
167 148
167 149
167 153
167 163
167 168
167 181
167 182
167 189
167 198
168 122
168 129
168 135
168 144
168 149
168 151
168 153
168 163
168 167
168 171
168 172
168 176
168 181
168 182
168 192
168 194
168 198
169 123
169 130
169 136
169 139
169 155
169 156
169 157
169 174
169 175
169 183
169 184
169 190
169 197
169 199
169 206
170 124
170 132
170 142
170 143
170 148
170 150
170 152
170 154
170 164
170 179
170 180
170 188
170 193
170 195
170 203
171 126
171 128
171 134
171 144
171 151
171 159
171 168
171 172
171 173
171 176
171 187
171 192
171 196
171 202
172 128
172 135
172 144
172 149
172 151
172 168
172 171
172 176
172 182
172 187
172 192
172 194
172 202
173 134
173 141
173 159
173 160
173 166
173 171
173 177
173 185
173 187
173 196
173 201
173 202
173 209
174 130
174 139
174 146
174 156
174 157
174 162
174 169
174 178
174 183
174 184
174 197
174 199
174 200
174 204
174 213
175 136
175 138
175 155
175 157
175 158
175 166
175 169
175 184
175 190
175 191
175 199
175 206
176 135
176 144
176 149
176 151
176 153
176 163
176 168
176 171
176 172
176 181
176 182
176 187
176 192
176 194
176 198
176 214
177 141
177 145
177 159
177 160
177 166
177 173
177 185
177 196
177 201
177 205
177 209
178 131
178 139
178 146
178 156
178 162
178 174
178 183
178 197
178 200
178 204
179 133
179 143
179 152
179 161
179 164
179 165
179 170
179 186
179 188
179 193
179 195
179 208
179 211
179 212
180 142
180 148
180 150
180 152
180 154
180 170
180 188
180 195
180 203
180 207
180 215
181 149
181 153
181 163
181 167
181 168
181 176
181 182
181 189
181 194
181 198
181 210
181 214
182 135
182 144
182 149
182 153
182 163
182 167
182 168
182 172
182 176
182 181
182 189
182 192
182 194
182 198
182 214
183 139
183 146
183 156
183 162
183 169
183 174
183 178
183 184
183 197
183 199
183 200
183 204
183 213
184 136
184 155
184 156
184 157
184 169
184 174
184 175
184 183
184 190
184 191
184 197
184 199
184 206
184 218
185 145
185 158
185 160
185 166
185 173
185 177
185 191
185 196
185 201
185 205
185 220
185 223
186 140
186 161
186 164
186 165
186 179
186 188
186 193
186 208
186 211
186 221
187 151
187 159
187 171
187 172
187 173
187 176
187 192
187 196
187 202
187 209
188 143
188 152
188 154
188 164
188 165
188 170
188 179
188 180
188 186
188 193
188 195
188 203
188 208
188 211
188 212
188 215
188 221
189 147
189 153
189 163
189 167
189 181
189 182
189 194
189 198
189 207
189 210
189 216
189 224
190 155
190 157
190 158
190 169
190 175
190 184
190 191
190 199
190 206
190 218
190 219
191 155
191 158
191 166
191 175
191 184
191 185
191 190
191 205
191 206
191 219
191 223
192 151
192 168
192 171
192 172
192 176
192 182
192 187
192 194
192 202
192 214
192 217
192 229
193 152
193 164
193 165
193 170
193 179
193 186
193 188
193 195
193 208
193 211
193 212
193 221
194 149
194 153
194 163
194 168
194 172
194 176
194 181
194 182
194 189
194 192
194 198
194 214
194 217
194 226
195 152
195 154
195 164
195 170
195 179
195 180
195 188
195 193
195 203
195 207
195 208
195 212
195 215
195 221
195 236
196 159
196 160
196 171
196 173
196 177
196 185
196 187
196 201
196 202
196 209
196 220
196 222
196 232
197 156
197 162
197 169
197 174
197 178
197 183
197 184
197 199
197 200
197 204
197 213
197 218
197 225
197 227
197 228
197 230
198 163
198 167
198 168
198 176
198 181
198 182
198 189
198 194
198 210
198 214
198 217
198 224
198 226
198 235
199 157
199 169
199 174
199 175
199 183
199 184
199 190
199 197
199 200
199 206
199 213
199 218
199 227
199 230
199 231
199 244
200 162
200 174
200 178
200 183
200 197
200 199
200 204
200 213
200 225
200 227
200 228
200 230
200 237
201 160
201 166
201 173
201 177
201 185
201 196
201 202
201 205
201 209
201 220
201 222
201 223
201 240
201 246
202 171
202 172
202 173
202 187
202 192
202 196
202 201
202 209
202 217
202 222
202 229
202 232
203 170
203 180
203 188
203 195
203 207
203 212
203 215
203 216
203 234
203 236
204 162
204 174
204 178
204 183
204 197
204 200
204 213
204 225
204 228
204 230
204 237
205 166
205 177
205 185
205 191
205 201
205 219
205 220
205 222
205 223
205 240
205 242
206 169
206 175
206 184
206 190
206 191
206 199
206 218
206 219
206 231
206 249
207 180
207 189
207 195
207 203
207 210
207 215
207 216
207 224
207 233
207 234
207 247
208 165
208 179
208 186
208 188
208 193
208 195
208 211
208 212
208 221
208 238
208 239
208 241
209 173
209 177
209 187
209 196
209 201
209 202
209 220
209 222
209 232
209 240
209 246
209 253
210 181
210 189
210 198
210 207
210 216
210 224
210 226
210 233
210 235
210 247
211 179
211 186
211 188
211 193
211 208
211 212
211 221
211 238
211 239
211 241
211 254
212 179
212 188
212 193
212 195
212 203
212 208
212 211
212 215
212 221
212 234
212 236
212 239
212 241
212 251
212 252
213 174
213 183
213 197
213 199
213 200
213 204
213 218
213 225
213 227
213 228
213 230
213 237
213 244
213 250
214 176
214 181
214 182
214 192
214 194
214 198
214 217
214 224
214 226
214 229
214 235
214 243
214 248
214 258
215 180
215 188
215 195
215 203
215 207
215 212
215 216
215 221
215 234
215 236
215 247
215 251
215 257
216 189
216 203
216 207
216 210
216 215
216 224
216 233
216 234
216 235
216 247
216 257
216 259
217 192
217 194
217 198
217 202
217 214
217 226
217 229
217 232
217 243
217 248
217 258
217 261
218 184
218 190
218 197
218 199
218 206
218 213
218 219
218 227
218 230
218 231
218 244
218 249
218 263
219 190
219 191
219 205
219 206
219 218
219 223
219 231
219 242
219 245
219 249
219 256
219 268
220 185
220 196
220 201
220 205
220 209
220 222
220 223
220 240
220 242
220 245
220 246
220 253
220 256
220 264
221 186
221 188
221 193
221 195
221 208
221 211
221 212
221 215
221 236
221 238
221 239
221 241
221 252
221 254
222 196
222 201
222 202
222 205
222 209
222 220
222 223
222 232
222 240
222 242
222 246
222 253
222 264
223 185
223 191
223 201
223 205
223 219
223 220
223 222
223 240
223 242
223 245
223 246
223 256
223 264
224 189
224 198
224 207
224 210
224 214
224 216
224 226
224 233
224 235
224 243
224 247
224 255
224 259
224 260
225 197
225 200
225 204
225 213
225 227
225 228
225 230
225 237
225 244
225 250
225 262
225 266
226 194
226 198
226 210
226 214
226 217
226 224
226 229
226 233
226 235
226 243
226 248
226 255
226 258
226 270
227 197
227 199
227 200
227 213
227 218
227 225
227 228
227 230
227 231
227 237
227 244
227 249
227 250
227 263
227 266
228 197
228 200
228 204
228 213
228 225
228 227
228 230
228 237
228 250
228 262
228 266
229 192
229 202
229 214
229 217
229 226
229 232
229 243
229 248
229 258
229 261
229 269
229 273
230 197
230 199
230 200
230 204
230 213
230 218
230 225
230 227
230 228
230 237
230 244
230 250
230 262
230 266
231 199
231 206
231 218
231 219
231 227
231 244
231 245
231 249
231 263
231 268
231 276
232 196
232 202
232 209
232 217
232 222
232 229
232 246
232 248
232 253
232 261
232 265
232 269
233 207
233 210
233 216
233 224
233 226
233 234
233 235
233 247
233 255
233 257
233 259
233 260
233 270
233 274
234 203
234 207
234 212
234 215
234 216
234 233
234 236
234 247
234 251
234 257
234 259
234 267
234 277
235 198
235 210
235 214
235 216
235 224
235 226
235 233
235 243
235 247
235 255
235 258
235 259
235 260
235 270
235 274
236 195
236 203
236 212
236 215
236 221
236 234
236 239
236 247
236 251
236 252
236 257
236 267
236 271
236 277
237 200
237 204
237 213
237 225
237 227
237 228
237 230
237 250
237 262
237 266
238 208
238 211
238 221
238 239
238 241
238 254
238 286
239 208
239 211
239 212
239 221
239 236
239 238
239 241
239 251
239 252
239 254
239 271
239 284
240 201
240 205
240 209
240 220
240 222
240 223
240 242
240 245
240 246
240 253
240 256
240 264
240 272
240 275
240 285
241 208
241 211
241 212
241 221
241 238
241 239
241 252
241 254
241 271
241 284
242 205
242 219
242 220
242 222
242 223
242 240
242 245
242 246
242 256
242 264
242 272
242 280
242 285
243 214
243 217
243 224
243 226
243 229
243 235
243 248
243 255
243 258
243 261
243 270
243 273
243 281
244 199
244 213
244 218
244 225
244 227
244 230
244 231
244 249
244 250
244 263
244 266
244 283
245 219
245 220
245 223
245 231
245 240
245 242
245 249
245 256
245 264
245 268
245 272
245 276
245 280
245 282
246 201
246 209
246 220
246 222
246 223
246 232
246 240
246 242
246 253
246 256
246 264
246 265
246 272
246 275
246 278
246 285
246 291
247 207
247 210
247 215
247 216
247 224
247 233
247 234
247 235
247 236
247 251
247 255
247 257
247 259
247 260
247 267
247 274
247 277
247 279
247 288
247 295
248 214
248 217
248 226
248 229
248 232
248 243
248 258
248 261
248 269
248 273
248 281
248 287
248 294
249 206
249 218
249 219
249 227
249 231
249 244
249 245
249 256
249 263
249 268
249 276
249 282
249 283
250 213
250 225
250 227
250 228
250 230
250 237
250 244
250 262
250 266
250 293
251 212
251 215
251 234
251 236
251 239
251 247
251 252
251 257
251 259
251 267
251 271
251 277
251 292
251 296
252 212
252 221
252 236
252 239
252 241
252 251
252 254
252 267
252 271
252 284
252 292
252 298
253 209
253 220
253 222
253 232
253 240
253 246
253 264
253 265
253 269
253 272
253 275
253 278
253 285
253 291
254 211
254 221
254 238
254 239
254 241
254 252
254 271
254 284
254 286
254 290
255 224
255 226
255 233
255 235
255 243
255 247
255 258
255 259
255 260
255 270
255 274
255 281
255 288
255 289
255 300
256 219
256 220
256 223
256 240
256 242
256 245
256 246
256 249
256 264
256 268
256 272
256 276
256 280
256 282
256 285
257 215
257 216
257 233
257 234
257 236
257 247
257 251
257 259
257 260
257 267
257 277
257 279
257 295
257 296
258 214
258 217
258 226
258 229
258 235
258 243
258 248
258 255
258 260
258 261
258 270
258 273
258 274
258 281
258 287
258 289
258 294
258 300
258 302
259 216
259 224
259 233
259 234
259 235
259 247
259 251
259 255
259 257
259 260
259 267
259 274
259 277
259 279
259 288
259 295
260 224
260 233
260 235
260 247
260 255
260 257
260 258
260 259
260 270
260 274
260 279
260 288
260 289
260 305
261 217
261 229
261 232
261 243
261 248
261 258
261 265
261 269
261 273
261 281
261 287
261 294
261 303
262 225
262 228
262 230
262 237
262 250
262 266
262 297
263 218
263 227
263 231
263 244
263 249
263 268
263 276
263 282
263 283
263 293
263 299
264 220
264 222
264 223
264 240
264 242
264 245
264 246
264 253
264 256
264 265
264 272
264 275
264 278
264 280
264 285
264 291
264 304
265 232
265 246
265 253
265 261
265 264
265 269
265 273
265 275
265 278
265 287
265 291
265 307
266 225
266 227
266 228
266 230
266 237
266 244
266 250
266 262
266 293
266 297
266 308
267 234
267 236
267 247
267 251
267 252
267 257
267 259
267 271
267 277
267 279
267 292
267 295
267 296
268 219
268 231
268 245
268 249
268 256
268 263
268 276
268 280
268 282
268 283
268 299
268 309
269 229
269 232
269 248
269 253
269 261
269 265
269 273
269 278
269 281
269 287
269 294
269 303
269 311
269 314
270 226
270 233
270 235
270 243
270 255
270 258
270 260
270 274
270 281
270 288
270 289
270 294
270 300
270 302
270 315
271 236
271 239
271 241
271 251
271 252
271 254
271 267
271 277
271 284
271 290
271 292
271 296
271 298
271 313
271 318
272 240
272 242
272 245
272 246
272 253
272 256
272 264
272 275
272 280
272 282
272 285
272 291
272 304
272 310
273 229
273 243
273 248
273 258
273 261
273 265
273 269
273 278
273 281
273 287
273 294
273 302
273 303
273 311
274 233
274 235
274 247
274 255
274 258
274 259
274 260
274 270
274 279
274 288
274 289
274 295
274 300
274 305
274 315
275 240
275 246
275 253
275 264
275 265
275 272
275 278
275 285
275 291
275 304
275 307
275 310
276 231
276 245
276 249
276 256
276 263
276 268
276 280
276 282
276 283
276 293
276 299
276 306
276 309
276 326
276 327
277 234
277 236
277 247
277 251
277 257
277 259
277 267
277 271
277 279
277 288
277 292
277 295
277 296
277 323
277 325
278 246
278 253
278 264
278 265
278 269
278 273
278 275
278 285
278 287
278 291
278 307
278 310
278 311
278 314
279 247
279 257
279 259
279 260
279 267
279 274
279 277
279 288
279 289
279 295
279 296
279 305
279 322
279 323
280 242
280 245
280 256
280 264
280 268
280 272
280 276
280 282
280 285
280 304
280 309
280 317
280 324
281 243
281 248
281 255
281 258
281 261
281 269
281 270
281 273
281 287
281 289
281 294
281 300
281 302
281 303
281 311
281 320
281 321
282 245
282 249
282 256
282 263
282 268
282 272
282 276
282 280
282 283
282 299
282 304
282 309
282 317
282 326
283 244
283 249
283 263
283 268
283 276
283 282
283 293
283 299
283 306
283 312
283 327
284 239
284 241
284 252
284 254
284 271
284 286
284 290
284 292
284 298
284 301
284 313
284 316
284 318
285 240
285 242
285 246
285 253
285 256
285 264
285 272
285 275
285 278
285 280
285 291
285 304
285 307
285 310
285 317
285 324
285 332
286 238
286 254
286 284
286 290
286 298
286 301
286 316
286 329
286 330
287 248
287 258
287 261
287 265
287 269
287 273
287 278
287 281
287 294
287 302
287 303
287 311
287 314
287 321
287 333
288 247
288 255
288 259
288 260
288 270
288 274
288 277
288 279
288 289
288 295
288 300
288 305
288 315
288 322
288 323
288 335
288 343
289 255
289 258
289 260
289 270
289 274
289 279
289 281
289 288
289 300
289 302
289 305
289 315
289 320
289 322
289 335
290 254
290 271
290 284
290 286
290 298
290 301
290 316
290 318
290 329
290 330
290 338
291 246
291 253
291 264
291 265
291 272
291 275
291 278
291 285
291 304
291 307
291 310
291 324
291 332
291 336
292 251
292 252
292 267
292 271
292 277
292 284
292 295
292 296
292 298
292 313
292 316
292 318
292 325
292 328
292 331
293 250
293 263
293 266
293 276
293 283
293 297
293 299
293 306
293 308
293 312
293 327
293 345
293 346
294 248
294 258
294 261
294 269
294 270
294 273
294 281
294 287
294 300
294 302
294 303
294 311
294 314
294 320
294 321
294 333
295 247
295 257
295 259
295 267
295 274
295 277
295 279
295 288
295 292
295 296
295 305
295 322
295 323
295 325
295 344
296 251
296 257
296 267
296 271
296 277
296 279
296 292
296 295
296 298
296 305
296 313
296 318
296 323
296 325
296 328
296 331
296 344
297 262
297 266
297 293
297 308
297 312
297 319
297 337
298 252
298 271
298 284
298 286
298 290
298 292
298 296
298 301
298 313
298 316
298 318
298 328
298 329
298 331
298 338
299 263
299 268
299 276
299 282
299 283
299 293
299 306
299 309
299 317
299 326
299 327
299 340
299 342
299 346
300 255
300 258
300 270
300 274
300 281
300 288
300 289
300 294
300 302
300 303
300 305
300 315
300 320
300 321
300 322
300 335
300 341
301 284
301 286
301 290
301 298
301 316
301 329
301 330
301 338
302 258
302 270
302 273
302 281
302 287
302 289
302 294
302 300
302 303
302 311
302 315
302 320
302 321
302 333
302 335
302 341
302 347
302 353
303 261
303 269
303 273
303 281
303 287
303 294
303 300
303 302
303 311
303 314
303 320
303 321
303 333
303 339
303 347
304 264
304 272
304 275
304 280
304 282
304 285
304 291
304 309
304 310
304 317
304 324
304 332
304 334
304 351
305 260
305 274
305 279
305 288
305 289
305 295
305 296
305 300
305 315
305 322
305 323
305 325
305 335
305 343
305 344
305 352
306 276
306 283
306 293
306 299
306 308
306 312
306 326
306 327
306 337
306 342
306 345
306 346
307 265
307 275
307 278
307 285
307 291
307 310
307 311
307 314
307 332
307 336
307 339
308 266
308 293
308 297
308 306
308 312
308 319
308 337
308 345
308 346
309 268
309 276
309 280
309 282
309 299
309 304
309 317
309 324
309 326
309 327
309 334
309 340
309 357
310 272
310 275
310 278
310 285
310 291
310 304
310 307
310 314
310 317
310 324
310 332
310 334
310 336
310 351
310 358
311 269
311 273
311 278
311 281
311 287
311 294
311 302
311 303
311 307
311 314
311 321
311 333
311 339
311 347
311 356
311 359
312 283
312 293
312 297
312 306
312 308
312 319
312 327
312 337
312 342
312 345
312 346
313 271
313 284
313 292
313 296
313 298
313 316
313 318
313 325
313 328
313 331
313 338
313 349
313 350
314 269
314 278
314 287
314 294
314 303
314 307
314 310
314 311
314 321
314 333
314 336
314 339
314 356
314 359
315 270
315 274
315 288
315 289
315 300
315 302
315 305
315 320
315 321
315 322
315 335
315 341
315 343
315 352
315 353
316 284
316 286
316 290
316 292
316 298
316 301
316 313
316 318
316 328
316 329
316 330
316 331
316 338
316 348
316 350
317 280
317 282
317 285
317 299
317 304
317 309
317 310
317 324
317 326
317 327
317 332
317 334
317 340
317 351
317 357
318 271
318 284
318 290
318 292
318 296
318 298
318 313
318 316
318 325
318 328
318 329
318 331
318 338
318 348
318 349
318 350
319 297
319 308
319 312
319 337
319 345
320 281
320 289
320 294
320 300
320 302
320 303
320 315
320 321
320 322
320 333
320 335
320 341
320 347
320 352
320 353
321 281
321 287
321 294
321 300
321 302
321 303
321 311
321 314
321 315
321 320
321 333
321 339
321 341
321 347
321 353
321 359
322 279
322 288
322 289
322 295
322 300
322 305
322 315
322 320
322 323
322 325
322 335
322 341
322 343
322 344
322 352
322 354
323 277
323 279
323 288
323 295
323 296
323 305
323 322
323 325
323 328
323 335
323 343
323 344
323 349
323 354
324 280
324 285
324 291
324 304
324 309
324 310
324 317
324 332
324 334
324 336
324 340
324 351
324 357
325 277
325 292
325 295
325 296
325 305
325 313
325 318
325 322
325 323
325 328
325 331
325 344
325 349
325 354
326 276
326 282
326 299
326 306
326 309
326 317
326 327
326 334
326 340
326 342
326 346
326 355
326 357
327 276
327 283
327 293
327 299
327 306
327 309
327 312
327 317
327 326
327 340
327 342
327 345
327 346
327 355
328 292
328 296
328 298
328 313
328 316
328 318
328 323
328 325
328 331
328 338
328 344
328 349
328 354
329 286
329 290
329 298
329 301
329 316
329 318
329 330
329 338
329 348
329 350
330 286
330 290
330 301
330 316
330 329
330 338
330 348
330 350
331 292
331 296
331 298
331 313
331 316
331 318
331 325
331 328
331 338
331 349
331 350
332 285
332 291
332 304
332 307
332 310
332 317
332 324
332 334
332 336
332 351
332 357
332 358
333 287
333 294
333 302
333 303
333 311
333 314
333 320
333 321
333 339
333 341
333 347
333 353
333 356
333 359
334 304
334 309
334 310
334 317
334 324
334 326
334 332
334 340
334 351
334 357
335 288
335 289
335 300
335 302
335 305
335 315
335 320
335 322
335 323
335 341
335 343
335 344
335 352
335 353
336 291
336 307
336 310
336 314
336 324
336 332
336 339
336 351
336 356
336 358
337 297
337 306
337 308
337 312
337 319
337 345
337 346
338 290
338 298
338 301
338 313
338 316
338 318
338 328
338 329
338 330
338 331
338 348
338 349
338 350
339 303
339 307
339 311
339 314
339 321
339 333
339 336
339 347
339 356
339 359
340 299
340 309
340 317
340 324
340 326
340 327
340 334
340 342
340 355
340 357
341 300
341 302
341 315
341 320
341 321
341 322
341 333
341 335
341 343
341 347
341 352
341 353
342 299
342 306
342 312
342 326
342 327
342 340
342 345
342 346
342 355
343 288
343 305
343 315
343 322
343 323
343 335
343 341
343 344
343 352
343 354
344 295
344 296
344 305
344 322
344 323
344 325
344 328
344 335
344 343
344 349
344 352
344 354
345 293
345 306
345 308
345 312
345 319
345 327
345 337
345 342
345 346
345 355
346 293
346 299
346 306
346 308
346 312
346 326
346 327
346 337
346 342
346 345
346 355
347 302
347 303
347 311
347 320
347 321
347 333
347 339
347 341
347 353
347 356
347 359
348 316
348 318
348 329
348 330
348 338
348 350
349 313
349 318
349 323
349 325
349 328
349 331
349 338
349 344
349 350
349 354
350 313
350 316
350 318
350 329
350 330
350 331
350 338
350 348
350 349
351 304
351 310
351 317
351 324
351 332
351 334
351 336
351 357
351 358
352 305
352 315
352 320
352 322
352 335
352 341
352 343
352 344
352 353
353 302
353 315
353 320
353 321
353 333
353 335
353 341
353 347
353 352
353 359
354 322
354 323
354 325
354 328
354 343
354 344
354 349
355 326
355 327
355 340
355 342
355 345
355 346
356 311
356 314
356 333
356 336
356 339
356 347
356 358
356 359
357 309
357 317
357 324
357 326
357 332
357 334
357 340
357 351
358 310
358 332
358 336
358 351
358 356
359 311
359 314
359 321
359 333
359 339
359 347
359 353
359 356
