1 9
1 11
1 40
2 8
2 12
2 16
2 19
2 36
3 22
3 27
3 34
4 6
4 20
4 24
4 30
4 42
4 48
5 9
5 10
5 25
5 38
5 43
6 4
6 7
6 8
6 26
6 30
7 6
7 8
7 12
7 26
7 30
7 41
7 47
8 2
8 6
8 7
8 12
8 26
8 41
8 47
8 49
9 1
9 5
9 11
9 25
9 38
9 43
9 52
10 5
10 20
10 24
10 25
10 29
10 50
10 57
11 1
11 9
11 38
11 40
11 53
12 2
12 7
12 8
12 16
12 19
12 36
12 41
12 47
12 49
13 14
13 18
13 27
13 28
13 31
13 35
14 13
14 17
14 18
14 28
14 31
14 35
14 37
14 56
15 17
15 21
15 37
15 39
15 44
16 2
16 12
16 19
16 22
16 36
16 41
16 49
16 51
17 14
17 15
17 18
17 21
17 35
17 37
17 39
17 61
18 13
18 14
18 17
18 31
18 35
18 37
18 39
18 56
19 2
19 12
19 16
19 22
19 36
19 51
19 58
20 4
20 10
20 24
20 29
20 42
20 48
20 50
20 63
21 15
21 17
21 32
21 39
21 44
21 46
22 3
22 16
22 19
22 34
22 36
22 51
22 58
22 60
22 64
23 32
23 33
23 45
23 46
23 55
24 4
24 10
24 20
24 25
24 29
24 42
24 50
24 57
24 63
25 5
25 9
25 10
25 24
25 29
25 43
25 50
25 52
25 57
26 6
26 7
26 8
26 30
26 41
26 47
26 48
26 59
27 3
27 13
27 28
27 34
27 54
27 66
28 13
28 14
28 27
28 31
28 54
28 66
28 69
29 10
29 20
29 24
29 25
29 50
29 52
29 57
29 63
30 4
30 6
30 7
30 26
30 42
30 48
30 59
30 73
31 13
31 14
31 18
31 28
31 35
31 37
31 56
31 69
32 21
32 23
32 33
32 44
32 45
32 46
32 55
32 76
33 23
33 32
33 45
33 46
33 55
33 76
34 3
34 22
34 27
34 54
34 58
34 60
34 77
35 13
35 14
35 17
35 18
35 31
35 37
35 56
35 61
35 69
36 2
36 12
36 16
36 19
36 22
36 41
36 49
36 51
36 62
36 64
37 14
37 15
37 17
37 18
37 31
37 35
37 39
37 56
37 61
37 65
38 5
38 9
38 11
38 40
38 43
38 52
38 53
38 68
38 72
38 74
39 15
39 17
39 18
39 21
39 37
39 44
39 61
39 65
39 67
40 1
40 11
40 38
40 53
40 68
40 74
41 7
41 8
41 12
41 16
41 26
41 36
41 47
41 49
41 62
42 4
42 20
42 24
42 30
42 48
42 50
42 63
42 70
42 73
43 5
43 9
43 25
43 38
43 52
43 68
43 72
44 15
44 21
44 32
44 39
44 46
44 55
44 65
44 67
44 71
45 23
45 32
45 33
45 55
45 76
46 21
46 23
46 32
46 33
46 44
46 55
46 67
46 71
46 76
46 86
47 7
47 8
47 12
47 26
47 41
47 49
47 59
47 78
47 79
47 82
48 4
48 20
48 26
48 30
48 42
48 59
48 70
48 73
48 78
49 8
49 12
49 16
49 36
49 41
49 47
49 51
49 62
49 82
49 84
50 10
50 20
50 24
50 25
50 29
50 42
50 57
50 63
50 70
50 85
50 95
51 16
51 19
51 22
51 36
51 49
51 58
51 60
51 62
51 64
51 89
52 9
52 25
52 29
52 38
52 43
52 57
52 68
52 72
52 83
52 85
53 11
53 38
53 40
53 68
53 74
53 92
54 27
54 28
54 34
54 60
54 66
54 75
54 77
54 88
55 23
55 32
55 33
55 44
55 45
55 46
55 71
55 76
55 86
55 90
56 14
56 18
56 31
56 35
56 37
56 61
56 66
56 69
56 81
56 87
56 91
57 10
57 24
57 25
57 29
57 50
57 52
57 63
57 83
57 85
57 95
57 100
58 19
58 22
58 34
58 51
58 60
58 62
58 64
58 77
58 96
58 97
59 26
59 30
59 47
59 48
59 73
59 78
59 79
59 94
60 22
60 34
60 51
60 54
60 58
60 64
60 75
60 77
60 88
60 96
61 17
61 35
61 37
61 39
61 56
61 65
61 67
61 80
61 81
62 36
62 41
62 49
62 51
62 58
62 64
62 84
62 89
62 97
63 20
63 24
63 29
63 42
63 50
63 57
63 70
63 95
63 98
63 101
64 22
64 36
64 51
64 58
64 60
64 62
64 77
64 89
64 96
64 97
65 37
65 39
65 44
65 61
65 67
65 71
65 80
65 81
65 86
65 93
66 27
66 28
66 54
66 56
66 69
66 75
66 87
66 105
67 39
67 44
67 46
67 61
67 65
67 71
67 80
67 86
67 93
68 38
68 40
68 43
68 52
68 53
68 72
68 74
68 92
69 28
69 31
69 35
69 56
69 66
69 75
69 81
69 87
69 91
69 107
70 42
70 48
70 50
70 63
70 73
70 94
70 98
70 101
71 44
71 46
71 55
71 65
71 67
71 76
71 86
71 90
71 93
71 104
72 38
72 43
72 52
72 68
72 74
72 83
72 85
72 113
73 30
73 42
73 48
73 59
73 70
73 78
73 94
73 98
73 101
73 112
74 38
74 40
74 53
74 68
74 72
74 92
74 111
75 54
75 60
75 66
75 69
75 77
75 87
75 88
75 102
75 105
76 32
76 33
76 45
76 46
76 55
76 71
76 86
76 90
76 99
76 109
77 34
77 54
77 58
77 60
77 64
77 75
77 88
77 96
77 97
77 102
77 103
78 47
78 48
78 59
78 73
78 79
78 82
78 94
78 106
78 112
78 114
79 47
79 59
79 78
79 82
79 106
79 108
79 114
80 61
80 65
80 67
80 81
80 91
80 93
80 116
80 119
81 56
81 61
81 65
81 69
81 80
81 87
81 91
81 110
81 116
82 47
82 49
82 78
82 79
82 84
82 106
82 108
83 52
83 57
83 72
83 85
83 95
83 100
83 113
83 122
84 49
84 62
84 82
84 89
84 97
84 108
84 117
85 50
85 52
85 57
85 72
85 83
85 95
85 100
85 122
86 46
86 55
86 65
86 67
86 71
86 76
86 90
86 93
86 104
86 109
86 115
87 56
87 66
87 69
87 75
87 81
87 91
87 105
87 107
87 110
87 127
88 54
88 60
88 75
88 77
88 96
88 102
88 103
88 105
89 51
89 62
89 64
89 84
89 96
89 97
89 117
89 128
90 55
90 71
90 76
90 86
90 99
90 104
90 109
90 125
90 129
91 56
91 69
91 80
91 81
91 87
91 107
91 110
91 116
92 53
92 68
92 74
92 111
92 118
93 65
93 67
93 71
93 80
93 86
93 104
93 115
93 119
93 120
94 59
94 70
94 73
94 78
94 98
94 101
94 112
94 114
94 124
94 131
94 135
95 50
95 57
95 63
95 83
95 85
95 98
95 100
95 101
95 122
95 123
95 130
96 58
96 60
96 64
96 77
96 88
96 89
96 97
96 103
96 121
96 128
96 132
96 133
97 58
97 62
97 64
97 77
97 84
97 89
97 96
97 117
97 121
97 128
97 132
98 63
98 70
98 73
98 94
98 95
98 100
98 101
98 123
98 124
98 137
99 76
99 90
99 109
99 125
99 129
100 57
100 83
100 85
100 95
100 98
100 122
100 123
100 130
101 63
101 70
101 73
101 94
101 95
101 98
101 112
101 123
101 124
101 135
101 137
102 75
102 77
102 88
102 103
102 105
102 133
102 134
102 136
103 77
103 88
103 96
103 102
103 121
103 132
103 133
103 134
104 71
104 86
104 90
104 93
104 109
104 115
104 120
104 125
104 129
105 66
105 75
105 87
105 88
105 102
105 107
105 110
105 127
105 136
105 142
106 78
106 79
106 82
106 108
106 112
106 114
106 126
106 131
106 141
107 69
107 87
107 91
107 105
107 110
107 116
107 127
107 140
107 142
108 79
108 82
108 84
108 106
108 114
108 117
108 126
108 146
109 76
109 86
109 90
109 99
109 104
109 125
109 129
110 81
110 87
110 91
110 105
110 107
110 116
110 127
110 140
110 144
111 74
111 92
111 113
111 118
111 138
111 143
112 73
112 78
112 94
112 101
112 106
112 114
112 124
112 131
112 135
112 141
112 148
113 72
113 83
113 111
113 118
113 122
113 139
113 143
114 78
114 79
114 94
114 106
114 108
114 112
114 126
114 131
114 135
114 141
114 148
115 86
115 93
115 104
115 119
115 120
115 125
115 151
115 153
116 80
116 81
116 91
116 107
116 110
116 119
116 127
116 140
116 144
117 84
117 89
117 97
117 108
117 126
117 128
117 146
117 149
118 92
118 111
118 113
118 138
118 139
118 143
119 80
119 93
119 115
119 116
119 120
119 144
119 147
120 93
120 104
120 115
120 119
120 147
120 151
121 96
121 97
121 103
121 128
121 132
121 133
121 134
121 149
121 150
121 152
122 83
122 85
122 95
122 100
122 113
122 130
122 139
122 145
122 154
123 95
123 98
123 100
123 101
123 124
123 130
123 135
123 137
123 145
124 94
124 98
124 101
124 112
124 123
124 131
124 135
124 137
124 148
124 170
125 90
125 99
125 104
125 109
125 115
125 129
125 153
125 157
125 161
126 106
126 108
126 114
126 117
126 141
126 146
126 155
126 162
127 87
127 105
127 107
127 110
127 116
127 136
127 140
127 142
127 144
127 159
127 169
128 89
128 96
128 97
128 117
128 121
128 132
128 146
128 149
128 152
128 165
128 168
129 90
129 99
129 104
129 109
129 125
129 157
129 161
130 95
130 100
130 122
130 123
130 137
130 145
130 154
131 94
131 106
131 112
131 114
131 124
131 135
131 141
131 148
132 96
132 97
132 103
132 121
132 128
132 133
132 149
132 150
132 152
132 165
132 168
132 172
133 96
133 102
133 103
133 121
133 132
133 134
133 136
133 150
133 152
133 158
133 172
133 175
134 102
134 103
134 121
134 133
134 136
134 142
134 150
134 152
134 158
134 160
134 175
135 94
135 101
135 112
135 114
135 123
135 124
135 131
135 137
135 141
135 148
135 170
135 176
136 102
136 105
136 127
136 133
136 134
136 142
136 158
136 159
136 160
137 98
137 101
137 123
137 124
137 130
137 135
137 145
137 170
138 111
138 118
138 143
138 156
138 166
138 171
139 113
139 118
139 122
139 143
139 145
139 154
139 166
139 167
140 107
140 110
140 116
140 127
140 142
140 144
140 159
140 169
140 173
141 106
141 112
141 114
141 126
141 131
141 135
141 148
141 155
141 174
141 178
142 105
142 107
142 127
142 134
142 136
142 140
142 159
142 160
142 169
142 179
143 111
143 113
143 118
143 138
143 139
143 154
143 156
143 166
143 167
143 171
143 185
144 110
144 116
144 119
144 127
144 140
144 147
144 163
144 169
144 173
144 180
145 122
145 123
145 130
145 137
145 139
145 154
145 181
145 183
146 108
146 117
146 126
146 128
146 149
146 155
146 162
146 165
146 168
147 119
147 120
147 144
147 151
147 163
147 164
147 180
148 112
148 114
148 124
148 131
148 135
148 141
148 155
148 170
148 174
148 176
149 117
149 121
149 128
149 132
149 146
149 152
149 162
149 165
149 168
149 172
149 191
150 121
150 132
150 133
150 134
150 152
150 158
150 160
150 168
150 172
150 175
151 115
151 120
151 147
151 153
151 161
151 163
151 164
151 189
151 194
152 121
152 128
152 132
152 133
152 134
152 149
152 150
152 158
152 165
152 168
152 172
152 175
153 115
153 125
153 151
153 157
153 161
153 164
153 177
153 187
153 194
154 122
154 130
154 139
154 143
154 145
154 166
154 167
154 181
154 183
154 185
154 195
155 126
155 141
155 146
155 148
155 162
155 174
155 178
155 186
156 138
156 143
156 166
156 171
157 125
157 129
157 153
157 161
157 177
157 192
158 133
158 134
158 136
158 150
158 152
158 159
158 160
158 172
158 175
158 182
158 201
159 127
159 136
159 140
159 142
159 158
159 160
159 169
159 179
159 182
159 188
159 199
160 134
160 136
160 142
160 150
160 158
160 159
160 175
160 179
160 182
161 125
161 129
161 151
161 153
161 157
161 177
161 187
161 192
161 194
162 126
162 146
162 149
162 155
162 165
162 168
162 178
162 186
162 191
162 200
162 203
163 144
163 147
163 151
163 164
163 173
163 180
163 189
163 193
164 147
164 151
164 153
164 163
164 180
164 189
164 193
164 194
165 128
165 132
165 146
165 149
165 152
165 162
165 168
165 172
165 191
165 196
165 200
166 138
166 139
166 143
166 154
166 156
166 167
166 171
166 183
166 185
167 139
167 143
167 154
167 166
167 183
167 185
167 195
167 207
168 128
168 132
168 146
168 149
168 150
168 152
168 162
168 165
168 172
168 175
168 191
168 196
168 200
169 127
169 140
169 142
169 144
169 159
169 173
169 179
169 188
169 190
169 199
169 208
170 124
170 135
170 137
170 148
170 176
170 184
170 197
170 204
171 138
171 143
171 156
171 166
171 185
171 206
172 132
172 133
172 149
172 150
172 152
172 158
172 165
172 168
172 175
172 191
172 196
172 201
173 140
173 144
173 163
173 169
173 180
173 188
173 190
173 193
173 208
174 141
174 148
174 155
174 176
174 178
174 186
174 198
174 205
175 133
175 134
175 150
175 152
175 158
175 160
175 168
175 172
175 182
175 196
175 201
175 210
175 215
176 135
176 148
176 170
176 174
176 184
176 197
176 204
176 205
177 153
177 157
177 161
177 187
177 192
177 202
177 209
178 141
178 155
178 162
178 174
178 186
178 198
178 203
178 217
179 142
179 159
179 160
179 169
179 182
179 188
179 190
179 199
179 208
179 212
180 144
180 147
180 163
180 164
180 173
180 189
180 190
180 193
180 218
181 145
181 154
181 183
181 184
181 195
181 213
182 158
182 159
182 160
182 175
182 179
182 199
182 201
182 210
182 212
182 219
183 145
183 154
183 166
183 167
183 181
183 185
183 195
183 207
183 213
183 214
184 170
184 176
184 181
184 195
184 197
184 222
185 143
185 154
185 166
185 167
185 171
185 183
185 206
185 207
185 211
185 214
186 155
186 162
186 174
186 178
186 198
186 200
186 203
186 217
186 221
187 153
187 161
187 177
187 189
187 192
187 194
187 202
187 209
187 216
187 227
187 230
188 159
188 169
188 173
188 179
188 190
188 199
188 208
188 212
188 223
189 151
189 163
189 164
189 180
189 187
189 193
189 194
189 209
189 216
189 218
189 225
190 169
190 173
190 179
190 180
190 188
190 193
190 199
190 208
190 223
190 232
191 149
191 162
191 165
191 168
191 172
191 196
191 200
191 203
191 226
192 157
192 161
192 177
192 187
192 194
192 202
192 209
192 220
192 227
192 230
193 163
193 164
193 173
193 180
193 189
193 190
193 208
193 218
193 225
193 232
194 151
194 153
194 161
194 164
194 187
194 189
194 192
194 209
194 216
194 225
194 230
195 154
195 167
195 181
195 183
195 184
195 207
195 213
195 229
196 165
196 168
196 172
196 175
196 191
196 200
196 201
196 215
196 226
197 170
197 176
197 184
197 204
197 205
197 222
197 233
197 237
198 174
198 178
198 186
198 203
198 204
198 205
198 217
198 221
198 224
198 228
198 239
199 159
199 169
199 179
199 182
199 188
199 190
199 208
199 210
199 212
199 223
199 231
199 242
200 162
200 165
200 168
200 186
200 191
200 196
200 203
200 221
200 226
200 234
201 158
201 172
201 175
201 182
201 196
201 210
201 212
201 215
201 219
201 231
201 235
201 236
202 177
202 187
202 192
202 209
202 220
202 227
202 241
203 162
203 178
203 186
203 191
203 198
203 200
203 217
203 221
203 234
204 170
204 176
204 197
204 198
204 205
204 224
204 228
204 237
204 243
205 174
205 176
205 197
205 198
205 204
205 217
205 224
205 228
205 239
205 243
206 171
206 185
206 211
206 214
206 247
207 167
207 183
207 185
207 195
207 211
207 213
207 214
208 169
208 173
208 179
208 188
208 190
208 193
208 199
208 218
208 223
208 232
208 246
209 177
209 187
209 189
209 192
209 194
209 202
209 216
209 227
209 230
209 240
209 244
210 175
210 182
210 199
210 201
210 212
210 215
210 219
210 231
210 235
210 236
210 245
211 185
211 206
211 207
211 214
211 247
212 179
212 182
212 188
212 199
212 201
212 210
212 219
212 223
212 231
212 235
212 242
212 245
213 181
213 183
213 195
213 207
213 222
213 229
214 183
214 185
214 206
214 207
214 211
214 247
215 175
215 196
215 201
215 210
215 219
215 226
215 235
215 236
215 258
216 187
216 189
216 194
216 209
216 218
216 225
216 230
216 238
216 240
216 244
216 251
216 253
217 178
217 186
217 198
217 203
217 205
217 221
217 224
217 228
217 234
217 239
217 248
217 250
218 180
218 189
218 193
218 208
218 216
218 225
218 232
218 238
218 249
218 254
219 182
219 201
219 210
219 212
219 215
219 231
219 235
219 236
219 245
220 192
220 202
220 227
220 241
220 244
220 260
221 186
221 198
221 200
221 203
221 217
221 224
221 234
221 239
221 250
221 252
222 184
222 197
222 213
222 229
222 233
222 237
223 188
223 190
223 199
223 208
223 212
223 231
223 232
223 242
223 245
223 246
223 255
224 198
224 204
224 205
224 217
224 221
224 228
224 239
224 243
224 248
224 250
224 263
225 189
225 193
225 194
225 216
225 218
225 230
225 238
225 240
225 249
225 253
225 262
226 191
226 196
226 200
226 215
226 234
226 236
226 256
226 258
227 187
227 192
227 202
227 209
227 220
227 230
227 240
227 241
227 244
227 251
227 257
227 260
228 198
228 204
228 205
228 217
228 224
228 237
228 239
228 243
228 248
229 195
229 213
229 222
229 233
229 268
230 187
230 192
230 194
230 209
230 216
230 225
230 227
230 238
230 240
230 241
230 244
230 251
230 253
230 257
231 199
231 201
231 210
231 212
231 219
231 223
231 235
231 236
231 242
231 245
231 265
231 266
232 190
232 193
232 208
232 218
232 223
232 246
232 249
232 254
232 255
233 197
233 222
233 229
233 237
233 243
233 268
234 200
234 203
234 217
234 221
234 226
234 250
234 252
234 256
234 272
235 201
235 210
235 212
235 215
235 219
235 231
235 236
235 245
235 258
235 265
235 266
235 267
236 201
236 210
236 215
236 219
236 226
236 231
236 235
236 258
236 265
236 267
237 197
237 204
237 222
237 228
237 233
237 243
237 248
238 216
238 218
238 225
238 230
238 240
238 244
238 249
238 251
238 253
238 262
238 274
239 198
239 205
239 217
239 221
239 224
239 228
239 243
239 248
239 250
239 263
240 209
240 216
240 225
240 227
240 230
240 238
240 241
240 244
240 251
240 253
240 257
240 262
240 274
241 202
241 220
241 227
241 230
241 240
241 244
241 251
241 257
241 260
241 275
241 280
242 199
242 212
242 223
242 231
242 245
242 246
242 255
242 265
242 266
242 273
243 204
243 205
243 224
243 228
243 233
243 237
243 239
243 248
243 276
243 285
244 209
244 216
244 220
244 227
244 230
244 238
244 240
244 241
244 251
244 253
244 257
244 260
244 275
245 210
245 212
245 219
245 223
245 231
245 235
245 242
245 246
245 265
245 266
245 279
246 208
246 223
246 232
246 242
246 245
246 254
246 255
246 266
246 273
246 277
246 287
247 206
247 211
247 214
247 259
247 261
247 269
247 271
247 283
248 217
248 224
248 228
248 237
248 239
248 243
248 250
248 263
248 285
249 218
249 225
249 232
249 238
249 253
249 254
249 255
249 262
249 282
249 284
249 286
250 217
250 221
250 224
250 234
250 239
250 248
250 252
250 263
250 272
251 216
251 227
251 230
251 238
251 240
251 241
251 244
251 253
251 257
251 262
251 274
251 275
252 221
252 234
252 250
252 256
252 263
252 270
252 272
253 216
253 225
253 230
253 238
253 240
253 244
253 249
253 251
253 257
253 262
253 274
253 284
254 218
254 232
254 246
254 249
254 255
254 273
254 277
254 282
254 286
255 223
255 232
255 242
255 246
255 249
255 254
255 273
255 277
255 282
255 287
256 226
256 234
256 252
256 270
256 272
257 227
257 230
257 240
257 241
257 244
257 251
257 253
257 260
257 275
257 280
257 289
257 294
257 297
258 215
258 226
258 235
258 236
258 265
258 267
258 270
259 247
259 261
259 264
259 269
259 271
259 283
260 220
260 227
260 241
260 244
260 257
260 275
260 280
260 289
260 297
261 247
261 259
261 269
261 271
261 283
261 300
262 225
262 238
262 240
262 249
262 251
262 253
262 274
262 284
262 286
262 295
263 224
263 239
263 248
263 250
263 252
263 272
263 291
263 292
263 293
264 259
264 271
264 278
265 231
265 235
265 236
265 242
265 245
265 258
265 266
265 267
265 279
266 231
266 235
266 242
266 245
266 246
266 265
266 267
266 273
266 279
266 287
267 235
267 236
267 258
267 265
267 266
267 279
268 229
268 233
268 278
268 281
268 288
268 290
268 296
269 247
269 259
269 261
269 271
269 283
269 300
269 302
270 252
270 256
270 258
270 272
270 301
271 247
271 259
271 261
271 264
271 269
271 278
271 283
271 300
271 302
271 303
272 234
272 250
272 252
272 256
272 263
272 270
272 292
272 299
273 242
273 246
273 254
273 255
273 266
273 277
273 282
273 287
274 238
274 240
274 251
274 253
274 262
274 275
274 284
274 286
274 294
274 295
275 241
275 244
275 251
275 257
275 260
275 274
275 280
275 289
275 294
275 295
275 297
276 243
276 281
276 285
276 290
276 293
276 296
276 298
277 246
277 254
277 255
277 273
277 282
277 286
277 287
278 264
278 268
278 271
278 288
278 303
278 306
278 308
279 245
279 265
279 266
279 267
279 307
279 311
280 241
280 257
280 260
280 275
280 289
280 294
280 297
281 268
281 276
281 285
281 288
281 290
281 296
281 298
281 309
281 318
282 249
282 254
282 255
282 273
282 277
282 284
282 286
282 287
282 310
283 247
283 259
283 261
283 269
283 271
283 300
283 302
284 249
284 253
284 262
284 274
284 282
284 286
284 295
284 310
285 243
285 248
285 276
285 281
285 291
285 293
285 296
285 298
286 249
286 254
286 262
286 274
286 277
286 282
286 284
286 310
287 246
287 255
287 266
287 273
287 277
287 282
287 311
287 312
287 323
288 268
288 278
288 281
288 290
288 296
288 306
288 309
288 319
288 325
289 257
289 260
289 275
289 280
289 294
289 297
290 268
290 276
290 281
290 288
290 296
290 298
290 306
290 309
290 318
290 325
291 263
291 285
291 292
291 293
291 314
291 315
291 328
291 333
292 263
292 272
292 291
292 299
292 314
292 315
292 317
293 263
293 276
293 285
293 291
293 298
293 315
293 328
293 329
294 257
294 274
294 275
294 280
294 289
294 295
294 297
294 316
295 262
295 274
295 275
295 284
295 294
295 297
295 316
295 321
295 335
296 268
296 276
296 281
296 285
296 288
296 290
296 298
296 309
296 318
296 322
297 257
297 260
297 275
297 280
297 289
297 294
297 295
297 316
297 332
298 276
298 281
298 285
298 290
298 293
298 296
298 318
298 322
298 329
299 272
299 292
299 301
299 313
299 314
299 317
299 341
300 261
300 269
300 271
300 283
300 302
300 303
300 320
300 331
301 270
301 299
301 304
301 305
301 313
301 317
301 324
302 269
302 271
302 283
302 300
302 303
302 308
302 320
302 331
302 334
303 271
303 278
303 300
303 302
303 308
303 331
303 334
303 347
304 301
304 305
304 307
304 313
304 317
304 324
304 337
305 301
305 304
305 307
305 324
305 327
305 337
305 348
305 353
306 278
306 288
306 290
306 308
306 309
306 319
306 325
306 354
307 279
307 304
307 305
307 311
307 324
307 327
307 330
307 337
307 348
308 278
308 302
308 303
308 306
308 319
308 334
308 355
309 281
309 288
309 290
309 296
309 306
309 318
309 319
309 325
309 354
310 282
310 284
310 286
310 321
310 326
310 336
310 340
310 344
310 345
311 279
311 287
311 307
311 312
311 323
311 327
311 330
311 342
312 287
312 311
312 323
312 326
312 330
312 336
312 342
313 299
313 301
313 304
313 314
313 317
313 324
313 341
313 351
313 356
314 291
314 292
314 299
314 313
314 315
314 317
314 333
314 339
314 341
314 351
315 291
315 292
315 293
315 314
315 328
315 329
315 333
315 339
315 349
316 294
316 295
316 297
316 321
316 335
316 338
316 344
316 352
317 292
317 299
317 301
317 304
317 313
317 314
317 324
317 339
317 341
317 351
317 356
318 281
318 290
318 296
318 298
318 309
318 322
318 325
318 329
318 343
318 361
319 288
319 306
319 308
319 309
319 325
319 354
319 355
319 357
320 300
320 302
320 331
320 346
321 295
321 310
321 316
321 335
321 338
321 340
321 344
321 345
322 296
322 298
322 318
322 328
322 329
322 343
322 349
322 359
322 361
323 287
323 311
323 312
323 326
323 330
323 336
323 342
323 362
323 364
324 301
324 304
324 305
324 307
324 313
324 317
324 337
324 353
324 356
325 288
325 290
325 306
325 309
325 318
325 319
325 354
325 357
325 367
325 371
326 310
326 312
326 323
326 336
326 340
326 342
326 345
326 363
326 364
326 365
327 305
327 307
327 311
327 330
327 337
327 348
327 353
327 358
327 360
328 291
328 293
328 315
328 322
328 329
328 333
328 343
328 349
328 359
328 366
329 293
329 298
329 315
329 318
329 322
329 328
329 333
329 343
329 349
329 359
329 361
330 307
330 311
330 312
330 323
330 327
330 342
330 348
330 358
330 362
330 373
331 300
331 302
331 303
331 320
331 334
331 346
331 347
331 368
331 369
332 297
332 338
332 350
332 352
332 380
333 291
333 314
333 315
333 328
333 329
333 339
333 349
333 366
333 370
334 302
334 303
334 308
334 331
334 346
334 347
334 355
334 357
334 369
335 295
335 316
335 321
335 338
335 344
335 352
335 374
336 310
336 312
336 323
336 326
336 340
336 342
336 345
336 362
336 363
336 364
336 365
337 304
337 305
337 307
337 324
337 327
337 348
337 353
337 356
337 358
337 360
337 375
338 316
338 321
338 332
338 335
338 344
338 350
338 352
338 378
339 314
339 315
339 317
339 333
339 341
339 351
339 370
339 376
339 379
340 310
340 321
340 326
340 336
340 345
340 363
340 364
340 365
340 372
341 299
341 313
341 314
341 317
341 339
341 351
341 356
341 370
341 376
341 379
342 311
342 312
342 323
342 326
342 330
342 336
342 358
342 362
342 364
342 373
342 382
343 318
343 322
343 328
343 329
343 349
343 359
343 361
344 310
344 316
344 321
344 335
344 338
344 345
344 365
344 372
344 374
345 310
345 321
345 326
345 336
345 340
345 344
345 363
345 365
345 372
345 374
346 320
346 331
346 334
346 347
346 368
346 369
347 303
347 331
347 334
347 346
347 355
347 368
347 369
347 388
348 305
348 307
348 327
348 330
348 337
348 353
348 358
348 360
348 375
348 381
349 315
349 322
349 328
349 329
349 333
349 343
349 359
349 366
349 370
350 332
350 338
350 352
350 378
350 380
350 393
351 313
351 314
351 317
351 339
351 341
351 356
351 376
351 377
351 379
351 384
351 389
352 316
352 332
352 335
352 338
352 350
352 378
352 380
352 385
352 393
353 305
353 324
353 327
353 337
353 348
353 356
353 358
353 360
353 375
353 377
353 390
353 394
354 306
354 309
354 319
354 325
354 355
354 357
354 367
354 371
354 392
355 308
355 319
355 334
355 347
355 354
355 357
355 369
355 371
355 391
356 313
356 317
356 324
356 337
356 341
356 351
356 353
356 375
356 377
356 379
356 384
356 389
357 319
357 325
357 334
357 354
357 355
357 369
357 371
357 391
358 327
358 330
358 337
358 342
358 348
358 353
358 360
358 373
358 381
358 394
359 322
359 328
359 329
359 343
359 349
359 361
359 366
359 367
359 396
359 398
359 401
360 327
360 337
360 348
360 353
360 358
360 375
360 381
360 390
360 394
361 318
361 322
361 329
361 343
361 359
361 367
361 396
361 401
362 323
362 330
362 336
362 342
362 363
362 364
362 373
362 382
362 383
362 400
362 407
363 326
363 336
363 340
363 345
363 362
363 364
363 365
363 372
363 382
363 383
363 387
363 402
364 323
364 326
364 336
364 340
364 342
364 362
364 363
364 365
364 373
364 382
364 383
364 407
364 413
365 326
365 336
365 340
365 344
365 345
365 363
365 364
365 372
365 374
365 383
365 387
365 402
366 328
366 333
366 349
366 359
366 370
366 376
366 386
366 395
366 398
366 414
367 325
367 354
367 359
367 361
367 371
367 392
367 401
367 404
368 331
368 346
368 347
368 369
368 388
368 397
368 399
368 405
369 331
369 334
369 346
369 347
369 355
369 357
369 368
369 388
369 391
369 397
369 399
369 405
369 409
370 333
370 339
370 341
370 349
370 366
370 376
370 379
370 386
370 395
370 403
370 414
371 325
371 354
371 355
371 357
371 367
371 391
371 392
371 404
372 340
372 344
372 345
372 363
372 365
372 374
372 383
372 387
372 402
372 406
373 330
373 342
373 358
373 362
373 364
373 381
373 382
373 400
373 407
374 335
374 344
374 345
374 365
374 372
374 385
374 387
374 406
374 408
375 337
375 348
375 353
375 356
375 360
375 377
375 381
375 389
375 390
375 394
375 411
376 339
376 341
376 351
376 366
376 370
376 379
376 384
376 386
376 395
376 403
377 351
377 353
377 356
377 375
377 379
377 384
377 389
377 390
378 338
378 350
378 352
378 380
378 385
378 393
378 410
378 417
379 339
379 341
379 351
379 356
379 370
379 376
379 377
379 384
379 386
379 389
379 403
379 420
380 332
380 350
380 352
380 378
380 385
380 393
380 410
380 417
380 418
381 348
381 358
381 360
381 373
381 375
381 394
381 400
381 412
382 342
382 362
382 363
382 364
382 373
382 383
382 400
382 407
382 413
382 432
383 362
383 363
383 364
383 365
383 372
383 382
383 387
383 402
383 407
383 413
383 419
384 351
384 356
384 376
384 377
384 379
384 386
384 389
384 403
384 420
384 430
385 352
385 374
385 378
385 380
385 393
385 406
385 408
385 410
385 417
385 425
386 366
386 370
386 376
386 379
386 384
386 395
386 403
386 414
386 420
386 433
387 363
387 365
387 372
387 374
387 383
387 402
387 406
387 408
387 419
387 423
387 424
388 347
388 368
388 369
388 397
388 399
388 405
388 409
388 427
388 428
388 429
389 351
389 356
389 375
389 377
389 379
389 384
389 390
389 411
389 420
389 430
389 434
390 353
390 360
390 375
390 377
390 389
390 394
390 411
390 422
390 426
390 434
391 355
391 357
391 369
391 371
391 392
391 397
391 405
391 409
391 421
392 354
392 367
392 371
392 391
392 401
392 404
392 416
392 421
392 431
393 350
393 352
393 378
393 380
393 385
393 410
393 417
393 418
394 353
394 358
394 360
394 375
394 381
394 390
394 411
394 412
394 422
394 426
395 366
395 370
395 376
395 386
395 396
395 398
395 403
395 414
395 415
395 433
395 438
396 359
396 361
396 395
396 398
396 401
396 404
396 415
396 431
396 436
396 437
397 368
397 369
397 388
397 391
397 399
397 405
397 409
397 427
397 428
398 359
398 366
398 395
398 396
398 401
398 414
398 415
398 436
398 437
398 438
399 368
399 369
399 388
399 397
399 405
399 427
399 428
399 429
400 362
400 373
400 381
400 382
400 407
400 412
400 413
400 432
401 359
401 361
401 367
401 392
401 396
401 398
401 404
401 415
401 416
401 431
401 436
402 363
402 365
402 372
402 383
402 387
402 406
402 413
402 419
402 423
402 424
402 435
403 370
403 376
403 379
403 384
403 386
403 395
403 414
403 420
403 433
404 367
404 371
404 392
404 396
404 401
404 416
404 431
404 436
405 368
405 369
405 388
405 391
405 397
405 399
405 409
405 427
405 428
405 429
406 372
406 374
406 385
406 387
406 402
406 408
406 410
406 419
406 423
406 424
406 425
407 362
407 364
407 373
407 382
407 383
407 400
407 413
407 432
407 435
408 374
408 385
408 387
408 406
408 410
408 423
408 424
408 425
409 369
409 388
409 391
409 397
409 405
409 421
409 427
410 378
410 380
410 385
410 393
410 406
410 408
410 417
410 424
410 425
411 375
411 389
411 390
411 394
411 412
411 422
411 426
411 430
411 434
412 381
412 394
412 400
412 411
412 422
412 426
413 364
413 382
413 383
413 400
413 402
413 407
413 419
413 432
413 435
414 366
414 370
414 386
414 395
414 398
414 403
414 415
414 433
414 437
414 438
415 395
415 396
415 398
415 401
415 414
415 436
415 437
415 438
416 392
416 401
416 404
416 421
416 431
416 436
417 378
417 380
417 385
417 393
417 410
417 418
417 425
418 380
418 393
418 417
419 383
419 387
419 402
419 406
419 413
419 423
419 424
419 435
420 379
420 384
420 386
420 389
420 403
420 430
420 433
421 391
421 392
421 409
421 416
422 390
422 394
422 411
422 412
422 426
422 434
423 387
423 402
423 406
423 408
423 419
423 424
423 425
424 387
424 402
424 406
424 408
424 410
424 419
424 423
424 425
425 385
425 406
425 408
425 410
425 417
425 423
425 424
426 390
426 394
426 411
426 412
426 422
426 430
426 434
427 388
427 397
427 399
427 405
427 409
427 428
427 429
428 388
428 397
428 399
428 405
428 427
428 429
429 388
429 399
429 405
429 427
429 428
430 384
430 389
430 411
430 420
430 426
430 434
431 392
431 396
431 401
431 404
431 416
431 436
432 382
432 400
432 407
432 413
432 435
433 386
433 395
433 403
433 414
433 420
433 438
434 389
434 390
434 411
434 422
434 426
434 430
435 402
435 407
435 413
435 419
435 432
436 396
436 398
436 401
436 404
436 415
436 416
436 431
436 437
436 438
437 396
437 398
437 414
437 415
437 436
437 438
438 395
438 398
438 414
438 415
438 433
438 436
438 437
