1 5
1 14
1 30
2 10
2 29
3 5
3 11
3 20
3 27
4 15
4 17
5 1
5 3
5 14
5 20
5 30
5 37
6 10
6 25
6 35
7 19
7 26
8 9
8 22
9 8
9 23
9 38
10 2
10 6
10 29
11 3
11 13
11 20
11 27
12 24
12 28
13 11
13 27
14 1
14 5
14 30
15 4
15 17
15 19
15 32
16 31
16 40
17 4
17 15
17 21
17 34
18 36
19 7
19 15
19 26
19 32
20 3
20 5
20 11
20 27
20 37
21 17
21 34
22 8
22 28
22 43
23 9
23 25
23 38
23 42
24 12
24 28
24 41
24 45
25 6
25 23
25 35
25 42
25 51
26 7
26 19
26 47
26 50
27 3
27 11
27 13
27 20
27 44
27 49
27 57
28 12
28 22
28 24
28 41
28 43
28 45
29 2
29 10
29 33
29 39
29 58
29 59
30 1
30 5
30 14
30 37
30 39
30 46
31 16
31 40
31 41
31 55
32 15
32 19
32 48
32 60
33 29
33 39
33 56
33 59
34 17
34 21
34 53
34 54
35 6
35 25
35 42
35 51
36 18
36 40
36 47
36 52
37 5
37 20
37 30
37 46
37 61
38 9
38 23
38 42
38 63
39 29
39 30
39 33
39 46
39 56
39 59
39 67
40 16
40 31
40 36
40 55
40 66
41 24
41 28
41 31
41 45
41 55
41 62
41 64
42 23
42 25
42 35
42 38
42 51
42 63
42 72
43 22
43 28
43 45
43 69
44 27
44 49
44 57
45 24
45 28
45 41
45 43
45 62
45 64
46 30
46 37
46 39
46 56
46 61
46 65
47 26
47 36
47 50
47 52
47 70
48 32
48 54
48 60
49 27
49 44
49 57
49 71
49 76
50 26
50 47
50 70
50 77
51 25
51 35
51 42
51 68
51 72
52 36
52 47
52 66
52 75
53 34
53 54
53 80
54 34
54 48
54 53
54 80
55 31
55 40
55 41
55 62
55 66
55 73
56 33
56 39
56 46
56 59
56 65
56 67
56 83
57 27
57 44
57 49
57 61
57 71
57 76
58 29
58 59
58 67
58 74
59 29
59 33
59 39
59 56
59 58
59 67
59 74
59 83
60 32
60 48
60 77
61 37
61 46
61 57
61 65
61 71
61 79
61 81
62 41
62 45
62 55
62 64
62 73
62 78
62 85
63 38
63 42
63 69
63 72
63 84
64 41
64 45
64 62
64 78
64 85
65 46
65 56
65 61
65 81
65 87
66 40
66 52
66 55
66 73
66 75
67 39
67 56
67 58
67 59
67 74
67 83
67 91
68 51
68 72
68 82
68 86
69 43
69 63
69 84
69 90
69 93
70 47
70 50
70 75
70 77
70 88
70 89
71 49
71 57
71 61
71 76
71 79
72 42
72 51
72 63
72 68
72 82
72 86
73 55
73 62
73 66
73 78
73 94
73 96
74 58
74 59
74 67
74 82
74 83
74 98
75 52
75 66
75 70
75 88
75 103
75 109
76 49
76 57
76 71
76 106
77 50
77 60
77 70
77 89
77 92
78 62
78 64
78 73
78 85
78 94
78 97
79 61
79 71
79 81
79 87
79 99
79 100
79 105
79 110
80 53
80 54
80 104
81 61
81 65
81 79
81 87
81 99
81 100
81 102
81 110
82 68
82 72
82 74
82 86
82 107
83 56
83 59
83 67
83 74
83 91
83 98
84 63
84 69
84 86
84 90
84 101
85 62
85 64
85 78
85 93
85 94
85 97
86 68
86 72
86 82
86 84
86 101
86 107
86 108
87 65
87 79
87 81
87 91
87 100
87 102
87 115
88 70
88 75
88 89
88 103
88 109
89 70
89 77
89 88
89 109
89 111
90 69
90 84
90 93
90 101
91 67
91 83
91 87
91 98
91 102
91 115
91 118
92 77
92 95
92 111
92 112
93 69
93 85
93 90
93 97
93 120
94 73
94 78
94 85
94 97
94 119
95 92
95 104
95 112
95 116
96 73
96 103
96 113
96 122
97 78
97 85
97 93
97 94
97 119
97 120
97 126
98 74
98 83
98 91
98 117
98 118
99 79
99 81
99 100
99 105
99 110
99 121
100 79
100 81
100 87
100 99
100 102
100 110
100 115
101 84
101 86
101 90
101 108
101 124
101 127
102 81
102 87
102 91
102 100
102 110
102 115
102 136
103 75
103 88
103 96
103 109
103 113
103 133
104 80
104 95
104 112
104 114
104 116
104 132
105 79
105 99
105 106
105 110
105 121
105 135
106 76
106 105
106 121
106 129
106 137
107 82
107 86
107 108
107 123
107 124
108 86
108 101
108 107
108 123
108 124
109 75
109 88
109 89
109 103
109 131
109 133
110 79
110 81
110 99
110 100
110 102
110 105
110 115
110 135
110 136
111 89
111 92
111 128
112 92
112 95
112 104
112 116
113 96
113 103
113 122
113 133
113 147
114 104
114 116
114 132
114 142
115 87
115 91
115 100
115 102
115 110
115 130
115 136
115 144
116 95
116 104
116 112
116 114
116 132
117 98
117 118
117 130
117 134
117 139
117 143
118 91
118 98
118 117
118 130
118 134
118 143
119 94
119 97
119 120
119 122
119 126
119 141
120 93
120 97
120 119
120 125
120 126
120 138
120 148
121 99
121 105
121 106
121 129
121 135
121 137
121 150
122 96
122 113
122 119
122 141
123 107
123 108
123 124
123 139
123 140
124 101
124 107
124 108
124 123
124 127
124 140
124 149
125 120
125 127
125 138
126 97
126 119
126 120
126 148
127 101
127 124
127 125
127 149
128 111
128 145
128 157
129 106
129 121
129 137
130 115
130 117
130 118
130 134
130 143
130 144
130 154
131 109
131 133
131 146
132 104
132 114
132 116
132 142
132 152
133 103
133 109
133 113
133 131
133 146
133 147
134 117
134 118
134 130
134 139
134 143
134 166
135 105
135 110
135 121
135 137
135 150
135 151
136 102
136 110
136 115
136 144
136 151
136 158
136 159
137 106
137 121
137 129
137 135
137 150
137 161
138 120
138 125
138 148
138 163
139 117
139 123
139 134
139 140
139 143
139 155
139 166
140 123
140 124
140 139
140 149
140 155
140 165
141 119
141 122
141 147
141 156
142 114
142 132
142 152
142 171
143 117
143 118
143 130
143 134
143 139
143 154
143 166
143 167
143 172
144 115
144 130
144 136
144 151
144 154
144 158
144 159
145 128
145 153
145 157
146 131
146 133
146 168
147 113
147 133
147 141
147 169
148 120
148 126
148 138
148 162
148 163
148 174
149 124
149 127
149 140
149 155
149 164
149 165
149 170
150 121
150 135
150 137
150 151
150 158
150 161
151 135
151 136
151 144
151 150
151 158
151 159
152 132
152 142
152 160
152 171
152 175
152 178
153 145
153 157
153 160
153 177
154 130
154 143
154 144
154 159
154 167
154 172
154 180
154 184
155 139
155 140
155 149
155 165
155 173
156 141
156 169
156 187
157 128
157 145
157 153
157 189
158 136
158 144
158 150
158 151
158 159
158 182
158 186
159 136
159 144
159 151
159 154
159 158
159 172
159 180
159 182
160 152
160 153
160 171
160 177
160 178
161 137
161 150
161 185
161 186
162 148
162 163
162 174
163 138
163 148
163 162
163 164
163 174
163 188
164 149
164 163
164 170
164 181
164 188
164 193
165 140
165 149
165 155
165 170
165 173
165 181
165 183
165 194
166 134
166 139
166 143
166 167
166 172
166 176
166 184
167 143
167 154
167 166
167 172
167 176
167 184
167 196
168 146
168 179
168 191
169 147
169 156
169 179
169 187
169 190
170 149
170 164
170 165
170 181
170 183
170 193
171 142
171 152
171 160
171 175
171 178
171 192
172 143
172 154
172 159
172 166
172 167
172 180
172 184
172 196
173 155
173 165
173 176
173 183
173 194
174 148
174 162
174 163
174 188
174 198
174 201
175 152
175 171
175 192
175 202
176 166
176 167
176 173
176 184
176 203
177 153
177 160
177 178
177 189
177 204
178 152
178 160
178 171
178 177
178 192
178 204
178 208
179 168
179 169
179 190
179 191
179 207
180 154
180 159
180 172
180 182
180 195
180 196
180 199
181 164
181 165
181 170
181 183
181 193
181 213
182 158
182 159
182 180
182 186
182 195
182 199
182 205
183 165
183 170
183 173
183 181
183 194
183 209
184 154
184 166
184 167
184 172
184 176
184 196
184 203
184 211
185 161
185 186
185 206
185 210
186 158
186 161
186 182
186 185
186 195
186 205
186 206
187 156
187 169
187 190
187 198
187 200
188 163
188 164
188 174
188 193
188 201
189 157
189 177
189 197
189 204
189 212
190 169
190 179
190 187
190 200
190 207
191 168
191 179
191 217
191 219
192 171
192 175
192 178
192 202
192 208
193 164
193 170
193 181
193 188
193 213
194 165
194 173
194 183
194 203
194 209
194 221
195 180
195 182
195 186
195 199
195 205
195 220
196 167
196 172
196 180
196 184
196 199
196 211
196 214
196 229
197 189
197 204
197 212
198 174
198 187
198 200
198 201
198 218
198 226
199 180
199 182
199 195
199 196
199 211
199 220
199 230
200 187
200 190
200 198
200 226
201 174
201 188
201 198
201 218
201 222
202 175
202 192
202 208
202 225
202 228
203 176
203 184
203 194
203 214
203 227
204 177
204 178
204 189
204 197
204 208
204 212
204 216
205 182
205 186
205 195
205 206
205 215
205 220
205 223
206 185
206 186
206 205
206 210
206 215
206 223
207 179
207 190
207 217
207 224
207 235
208 178
208 192
208 202
208 204
208 216
208 228
209 183
209 194
209 213
209 221
209 232
209 233
209 238
210 185
210 206
210 215
210 236
211 184
211 196
211 199
211 214
211 229
211 230
212 189
212 197
212 204
212 237
213 181
213 193
213 209
213 221
213 231
213 233
214 196
214 203
214 211
214 227
214 229
214 240
215 205
215 206
215 210
215 223
215 236
215 239
215 241
216 204
216 208
216 228
216 244
217 191
217 207
217 219
217 224
217 234
217 253
218 198
218 201
218 222
218 243
219 191
219 217
219 234
220 195
220 199
220 205
220 223
220 230
220 239
220 242
221 194
221 209
221 213
221 232
221 233
221 238
221 247
222 201
222 218
222 231
222 245
222 250
223 205
223 206
223 215
223 220
223 239
223 241
224 207
224 217
224 234
224 235
224 256
225 202
225 228
225 246
226 198
226 200
226 235
226 243
226 248
227 203
227 214
227 232
227 240
227 247
228 202
228 208
228 216
228 225
228 246
229 196
229 211
229 214
229 230
229 240
229 252
230 199
230 211
230 220
230 229
230 242
231 213
231 222
231 233
231 245
231 249
232 209
232 221
232 227
232 238
232 247
233 209
233 213
233 221
233 231
233 238
233 245
233 249
234 217
234 219
234 224
234 253
234 255
234 256
234 268
235 207
235 224
235 226
235 256
236 210
236 215
236 241
236 251
237 212
237 255
237 257
238 209
238 221
238 232
238 233
238 247
238 249
238 259
239 215
239 220
239 223
239 241
239 242
239 263
239 267
240 214
240 227
240 229
240 252
241 215
241 223
241 236
241 239
241 251
241 263
242 220
242 230
242 239
242 261
243 218
243 226
243 248
243 258
244 216
244 254
245 222
245 231
245 233
245 249
245 250
245 260
246 225
246 228
246 265
246 271
247 221
247 227
247 232
247 238
247 259
247 264
248 226
248 243
248 258
249 231
249 233
249 238
249 245
249 259
249 260
249 266
250 222
250 245
250 260
250 262
251 236
251 241
251 263
251 274
252 229
252 240
252 269
252 273
253 217
253 234
253 255
253 256
253 268
253 270
253 272
254 244
254 257
254 277
255 234
255 237
255 253
255 257
255 268
255 270
256 224
256 234
256 235
256 253
256 268
256 272
256 275
257 237
257 254
257 255
257 270
257 279
258 243
258 248
258 262
258 283
259 238
259 247
259 249
259 264
259 266
260 245
260 249
260 250
260 262
260 266
260 287
261 242
261 267
261 269
261 282
261 289
262 250
262 258
262 260
262 281
263 239
263 241
263 251
263 267
263 274
263 280
264 247
264 259
264 276
264 290
265 246
265 271
265 278
266 249
266 259
266 260
266 292
267 239
267 261
267 263
267 280
267 295
268 234
268 253
268 255
268 256
268 270
268 272
268 285
268 288
269 252
269 261
269 273
269 282
269 289
269 294
270 253
270 255
270 257
270 268
270 279
270 285
271 246
271 265
271 277
271 278
271 291
272 253
272 256
272 268
272 275
272 288
272 305
273 252
273 269
273 276
273 294
273 296
274 251
274 263
274 280
274 284
274 301
275 256
275 272
275 286
276 264
276 273
276 290
276 296
276 299
277 254
277 271
277 279
277 291
277 293
277 303
278 265
278 271
278 291
278 302
279 257
279 270
279 277
279 285
279 293
279 304
280 263
280 267
280 274
280 284
280 295
280 298
280 301
281 262
281 283
281 287
281 309
282 261
282 269
282 289
282 294
282 300
283 258
283 281
283 286
283 306
284 274
284 280
284 301
285 268
285 270
285 279
285 304
285 307
285 308
286 275
286 283
286 312
287 260
287 281
287 297
288 268
288 272
288 305
288 308
289 261
289 269
289 282
289 298
289 300
290 264
290 276
290 292
290 299
290 316
291 271
291 277
291 278
291 302
291 303
291 311
291 318
292 266
292 290
292 297
292 310
292 319
293 277
293 279
293 303
293 304
293 314
294 269
294 273
294 282
294 296
294 313
294 317
295 267
295 280
295 298
295 301
295 315
295 322
296 273
296 276
296 294
296 313
297 287
297 292
297 310
297 319
297 321
298 280
298 289
298 295
298 300
298 315
298 322
299 276
299 290
299 316
300 282
300 289
300 298
300 315
300 317
300 324
301 274
301 280
301 284
301 295
301 322
301 328
302 278
302 291
302 311
302 323
303 277
303 291
303 293
303 311
303 314
303 318
304 279
304 285
304 293
304 307
304 314
304 325
305 272
305 288
305 308
306 283
306 309
306 312
306 326
306 327
307 285
307 304
307 308
307 325
308 285
308 288
308 305
308 307
309 281
309 306
309 321
309 326
309 327
310 292
310 297
310 316
310 319
311 291
311 302
311 303
311 318
311 323
312 286
312 306
312 320
312 327
312 334
313 294
313 296
313 333
313 335
314 293
314 303
314 304
314 318
314 331
315 295
315 298
315 300
315 322
315 324
315 343
315 345
316 290
316 299
316 310
316 332
316 335
317 294
317 300
317 324
317 329
317 340
318 291
318 303
318 311
318 314
318 331
319 292
319 297
319 310
319 330
319 344
320 312
320 334
320 342
321 297
321 309
321 326
321 330
322 295
322 298
322 301
322 315
322 328
322 338
322 343
323 302
323 311
323 336
324 300
324 315
324 317
324 329
324 340
324 347
325 304
325 307
325 339
325 341
326 306
326 309
326 321
326 327
326 348
327 306
327 309
327 312
327 326
327 334
327 348
328 301
328 322
328 338
329 317
329 324
329 333
329 340
329 351
330 319
330 321
330 344
331 314
331 318
331 360
332 316
332 335
332 350
332 353
333 313
333 329
333 335
333 350
333 351
334 312
334 320
334 327
334 342
334 354
334 355
335 313
335 316
335 332
335 333
335 350
336 323
336 349
336 356
337 339
337 342
337 346
337 355
337 363
338 322
338 328
338 343
338 345
338 358
338 364
339 325
339 337
339 341
339 346
339 362
339 363
340 317
340 324
340 329
340 347
340 351
341 325
341 339
341 357
341 362
342 320
342 334
342 337
342 346
342 355
343 315
343 322
343 338
343 345
343 358
343 359
343 364
344 319
344 330
344 352
344 368
344 373
345 315
345 338
345 343
345 347
345 359
345 364
346 337
346 339
346 342
346 363
347 324
347 340
347 345
347 359
347 371
348 326
348 327
348 354
348 365
349 336
349 356
349 361
349 382
350 332
350 333
350 335
350 353
350 367
350 375
351 329
351 333
351 340
351 367
351 369
352 344
352 353
352 372
352 373
353 332
353 350
353 352
353 372
353 380
354 334
354 348
354 355
354 365
354 370
355 334
355 337
355 342
355 354
355 370
355 378
356 336
356 349
356 361
356 382
356 385
357 341
357 360
357 362
357 381
358 338
358 343
358 364
358 366
358 376
359 343
359 345
359 347
359 364
359 371
359 379
360 331
360 357
360 361
360 377
361 349
361 356
361 360
361 377
361 382
362 339
362 341
362 357
362 363
362 381
363 337
363 339
363 346
363 362
363 387
364 338
364 343
364 345
364 358
364 359
364 376
364 379
365 348
365 354
365 374
365 383
366 358
366 376
367 350
367 351
367 369
367 375
367 386
368 344
368 373
368 374
369 351
369 367
369 371
369 384
369 386
370 354
370 355
370 378
371 347
371 359
371 369
371 379
371 384
372 352
372 353
372 373
372 380
373 344
373 352
373 368
373 372
373 374
374 365
374 368
374 373
374 383
375 350
375 367
375 380
376 358
376 364
376 366
377 360
377 361
377 382
378 355
378 370
378 387
379 359
379 364
379 371
380 353
380 372
380 375
381 357
381 362
382 349
382 356
382 361
382 377
382 385
383 365
383 374
384 369
384 371
384 386
385 356
385 382
386 367
386 369
386 384
387 363
387 378
