1 2
1 5
1 14
1 30
2 1
2 10
2 14
2 29
2 33
3 5
3 11
3 13
3 20
3 27
4 15
4 17
4 19
4 32
5 1
5 3
5 14
5 20
5 30
5 37
6 10
6 25
6 35
7 19
7 26
7 47
8 9
8 12
8 22
8 23
8 28
8 43
9 8
9 22
9 23
9 25
9 38
9 42
10 2
10 6
10 29
10 33
11 3
11 13
11 20
11 27
11 44
11 49
12 8
12 22
12 24
12 28
12 41
12 45
13 3
13 11
13 20
13 27
13 44
14 1
14 2
14 5
14 30
14 33
14 37
14 39
14 46
15 4
15 17
15 19
15 32
15 48
16 18
16 24
16 31
16 40
17 4
17 15
17 21
17 32
17 34
17 54
18 16
18 36
18 40
18 52
19 4
19 7
19 15
19 26
19 32
19 48
19 50
20 3
20 5
20 11
20 13
20 27
20 37
20 49
20 57
21 17
21 34
21 53
21 54
22 8
22 9
22 12
22 23
22 28
22 38
22 43
22 45
23 8
23 9
23 22
23 25
23 38
23 42
23 63
24 12
24 16
24 28
24 31
24 41
24 45
24 62
25 6
25 9
25 23
25 35
25 38
25 42
25 51
26 7
26 19
26 32
26 47
26 50
27 3
27 11
27 13
27 20
27 37
27 44
27 49
27 57
28 8
28 12
28 22
28 24
28 41
28 43
28 45
28 64
29 2
29 10
29 33
29 39
29 56
29 58
29 59
29 67
30 1
30 5
30 14
30 33
30 37
30 39
30 46
30 56
30 61
30 65
31 16
31 24
31 40
31 41
31 55
31 62
32 4
32 15
32 17
32 19
32 26
32 48
32 54
32 60
33 2
33 10
33 14
33 29
33 30
33 39
33 46
33 56
33 58
33 59
33 67
34 17
34 21
34 53
34 54
35 6
35 25
35 42
35 51
35 68
36 18
36 40
36 47
36 52
36 66
37 5
37 14
37 20
37 27
37 30
37 46
37 57
37 61
37 65
38 9
38 22
38 23
38 25
38 42
38 43
38 63
39 14
39 29
39 30
39 33
39 46
39 56
39 59
39 65
39 67
40 16
40 18
40 31
40 36
40 41
40 52
40 55
40 66
40 73
41 12
41 24
41 28
41 31
41 40
41 45
41 55
41 62
41 64
41 73
41 78
42 9
42 23
42 25
42 35
42 38
42 51
42 63
42 68
42 72
43 8
43 22
43 28
43 38
43 45
43 63
43 64
43 69
44 11
44 13
44 27
44 49
44 57
44 76
45 12
45 22
45 24
45 28
45 41
45 43
45 62
45 64
45 78
46 14
46 30
46 33
46 37
46 39
46 56
46 61
46 65
46 81
47 7
47 26
47 36
47 50
47 52
47 70
47 75
48 15
48 19
48 32
48 54
48 60
49 11
49 20
49 27
49 44
49 57
49 71
49 76
50 19
50 26
50 47
50 60
50 70
50 77
51 25
51 35
51 42
51 58
51 68
51 72
51 82
52 18
52 36
52 40
52 47
52 66
52 70
52 75
52 88
53 21
53 34
53 54
53 80
54 17
54 21
54 32
54 34
54 48
54 53
54 80
55 31
55 40
55 41
55 62
55 66
55 73
55 78
56 29
56 30
56 33
56 39
56 46
56 58
56 59
56 65
56 67
56 83
56 87
56 91
57 20
57 27
57 37
57 44
57 49
57 61
57 71
57 76
57 79
58 29
58 33
58 51
58 56
58 59
58 67
58 68
58 74
58 82
58 83
59 29
59 33
59 39
59 56
59 58
59 67
59 74
59 83
59 91
60 32
60 48
60 50
60 77
60 92
61 30
61 37
61 46
61 57
61 65
61 71
61 79
61 81
62 24
62 31
62 41
62 45
62 55
62 64
62 73
62 78
62 85
62 94
63 23
63 38
63 42
63 43
63 69
63 72
63 84
63 86
63 101
64 28
64 41
64 43
64 45
64 62
64 69
64 78
64 85
64 93
64 94
64 97
65 30
65 37
65 39
65 46
65 56
65 61
65 67
65 79
65 81
65 83
65 87
65 91
65 100
65 102
66 36
66 40
66 52
66 55
66 73
66 75
66 96
67 29
67 33
67 39
67 56
67 58
67 59
67 65
67 74
67 83
67 91
67 98
68 35
68 42
68 51
68 58
68 72
68 74
68 82
68 86
68 107
69 43
69 63
69 64
69 84
69 85
69 90
69 93
70 47
70 50
70 52
70 75
70 77
70 88
70 89
71 49
71 57
71 61
71 76
71 79
71 99
71 105
71 106
72 42
72 51
72 63
72 68
72 82
72 84
72 86
72 107
72 108
73 40
73 41
73 55
73 62
73 66
73 78
73 94
73 96
74 58
74 59
74 67
74 68
74 82
74 83
74 91
74 98
75 47
75 52
75 66
75 70
75 88
75 89
75 96
75 103
75 109
76 44
76 49
76 57
76 71
76 79
76 99
76 105
76 106
77 50
77 60
77 70
77 89
77 92
77 111
78 41
78 45
78 55
78 62
78 64
78 73
78 85
78 93
78 94
78 97
78 119
79 57
79 61
79 65
79 71
79 76
79 81
79 87
79 99
79 100
79 105
79 110
80 53
80 54
80 95
80 104
80 114
80 116
81 46
81 61
81 65
81 79
81 87
81 91
81 99
81 100
81 102
81 105
81 110
81 115
82 51
82 58
82 68
82 72
82 74
82 86
82 98
82 107
82 108
82 123
83 56
83 58
83 59
83 65
83 67
83 74
83 87
83 91
83 98
83 102
83 117
83 118
84 63
84 69
84 72
84 86
84 90
84 101
84 108
85 62
85 64
85 69
85 78
85 90
85 93
85 94
85 97
85 119
85 120
85 126
86 63
86 68
86 72
86 82
86 84
86 101
86 107
86 108
86 123
86 124
87 56
87 65
87 79
87 81
87 83
87 91
87 99
87 100
87 102
87 110
87 115
88 52
88 70
88 75
88 89
88 103
88 109
88 131
89 70
89 75
89 77
89 88
89 92
89 109
89 111
89 128
90 69
90 84
90 85
90 93
90 97
90 101
90 120
90 125
91 56
91 59
91 65
91 67
91 74
91 81
91 83
91 87
91 98
91 100
91 102
91 115
91 118
91 130
92 60
92 77
92 89
92 95
92 111
92 112
93 64
93 69
93 78
93 85
93 90
93 94
93 97
93 120
93 125
93 126
94 62
94 64
94 73
94 78
94 85
94 93
94 97
94 119
94 120
94 122
94 126
95 80
95 92
95 104
95 112
95 116
96 66
96 73
96 75
96 103
96 113
96 122
97 64
97 78
97 85
97 90
97 93
97 94
97 119
97 120
97 126
98 67
98 74
98 82
98 83
98 91
98 117
98 118
98 130
98 134
99 71
99 76
99 79
99 81
99 87
99 100
99 102
99 105
99 106
99 110
99 115
99 121
99 135
100 65
100 79
100 81
100 87
100 91
100 99
100 102
100 105
100 110
100 115
100 136
101 63
101 84
101 86
101 90
101 108
101 124
101 125
101 127
102 65
102 81
102 83
102 87
102 91
102 99
102 100
102 110
102 115
102 118
102 130
102 136
103 75
103 88
103 96
103 109
103 113
103 131
103 133
104 80
104 95
104 112
104 114
104 116
104 132
104 142
105 71
105 76
105 79
105 81
105 99
105 100
105 106
105 110
105 121
105 135
105 137
106 71
106 76
106 99
106 105
106 121
106 129
106 135
106 137
107 68
107 72
107 82
107 86
107 108
107 123
107 124
107 139
107 140
108 72
108 82
108 84
108 86
108 101
108 107
108 123
108 124
108 127
108 140
108 149
109 75
109 88
109 89
109 103
109 111
109 113
109 131
109 133
109 146
110 79
110 81
110 87
110 99
110 100
110 102
110 105
110 115
110 121
110 135
110 136
110 150
110 151
111 77
111 89
111 92
111 109
111 128
111 131
111 145
112 92
112 95
112 104
112 116
112 132
113 96
113 103
113 109
113 122
113 133
113 141
113 147
114 80
114 104
114 116
114 132
114 142
115 81
115 87
115 91
115 99
115 100
115 102
115 110
115 118
115 130
115 136
115 144
115 151
116 80
116 95
116 104
116 112
116 114
116 132
116 142
116 152
117 83
117 98
117 118
117 123
117 130
117 134
117 139
117 143
118 83
118 91
118 98
118 102
118 115
118 117
118 130
118 134
118 139
118 143
118 154
119 78
119 85
119 94
119 97
119 120
119 122
119 126
119 141
119 148
120 85
120 90
120 93
120 94
120 97
120 119
120 125
120 126
120 138
120 148
121 99
121 105
121 106
121 110
121 129
121 135
121 137
121 150
122 94
122 96
122 113
122 119
122 126
122 141
122 147
122 156
123 82
123 86
123 107
123 108
123 117
123 124
123 134
123 139
123 140
123 149
123 155
124 86
124 101
124 107
124 108
124 123
124 127
124 140
124 149
125 90
125 93
125 101
125 120
125 127
125 138
125 148
126 85
126 93
126 94
126 97
126 119
126 120
126 122
126 138
126 141
126 148
126 162
127 101
127 108
127 124
127 125
127 138
127 149
127 164
128 89
128 111
128 131
128 145
128 146
128 157
129 106
129 121
129 137
130 91
130 98
130 102
130 115
130 117
130 118
130 134
130 136
130 143
130 144
130 154
131 88
131 103
131 109
131 111
131 128
131 133
131 146
131 168
132 104
132 112
132 114
132 116
132 142
132 152
133 103
133 109
133 113
133 131
133 146
133 147
134 98
134 117
134 118
134 123
134 130
134 139
134 143
134 154
134 166
134 167
135 99
135 105
135 106
135 110
135 121
135 136
135 137
135 150
135 151
135 158
135 161
136 100
136 102
136 110
136 115
136 130
136 135
136 144
136 150
136 151
136 158
136 159
137 105
137 106
137 121
137 129
137 135
137 150
137 161
138 120
138 125
138 126
138 127
138 148
138 162
138 163
138 164
139 107
139 117
139 118
139 123
139 134
139 140
139 143
139 155
139 166
140 107
140 108
140 123
140 124
140 139
140 149
140 155
140 165
140 173
141 113
141 119
141 122
141 126
141 147
141 148
141 156
141 169
142 104
142 114
142 116
142 132
142 152
142 171
142 175
143 117
143 118
143 130
143 134
143 139
143 144
143 154
143 166
143 167
143 172
143 184
144 115
144 130
144 136
144 143
144 151
144 154
144 158
144 159
144 172
144 180
145 111
145 128
145 146
145 153
145 157
146 109
146 128
146 131
146 133
146 145
146 168
146 179
147 113
147 122
147 133
147 141
147 156
147 169
148 119
148 120
148 125
148 126
148 138
148 141
148 156
148 162
148 163
148 174
149 108
149 123
149 124
149 127
149 140
149 155
149 164
149 165
149 170
149 173
149 181
149 183
150 110
150 121
150 135
150 136
150 137
150 151
150 158
150 161
150 186
151 110
151 115
151 135
151 136
151 144
151 150
151 158
151 159
151 182
151 186
152 116
152 132
152 142
152 153
152 160
152 171
152 175
152 178
152 192
153 145
153 152
153 157
153 160
153 177
153 178
154 118
154 130
154 134
154 143
154 144
154 159
154 166
154 167
154 172
154 180
154 184
154 196
155 123
155 139
155 140
155 149
155 165
155 166
155 173
155 176
155 183
155 194
156 122
156 141
156 147
156 148
156 162
156 169
156 187
156 198
157 128
157 145
157 153
157 177
157 189
157 197
158 135
158 136
158 144
158 150
158 151
158 159
158 180
158 182
158 186
158 195
159 136
159 144
159 151
159 154
159 158
159 172
159 180
159 182
159 195
159 199
160 152
160 153
160 171
160 177
160 178
161 135
161 137
161 150
161 185
161 186
162 126
162 138
162 148
162 156
162 163
162 174
162 188
162 201
163 138
163 148
163 162
163 164
163 170
163 174
163 188
163 193
164 127
164 138
164 149
164 163
164 165
164 170
164 181
164 183
164 188
164 193
165 140
165 149
165 155
165 164
165 170
165 173
165 181
165 183
165 194
166 134
166 139
166 143
166 154
166 155
166 167
166 172
166 173
166 176
166 184
166 196
166 203
167 134
167 143
167 154
167 166
167 172
167 176
167 180
167 184
167 196
168 131
168 146
168 179
168 191
169 141
169 147
169 156
169 179
169 187
169 190
169 200
169 207
170 149
170 163
170 164
170 165
170 173
170 181
170 183
170 188
170 193
171 142
171 152
171 160
171 175
171 177
171 178
171 192
171 202
171 208
172 143
172 144
172 154
172 159
172 166
172 167
172 176
172 180
172 184
172 196
172 199
172 211
173 140
173 149
173 155
173 165
173 166
173 170
173 176
173 183
173 194
173 203
173 209
174 148
174 162
174 163
174 187
174 188
174 198
174 201
175 142
175 152
175 171
175 178
175 192
175 202
175 208
176 155
176 166
176 167
176 172
176 173
176 184
176 194
176 196
176 203
176 214
177 153
177 157
177 160
177 171
177 178
177 189
177 204
177 208
178 152
178 153
178 160
178 171
178 175
178 177
178 192
178 204
178 208
178 216
179 146
179 168
179 169
179 190
179 191
179 207
179 217
180 144
180 154
180 158
180 159
180 167
180 172
180 182
180 184
180 195
180 196
180 199
180 211
181 149
181 164
181 165
181 170
181 183
181 188
181 193
181 209
181 213
182 151
182 158
182 159
182 180
182 186
182 195
182 199
182 205
182 220
183 149
183 155
183 164
183 165
183 170
183 173
183 181
183 193
183 194
183 209
183 213
183 221
184 143
184 154
184 166
184 167
184 172
184 176
184 180
184 196
184 199
184 203
184 211
184 214
185 161
185 186
185 205
185 206
185 210
185 215
186 150
186 151
186 158
186 161
186 182
186 185
186 195
186 205
186 206
186 215
186 223
187 156
187 169
187 174
187 190
187 198
187 200
187 201
187 226
188 162
188 163
188 164
188 170
188 174
188 181
188 193
188 201
188 222
189 157
189 177
189 197
189 204
189 212
190 169
190 179
190 187
190 200
190 207
190 224
191 168
191 179
191 197
191 207
191 217
191 219
192 152
192 171
192 175
192 178
192 202
192 208
192 216
192 225
192 228
193 163
193 164
193 170
193 181
193 183
193 188
193 213
193 222
193 231
194 155
194 165
194 173
194 176
194 183
194 203
194 209
194 213
194 221
194 232
195 158
195 159
195 180
195 182
195 186
195 199
195 205
195 220
195 223
196 154
196 166
196 167
196 172
196 176
196 180
196 184
196 199
196 203
196 211
196 214
196 229
196 230
197 157
197 189
197 191
197 204
197 212
197 219
197 237
198 156
198 174
198 187
198 200
198 201
198 218
198 226
199 159
199 172
199 180
199 182
199 184
199 195
199 196
199 211
199 220
199 229
199 230
200 169
200 187
200 190
200 198
200 201
200 207
200 218
200 226
201 162
201 174
201 187
201 188
201 198
201 200
201 218
201 222
202 171
202 175
202 192
202 208
202 225
202 228
203 166
203 173
203 176
203 184
203 194
203 196
203 211
203 214
203 227
203 229
203 232
203 240
204 177
204 178
204 189
204 197
204 208
204 212
204 216
205 182
205 185
205 186
205 195
205 206
205 215
205 220
205 223
205 239
205 241
206 185
206 186
206 205
206 210
206 215
206 223
206 236
206 239
206 241
207 169
207 179
207 190
207 191
207 200
207 217
207 224
207 226
207 235
208 171
208 175
208 177
208 178
208 192
208 202
208 204
208 216
208 225
208 228
208 244
209 173
209 181
209 183
209 194
209 213
209 221
209 232
209 233
209 238
210 185
210 206
210 215
210 236
210 241
211 172
211 180
211 184
211 196
211 199
211 203
211 214
211 227
211 229
211 230
211 240
211 252
212 189
212 197
212 204
212 219
212 237
213 181
213 183
213 193
213 194
213 209
213 221
213 231
213 233
213 238
213 249
214 176
214 184
214 196
214 203
214 211
214 227
214 229
214 232
214 240
214 252
215 185
215 186
215 205
215 206
215 210
215 223
215 236
215 239
215 241
215 251
216 178
216 192
216 204
216 208
216 225
216 228
216 244
216 246
216 254
217 179
217 191
217 207
217 219
217 224
217 234
217 235
217 253
217 256
218 198
218 200
218 201
218 222
218 226
218 243
218 248
218 250
218 258
219 191
219 197
219 212
219 217
219 234
219 237
219 253
219 255
220 182
220 195
220 199
220 205
220 223
220 230
220 239
220 242
221 183
221 194
221 209
221 213
221 227
221 232
221 233
221 238
221 247
221 259
222 188
222 193
222 201
222 218
222 231
222 243
222 245
222 250
223 186
223 195
223 205
223 206
223 215
223 220
223 239
223 241
223 242
224 190
224 207
224 217
224 226
224 234
224 235
224 256
225 192
225 202
225 208
225 216
225 228
225 246
226 187
226 198
226 200
226 207
226 218
226 224
226 235
226 243
226 248
227 203
227 211
227 214
227 221
227 229
227 232
227 238
227 240
227 247
228 192
228 202
228 208
228 216
228 225
228 244
228 246
228 265
229 196
229 199
229 203
229 211
229 214
229 227
229 230
229 240
229 252
230 196
230 199
230 211
230 220
230 229
230 242
230 252
230 269
231 193
231 213
231 222
231 233
231 245
231 249
231 250
231 260
232 194
232 203
232 209
232 214
232 221
232 227
232 238
232 240
232 247
232 259
232 264
233 209
233 213
233 221
233 231
233 238
233 245
233 249
233 259
233 266
234 217
234 219
234 224
234 235
234 253
234 255
234 256
234 268
234 270
235 207
235 217
235 224
235 226
235 234
235 248
235 256
235 272
235 275
236 206
236 210
236 215
236 241
236 251
236 263
236 274
237 197
237 212
237 219
237 244
237 254
237 255
237 257
237 270
238 209
238 213
238 221
238 227
238 232
238 233
238 247
238 249
238 259
238 264
238 266
239 205
239 206
239 215
239 220
239 223
239 241
239 242
239 261
239 263
239 267
240 203
240 211
240 214
240 227
240 229
240 232
240 247
240 252
240 273
240 276
241 205
241 206
241 210
241 215
241 223
241 236
241 239
241 251
241 263
241 267
241 274
242 220
242 223
242 230
242 239
242 261
242 267
242 269
243 218
243 222
243 226
243 248
243 250
243 258
243 262
244 208
244 216
244 228
244 237
244 246
244 254
244 271
244 277
245 222
245 231
245 233
245 249
245 250
245 260
245 262
245 266
246 216
246 225
246 228
246 244
246 265
246 271
246 278
247 221
247 227
247 232
247 238
247 240
247 259
247 264
247 276
248 218
248 226
248 235
248 243
248 258
248 275
249 213
249 231
249 233
249 238
249 245
249 259
249 260
249 266
250 218
250 222
250 231
250 243
250 245
250 258
250 260
250 262
250 281
251 215
251 236
251 241
251 263
251 274
251 280
251 284
252 211
252 214
252 229
252 230
252 240
252 269
252 273
252 276
253 217
253 219
253 234
253 255
253 256
253 268
253 270
253 272
253 285
254 216
254 237
254 244
254 257
254 271
254 277
254 279
255 219
255 234
255 237
255 253
255 257
255 268
255 270
255 279
255 285
256 217
256 224
256 234
256 235
256 253
256 268
256 272
256 275
256 288
257 237
257 254
257 255
257 270
257 279
257 285
257 293
258 218
258 243
258 248
258 250
258 262
258 281
258 283
259 221
259 232
259 233
259 238
259 247
259 249
259 264
259 266
259 290
259 292
260 231
260 245
260 249
260 250
260 262
260 266
260 281
260 287
260 297
261 239
261 242
261 267
261 269
261 282
261 289
261 300
262 243
262 245
262 250
262 258
262 260
262 281
262 283
262 287
263 236
263 239
263 241
263 251
263 267
263 274
263 280
263 284
263 295
263 298
264 232
264 238
264 247
264 259
264 276
264 290
264 299
265 228
265 246
265 271
265 278
265 302
266 233
266 238
266 245
266 249
266 259
266 260
266 287
266 292
266 297
267 239
267 241
267 242
267 261
267 263
267 280
267 289
267 295
267 298
267 300
268 234
268 253
268 255
268 256
268 270
268 272
268 285
268 288
269 230
269 242
269 252
269 261
269 273
269 282
269 289
269 294
270 234
270 237
270 253
270 255
270 257
270 268
270 279
270 285
270 304
270 307
271 244
271 246
271 254
271 265
271 277
271 278
271 291
271 302
271 303
272 235
272 253
272 256
272 268
272 275
272 288
272 305
273 240
273 252
273 269
273 276
273 282
273 294
273 296
274 236
274 241
274 251
274 263
274 280
274 284
274 295
274 301
275 235
275 248
275 256
275 272
275 286
275 288
276 240
276 247
276 252
276 264
276 273
276 290
276 294
276 296
276 299
276 313
277 244
277 254
277 271
277 278
277 279
277 291
277 293
277 303
277 311
277 318
278 246
278 265
278 271
278 277
278 291
278 302
278 311
279 254
279 255
279 257
279 270
279 277
279 285
279 293
279 303
279 304
279 314
280 251
280 263
280 267
280 274
280 284
280 295
280 298
280 301
280 322
281 250
281 258
281 260
281 262
281 283
281 287
281 306
281 309
282 261
282 269
282 273
282 289
282 294
282 300
282 317
283 258
283 262
283 281
283 286
283 306
283 309
283 312
283 327
284 251
284 263
284 274
284 280
284 295
284 301
285 253
285 255
285 257
285 268
285 270
285 279
285 293
285 304
285 307
285 308
285 325
286 275
286 283
286 288
286 306
286 312
286 320
287 260
287 262
287 266
287 281
287 297
287 309
287 321
288 256
288 268
288 272
288 275
288 286
288 305
288 308
289 261
289 267
289 269
289 282
289 294
289 298
289 300
289 315
289 317
289 324
290 259
290 264
290 276
290 292
290 299
290 310
290 316
291 271
291 277
291 278
291 302
291 303
291 311
291 318
292 259
292 266
292 290
292 297
292 299
292 310
292 316
292 319
293 257
293 277
293 279
293 285
293 303
293 304
293 307
293 314
293 318
294 269
294 273
294 276
294 282
294 289
294 296
294 300
294 313
294 317
294 329
295 263
295 267
295 274
295 280
295 284
295 298
295 300
295 301
295 315
295 322
296 273
296 276
296 294
296 299
296 313
296 333
297 260
297 266
297 287
297 292
297 310
297 319
297 321
297 330
298 263
298 267
298 280
298 289
298 295
298 300
298 301
298 315
298 322
299 264
299 276
299 290
299 292
299 296
299 310
299 313
299 316
299 332
300 261
300 267
300 282
300 289
300 294
300 295
300 298
300 315
300 317
300 324
301 274
301 280
301 284
301 295
301 298
301 322
301 328
302 265
302 271
302 278
302 291
302 311
302 323
302 336
303 271
303 277
303 279
303 291
303 293
303 311
303 314
303 318
303 331
304 270
304 279
304 285
304 293
304 307
304 314
304 325
305 272
305 288
305 307
305 308
305 320
305 337
306 281
306 283
306 286
306 309
306 312
306 320
306 326
306 327
306 334
307 270
307 285
307 293
307 304
307 305
307 308
307 325
307 339
307 341
308 285
308 288
308 305
308 307
308 325
308 337
308 339
309 281
309 283
309 287
309 306
309 321
309 326
309 327
310 290
310 292
310 297
310 299
310 316
310 319
310 330
310 332
311 277
311 278
311 291
311 302
311 303
311 318
311 323
311 331
311 336
312 283
312 286
312 306
312 320
312 327
312 334
312 342
313 276
313 294
313 296
313 299
313 316
313 317
313 329
313 333
313 335
314 279
314 293
314 303
314 304
314 318
314 325
314 331
315 289
315 295
315 298
315 300
315 322
315 324
315 338
315 343
315 345
316 290
316 292
316 299
316 310
316 313
316 332
316 335
316 350
317 282
317 289
317 294
317 300
317 313
317 324
317 329
317 340
317 347
318 277
318 291
318 293
318 303
318 311
318 314
318 331
319 292
319 297
319 310
319 321
319 330
319 344
319 352
320 286
320 305
320 306
320 312
320 327
320 334
320 337
320 342
321 287
321 297
321 309
321 319
321 326
321 330
321 344
322 280
322 295
322 298
322 301
322 315
322 328
322 338
322 343
322 345
323 302
323 311
323 336
323 349
323 356
324 289
324 300
324 315
324 317
324 329
324 340
324 345
324 347
325 285
325 304
325 307
325 308
325 314
325 339
325 341
325 357
326 306
326 309
326 321
326 327
326 334
326 348
327 283
327 306
327 309
327 312
327 320
327 326
327 334
327 348
327 354
328 301
328 322
328 338
328 358
329 294
329 313
329 317
329 324
329 333
329 340
329 347
329 351
330 297
330 310
330 319
330 321
330 344
331 303
331 311
331 314
331 318
331 341
331 360
332 299
332 310
332 316
332 335
332 350
332 352
332 353
333 296
333 313
333 329
333 335
333 350
333 351
333 367
334 306
334 312
334 320
334 326
334 327
334 342
334 348
334 354
334 355
334 370
335 313
335 316
335 332
335 333
335 350
335 351
335 367
336 302
336 311
336 323
336 349
336 356
337 305
337 308
337 320
337 339
337 342
337 346
337 355
337 363
338 315
338 322
338 328
338 343
338 345
338 358
338 359
338 364
338 376
339 307
339 308
339 325
339 337
339 341
339 346
339 357
339 362
339 363
340 317
340 324
340 329
340 345
340 347
340 351
340 359
340 369
340 371
341 307
341 325
341 331
341 339
341 357
341 360
341 362
342 312
342 320
342 334
342 337
342 346
342 354
342 355
342 363
342 370
342 378
343 315
343 322
343 338
343 345
343 347
343 358
343 359
343 364
344 319
344 321
344 330
344 352
344 368
344 372
344 373
345 315
345 322
345 324
345 338
345 340
345 343
345 347
345 359
345 364
345 371
345 379
346 337
346 339
346 342
346 355
346 362
346 363
347 317
347 324
347 329
347 340
347 343
347 345
347 351
347 359
347 371
347 379
348 326
348 327
348 334
348 354
348 365
348 374
348 383
349 323
349 336
349 356
349 361
349 382
349 385
350 316
350 332
350 333
350 335
350 353
350 367
350 375
350 380
351 329
351 333
351 335
351 340
351 347
351 367
351 369
351 371
351 384
351 386
352 319
352 332
352 344
352 353
352 372
352 373
352 380
353 332
353 350
353 352
353 372
353 375
353 380
354 327
354 334
354 342
354 348
354 355
354 365
354 370
354 378
354 383
355 334
355 337
355 342
355 346
355 354
355 363
355 370
355 378
356 323
356 336
356 349
356 361
356 382
356 385
357 325
357 339
357 341
357 360
357 362
357 381
358 328
358 338
358 343
358 364
358 366
358 376
359 338
359 340
359 343
359 345
359 347
359 364
359 371
359 379
360 331
360 341
360 357
360 361
360 377
360 381
361 349
361 356
361 360
361 377
361 382
362 339
362 341
362 346
362 357
362 363
362 381
363 337
363 339
363 342
363 346
363 355
363 362
363 378
363 387
364 338
364 343
364 345
364 358
364 359
364 371
364 376
364 379
365 348
365 354
365 374
365 383
366 358
366 376
367 333
367 335
367 350
367 351
367 369
367 375
367 386
368 344
368 372
368 373
368 374
369 340
369 351
369 367
369 371
369 384
369 386
370 334
370 342
370 354
370 355
370 378
370 383
371 340
371 345
371 347
371 351
371 359
371 364
371 369
371 379
371 384
371 386
372 344
372 352
372 353
372 368
372 373
372 380
373 344
373 352
373 368
373 372
373 374
374 348
374 365
374 368
374 373
374 383
375 350
375 353
375 367
375 380
376 338
376 358
376 364
376 366
377 360
377 361
377 382
378 342
378 354
378 355
378 363
378 370
378 387
379 345
379 347
379 359
379 364
379 371
379 384
380 350
380 352
380 353
380 372
380 375
381 357
381 360
381 362
382 349
382 356
382 361
382 377
382 385
383 348
383 354
383 365
383 370
383 374
384 351
384 369
384 371
384 379
384 386
385 349
385 356
385 382
386 351
386 367
386 369
386 371
386 384
387 363
387 378
