1 9
1 14
1 23
1 30
1 31
1 37
1 38
1 39
1 55
2 19
2 22
2 33
2 47
2 48
3 10
3 13
3 24
3 26
3 27
3 35
3 43
3 53
3 58
4 8
4 16
4 22
4 28
4 42
4 44
4 54
5 6
5 15
5 17
5 24
5 29
5 32
5 40
5 45
5 51
5 52
6 5
6 15
6 17
6 21
6 29
6 32
6 40
6 45
7 8
7 12
7 25
7 28
7 34
7 46
7 50
8 4
8 7
8 16
8 25
8 28
8 42
8 50
8 62
9 1
9 23
9 30
9 37
9 38
9 55
9 59
10 3
10 13
10 18
10 26
10 27
10 35
10 43
10 49
10 53
10 57
10 58
11 18
11 19
11 20
11 36
11 41
11 49
11 60
11 63
12 7
12 14
12 23
12 25
12 31
12 34
12 39
12 46
12 50
12 61
13 3
13 10
13 17
13 24
13 26
13 27
13 32
13 35
13 51
13 53
13 58
13 64
14 1
14 12
14 23
14 25
14 31
14 34
14 38
14 39
14 61
15 5
15 6
15 17
15 21
15 24
15 29
15 32
15 40
15 45
15 51
15 52
15 66
16 4
16 8
16 28
16 42
16 44
16 54
16 62
16 69
17 5
17 6
17 13
17 15
17 24
17 29
17 32
17 35
17 40
17 45
17 51
17 52
17 66
18 10
18 11
18 20
18 26
18 36
18 43
18 49
18 57
18 60
18 63
18 70
19 2
19 11
19 20
19 33
19 36
19 41
19 48
19 60
19 65
20 11
20 18
20 19
20 36
20 41
20 49
20 60
20 63
20 65
21 6
21 15
21 29
21 45
21 56
21 71
22 2
22 4
22 33
22 44
22 47
22 48
23 1
23 9
23 12
23 14
23 31
23 34
23 37
23 38
23 39
23 55
23 61
23 68
24 3
24 5
24 13
24 15
24 17
24 27
24 32
24 35
24 40
24 51
24 52
24 53
24 64
25 7
25 8
25 12
25 14
25 31
25 34
25 39
25 46
25 50
25 61
26 3
26 10
26 13
26 18
26 27
26 35
26 36
26 43
26 49
26 53
26 57
26 58
26 67
26 70
27 3
27 10
27 13
27 24
27 26
27 35
27 43
27 53
27 57
27 58
27 64
27 67
28 4
28 7
28 8
28 16
28 42
28 44
28 50
28 54
28 62
29 5
29 6
29 15
29 17
29 21
29 32
29 40
29 45
29 52
29 56
29 66
29 77
29 83
30 1
30 9
30 37
30 38
30 55
30 59
30 72
31 1
31 12
31 14
31 23
31 25
31 34
31 38
31 39
31 46
31 55
31 61
31 68
31 75
32 5
32 6
32 13
32 15
32 17
32 24
32 29
32 35
32 40
32 45
32 51
32 52
32 66
32 77
32 80
33 2
33 19
33 22
33 44
33 47
33 48
33 73
33 85
34 7
34 12
34 14
34 23
34 25
34 31
34 39
34 46
34 50
34 61
34 75
34 78
34 79
35 3
35 10
35 13
35 17
35 24
35 26
35 27
35 32
35 43
35 51
35 52
35 53
35 58
35 64
35 67
35 76
35 80
35 82
36 11
36 18
36 19
36 20
36 26
36 41
36 43
36 49
36 57
36 60
36 63
36 65
36 70
36 74
36 81
37 1
37 9
37 23
37 30
37 38
37 55
37 59
37 68
37 72
37 86
38 1
38 9
38 14
38 23
38 30
38 31
38 37
38 39
38 55
38 59
38 61
38 68
38 75
39 1
39 12
39 14
39 23
39 25
39 31
39 34
39 38
39 46
39 55
39 61
39 68
39 75
39 78
39 79
39 96
40 5
40 6
40 15
40 17
40 24
40 29
40 32
40 45
40 51
40 52
40 66
40 77
40 80
40 83
41 11
41 19
41 20
41 36
41 48
41 60
41 63
41 65
41 73
41 74
41 88
41 92
42 4
42 8
42 16
42 28
42 44
42 50
42 54
42 62
42 69
42 84
42 91
43 3
43 10
43 18
43 26
43 27
43 35
43 36
43 49
43 53
43 57
43 58
43 63
43 64
43 67
43 70
43 81
43 82
43 89
43 95
44 4
44 16
44 22
44 28
44 33
44 42
44 47
44 54
44 69
44 85
44 91
45 5
45 6
45 15
45 17
45 21
45 29
45 32
45 40
45 51
45 52
45 56
45 66
45 71
45 77
45 83
46 7
46 12
46 25
46 31
46 34
46 39
46 50
46 61
46 62
46 75
46 78
46 79
46 87
47 2
47 22
47 33
47 44
47 48
47 54
47 69
47 73
47 85
48 2
48 19
48 22
48 33
48 41
48 47
48 65
48 73
48 85
48 92
48 97
49 10
49 11
49 18
49 20
49 26
49 36
49 43
49 57
49 58
49 60
49 63
49 67
49 70
49 74
49 81
49 95
50 7
50 8
50 12
50 25
50 28
50 34
50 42
50 46
50 62
50 78
50 79
50 84
50 87
51 5
51 13
51 15
51 17
51 24
51 32
51 35
51 40
51 45
51 52
51 53
51 64
51 66
51 76
51 77
51 80
51 82
51 90
52 5
52 15
52 17
52 24
52 29
52 32
52 35
52 40
52 45
52 51
52 66
52 76
52 77
52 80
52 90
52 99
53 3
53 10
53 13
53 24
53 26
53 27
53 35
53 43
53 51
53 57
53 58
53 64
53 67
53 76
53 80
53 82
53 89
54 4
54 16
54 28
54 42
54 44
54 47
54 62
54 69
54 84
54 91
54 100
55 1
55 9
55 23
55 30
55 31
55 37
55 38
55 39
55 59
55 61
55 68
55 72
55 75
55 86
55 94
56 21
56 29
56 45
56 71
56 83
56 93
57 10
57 18
57 26
57 27
57 36
57 43
57 49
57 53
57 58
57 60
57 63
57 64
57 67
57 70
57 74
57 81
57 89
57 95
57 102
58 3
58 10
58 13
58 26
58 27
58 35
58 43
58 49
58 53
58 57
58 64
58 67
58 70
58 76
58 82
58 89
58 95
59 9
59 30
59 37
59 38
59 55
59 68
59 72
59 86
59 98
60 11
60 18
60 19
60 20
60 36
60 41
60 49
60 57
60 63
60 65
60 70
60 74
60 81
60 88
60 92
61 12
61 14
61 23
61 25
61 31
61 34
61 38
61 39
61 46
61 55
61 68
61 75
61 78
61 79
61 94
61 96
62 8
62 16
62 28
62 42
62 46
62 50
62 54
62 69
62 79
62 84
62 87
62 91
63 11
63 18
63 20
63 36
63 41
63 43
63 49
63 57
63 60
63 65
63 70
63 74
63 81
63 88
63 95
63 102
63 109
64 13
64 24
64 27
64 35
64 43
64 51
64 53
64 57
64 58
64 67
64 76
64 80
64 82
64 89
64 90
64 107
64 114
65 19
65 20
65 36
65 41
65 48
65 60
65 63
65 73
65 74
65 81
65 88
65 92
65 97
65 117
66 15
66 17
66 29
66 32
66 40
66 45
66 51
66 52
66 77
66 80
66 83
66 90
66 99
66 101
66 105
66 110
67 26
67 27
67 35
67 43
67 49
67 53
67 57
67 58
67 64
67 70
67 76
67 82
67 89
67 95
67 106
67 107
67 114
67 115
68 23
68 31
68 37
68 38
68 39
68 55
68 59
68 61
68 72
68 75
68 86
68 94
68 96
68 111
68 113
69 16
69 42
69 44
69 47
69 54
69 62
69 84
69 85
69 91
69 100
69 112
70 18
70 26
70 36
70 43
70 49
70 57
70 58
70 60
70 63
70 67
70 74
70 81
70 89
70 95
70 102
70 106
70 109
70 115
71 21
71 45
71 56
71 77
71 83
71 93
71 101
72 30
72 37
72 55
72 59
72 68
72 86
72 94
72 98
72 111
72 119
72 120
73 33
73 41
73 47
73 48
73 65
73 85
73 88
73 92
73 97
73 104
73 118
74 36
74 41
74 49
74 57
74 60
74 63
74 65
74 70
74 81
74 88
74 92
74 95
74 102
74 109
75 31
75 34
75 38
75 39
75 46
75 55
75 61
75 68
75 78
75 79
75 94
75 96
75 103
75 113
75 116
75 126
76 35
76 51
76 52
76 53
76 58
76 64
76 67
76 80
76 82
76 89
76 90
76 99
76 107
76 110
76 114
76 127
77 29
77 32
77 40
77 45
77 51
77 52
77 66
77 71
77 80
77 83
77 90
77 99
77 101
77 105
77 110
77 123
77 128
78 34
78 39
78 46
78 50
78 61
78 75
78 79
78 87
78 96
78 103
78 116
78 121
78 126
79 34
79 39
79 46
79 50
79 61
79 62
79 75
79 78
79 84
79 87
79 96
79 103
79 108
79 121
80 32
80 35
80 40
80 51
80 52
80 53
80 64
80 66
80 76
80 77
80 82
80 90
80 99
80 107
80 110
80 114
80 127
81 36
81 43
81 49
81 57
81 60
81 63
81 65
81 70
81 74
81 88
81 95
81 102
81 109
81 115
82 35
82 43
82 51
82 53
82 58
82 64
82 67
82 76
82 80
82 89
82 90
82 106
82 107
82 114
82 124
82 127
82 130
83 29
83 40
83 45
83 56
83 66
83 71
83 77
83 93
83 99
83 101
83 105
83 123
83 128
84 42
84 50
84 54
84 62
84 69
84 79
84 87
84 91
84 100
84 108
84 112
84 125
84 129
85 33
85 44
85 47
85 48
85 69
85 73
85 91
85 92
85 97
85 100
85 104
85 118
85 133
86 37
86 55
86 59
86 68
86 72
86 94
86 98
86 111
86 113
86 119
86 120
86 138
87 46
87 50
87 62
87 78
87 79
87 84
87 103
87 108
87 112
87 121
87 125
88 41
88 60
88 63
88 65
88 73
88 74
88 81
88 92
88 97
88 109
88 117
88 118
88 132
88 139
89 43
89 53
89 57
89 58
89 64
89 67
89 70
89 76
89 82
89 95
89 102
89 106
89 107
89 114
89 115
89 124
89 130
90 51
90 52
90 64
90 66
90 76
90 77
90 80
90 82
90 99
90 105
90 107
90 110
90 114
90 127
90 135
90 136
91 42
91 44
91 54
91 62
91 69
91 84
91 85
91 100
91 112
91 122
91 129
92 41
92 48
92 60
92 65
92 73
92 74
92 85
92 88
92 97
92 104
92 117
92 118
92 139
93 56
93 71
93 83
93 101
93 123
93 131
93 140
94 55
94 61
94 68
94 72
94 75
94 86
94 96
94 111
94 113
94 116
94 120
94 138
94 144
95 43
95 49
95 57
95 58
95 63
95 67
95 70
95 74
95 81
95 89
95 102
95 106
95 109
95 115
95 124
95 134
96 39
96 61
96 68
96 75
96 78
96 79
96 94
96 103
96 113
96 116
96 121
96 126
97 48
97 65
97 73
97 85
97 88
97 92
97 104
97 117
97 118
97 133
97 137
97 139
98 59
98 72
98 86
98 111
98 119
98 120
98 148
98 149
99 52
99 66
99 76
99 77
99 80
99 83
99 90
99 101
99 105
99 107
99 110
99 123
99 127
99 128
99 135
99 136
100 54
100 69
100 84
100 85
100 91
100 104
100 112
100 122
100 129
100 145
101 66
101 71
101 77
101 83
101 93
101 99
101 105
101 123
101 128
101 131
101 135
101 151
102 57
102 63
102 70
102 74
102 81
102 89
102 95
102 106
102 109
102 115
102 124
102 132
102 134
102 150
103 75
103 78
103 79
103 87
103 96
103 108
103 116
103 121
103 125
103 126
103 141
103 142
103 152
104 73
104 85
104 92
104 97
104 100
104 118
104 122
104 133
104 137
105 66
105 77
105 83
105 90
105 99
105 101
105 110
105 123
105 128
105 131
105 135
105 136
105 151
105 158
105 159
106 67
106 70
106 82
106 89
106 95
106 102
106 107
106 109
106 114
106 115
106 124
106 130
106 134
106 150
106 153
107 64
107 67
107 76
107 80
107 82
107 89
107 90
107 99
107 106
107 110
107 114
107 124
107 127
107 130
107 136
107 157
108 79
108 84
108 87
108 103
108 112
108 121
108 125
108 129
108 141
108 143
108 146
109 63
109 70
109 74
109 81
109 88
109 95
109 102
109 106
109 115
109 117
109 132
109 134
109 139
109 147
109 150
109 154
110 66
110 76
110 77
110 80
110 90
110 99
110 105
110 107
110 114
110 127
110 128
110 130
110 135
110 136
110 155
110 157
110 158
111 68
111 72
111 86
111 94
111 98
111 113
111 116
111 119
111 120
111 138
111 144
111 148
112 69
112 84
112 87
112 91
112 100
112 108
112 122
112 125
112 129
112 143
112 146
113 68
113 75
113 86
113 94
113 96
113 111
113 116
113 120
113 126
113 138
113 144
113 160
114 64
114 67
114 76
114 80
114 82
114 89
114 90
114 106
114 107
114 110
114 115
114 124
114 127
114 130
114 134
114 153
114 157
114 162
115 67
115 70
115 81
115 89
115 95
115 102
115 106
115 109
115 114
115 124
115 130
115 132
115 134
115 150
115 153
115 168
116 75
116 78
116 94
116 96
116 103
116 111
116 113
116 121
116 126
116 138
116 142
116 144
116 152
116 160
116 161
117 65
117 88
117 92
117 97
117 109
117 118
117 132
117 133
117 137
117 139
117 147
117 154
117 156
118 73
118 85
118 88
118 92
118 97
118 104
118 117
118 133
118 137
118 139
118 156
118 167
119 72
119 86
119 98
119 111
119 120
119 138
119 148
119 149
119 169
120 72
120 86
120 94
120 98
120 111
120 113
120 119
120 138
120 148
120 149
120 165
121 78
121 79
121 87
121 96
121 103
121 108
121 116
121 125
121 126
121 141
121 142
121 143
121 152
121 163
121 164
122 91
122 100
122 104
122 112
122 129
122 133
122 145
122 146
122 166
122 176
123 77
123 83
123 93
123 99
123 101
123 105
123 128
123 131
123 135
123 140
123 151
123 158
123 159
123 175
124 82
124 89
124 95
124 102
124 106
124 107
124 114
124 115
124 127
124 130
124 134
124 150
124 153
124 162
124 168
124 172
125 84
125 87
125 103
125 108
125 112
125 121
125 129
125 141
125 142
125 143
125 146
125 163
125 164
125 171
126 75
126 78
126 96
126 103
126 113
126 116
126 121
126 141
126 142
126 144
126 152
126 160
126 161
126 163
127 76
127 80
127 82
127 90
127 99
127 107
127 110
127 114
127 124
127 130
127 135
127 136
127 153
127 155
127 157
127 162
127 174
127 180
128 77
128 83
128 99
128 101
128 105
128 110
128 123
128 131
128 135
128 136
128 151
128 155
128 158
128 159
128 175
128 179
129 84
129 91
129 100
129 108
129 112
129 122
129 125
129 143
129 145
129 146
129 171
130 82
130 89
130 106
130 107
130 110
130 114
130 115
130 124
130 127
130 134
130 136
130 153
130 157
130 162
130 172
130 183
131 93
131 101
131 105
131 123
131 128
131 140
131 151
131 159
131 181
132 88
132 102
132 109
132 115
132 117
132 134
132 139
132 147
132 150
132 154
132 156
132 170
132 173
132 178
133 85
133 97
133 104
133 117
133 118
133 122
133 137
133 139
133 145
133 166
133 167
134 95
134 102
134 106
134 109
134 114
134 115
134 124
134 130
134 132
134 150
134 153
134 154
134 168
134 172
134 173
135 90
135 99
135 101
135 105
135 110
135 123
135 127
135 128
135 136
135 151
135 155
135 157
135 158
135 159
135 174
135 175
135 179
136 90
136 99
136 105
136 107
136 110
136 127
136 128
136 130
136 135
136 155
136 157
136 158
136 159
136 174
136 179
136 180
137 97
137 104
137 117
137 118
137 133
137 139
137 147
137 156
137 167
137 177
137 187
138 86
138 94
138 111
138 113
138 116
138 119
138 120
138 144
138 148
138 149
138 160
138 165
138 184
139 88
139 92
139 97
139 109
139 117
139 118
139 132
139 133
139 137
139 147
139 154
139 156
139 167
139 170
139 177
139 178
140 93
140 123
140 131
140 151
140 181
140 189
141 103
141 108
141 121
141 125
141 126
141 142
141 143
141 152
141 161
141 163
141 164
141 182
141 185
141 190
142 103
142 116
142 121
142 125
142 126
142 141
142 143
142 152
142 161
142 163
142 164
142 182
142 190
142 196
143 108
143 112
143 121
143 125
143 129
143 141
143 142
143 146
143 163
143 164
143 171
143 182
143 185
144 94
144 111
144 113
144 116
144 126
144 138
144 152
144 160
144 161
144 165
144 184
145 100
145 122
145 129
145 133
145 146
145 166
145 176
145 188
146 108
146 112
146 122
146 125
146 129
146 143
146 145
146 164
146 166
146 171
146 176
146 185
146 188
147 109
147 117
147 132
147 137
147 139
147 150
147 154
147 156
147 170
147 177
147 178
147 192
147 195
148 98
148 111
148 119
148 120
148 138
148 149
148 165
148 169
148 186
148 193
148 199
149 98
149 119
149 120
149 138
149 148
149 165
149 169
149 186
149 193
150 102
150 106
150 109
150 115
150 124
150 132
150 134
150 147
150 153
150 154
150 168
150 170
150 172
150 173
150 192
150 197
150 202
151 101
151 105
151 123
151 128
151 131
151 135
151 140
151 158
151 159
151 175
151 179
151 181
151 189
151 201
151 203
152 103
152 116
152 121
152 126
152 141
152 142
152 144
152 160
152 161
152 163
152 182
152 190
152 191
152 196
153 106
153 114
153 115
153 124
153 127
153 130
153 134
153 150
153 157
153 162
153 168
153 172
153 173
153 183
153 194
154 109
154 117
154 132
154 134
154 139
154 147
154 150
154 156
154 168
154 170
154 173
154 177
154 178
154 192
154 197
155 110
155 127
155 128
155 135
155 136
155 157
155 158
155 159
155 162
155 174
155 175
155 179
155 180
155 198
155 209
156 117
156 118
156 132
156 137
156 139
156 147
156 154
156 167
156 170
156 177
156 178
156 192
156 195
156 200
157 107
157 110
157 114
157 127
157 130
157 135
157 136
157 153
157 155
157 158
157 162
157 172
157 174
157 180
157 183
157 204
157 211
158 105
158 110
158 123
158 128
158 135
158 136
158 151
158 155
158 157
158 159
158 174
158 175
158 179
158 181
158 198
158 203
159 105
159 123
159 128
159 131
159 135
159 136
159 151
159 155
159 158
159 174
159 175
159 179
159 181
159 198
159 201
159 203
160 113
160 116
160 126
160 138
160 144
160 152
160 161
160 165
160 184
160 191
160 210
161 116
161 126
161 141
161 142
161 144
161 152
161 160
161 163
161 184
161 190
161 191
161 196
161 210
162 114
162 124
162 127
162 130
162 153
162 155
162 157
162 168
162 172
162 174
162 180
162 183
162 194
162 204
162 211
163 121
163 125
163 126
163 141
163 142
163 143
163 152
163 161
163 164
163 182
163 185
163 190
163 191
163 196
163 212
164 121
164 125
164 141
164 142
164 143
164 146
164 163
164 171
164 182
164 185
164 190
164 205
164 212
165 120
165 138
165 144
165 148
165 149
165 160
165 169
165 184
165 186
165 193
165 199
166 122
166 133
166 145
166 146
166 171
166 176
166 187
166 188
166 206
167 118
167 133
167 137
167 139
167 156
167 177
167 178
167 187
167 195
167 200
167 214
168 115
168 124
168 134
168 150
168 153
168 154
168 162
168 170
168 172
168 173
168 183
168 192
168 194
168 197
168 202
169 119
169 148
169 149
169 165
169 186
169 193
169 199
169 215
169 219
170 132
170 139
170 147
170 150
170 154
170 156
170 168
170 173
170 177
170 178
170 192
170 195
170 197
170 202
170 208
170 225
171 125
171 129
171 143
171 146
171 164
171 166
171 176
171 182
171 185
171 188
171 205
171 213
171 217
172 124
172 130
172 134
172 150
172 153
172 157
172 162
172 168
172 173
172 180
172 183
172 194
172 197
172 202
172 204
172 211
172 224
173 132
173 134
173 150
173 153
173 154
173 168
173 170
173 172
173 178
173 192
173 194
173 197
173 202
173 208
174 127
174 135
174 136
174 155
174 157
174 158
174 159
174 162
174 175
174 179
174 180
174 183
174 198
174 204
174 209
174 211
174 228
175 123
175 128
175 135
175 151
175 155
175 158
175 159
175 174
175 179
175 181
175 189
175 198
175 201
175 203
175 209
175 218
175 229
176 122
176 145
176 146
176 166
176 171
176 188
176 206
176 213
177 137
177 139
177 147
177 154
177 156
177 167
177 170
177 178
177 187
177 192
177 195
177 200
177 208
177 222
177 227
178 132
178 139
178 147
178 154
178 156
178 167
178 170
178 173
178 177
178 192
178 195
178 197
178 200
178 208
178 222
178 225
179 128
179 135
179 136
179 151
179 155
179 158
179 159
179 174
179 175
179 180
179 181
179 198
179 201
179 203
179 209
179 228
179 229
180 127
180 136
180 155
180 157
180 162
180 172
180 174
180 179
180 183
180 194
180 204
180 209
180 211
180 220
180 233
181 131
181 140
181 151
181 158
181 159
181 175
181 179
181 189
181 198
181 201
181 203
181 207
181 218
181 229
181 235
182 141
182 142
182 143
182 152
182 163
182 164
182 171
182 185
182 190
182 191
182 196
182 205
182 212
182 216
183 130
183 153
183 157
183 162
183 168
183 172
183 174
183 180
183 194
183 204
183 211
183 220
183 224
183 233
184 138
184 144
184 160
184 161
184 165
184 186
184 191
184 199
184 210
184 223
184 230
185 141
185 143
185 146
185 163
185 164
185 171
185 182
185 188
185 190
185 196
185 205
185 212
185 213
185 216
185 217
186 148
186 149
186 165
186 169
186 184
186 193
186 199
186 210
186 215
186 219
186 223
187 137
187 166
187 167
187 177
187 195
187 200
187 206
187 214
187 226
187 227
187 241
188 145
188 146
188 166
188 171
188 176
188 185
188 205
188 206
188 213
188 217
188 231
188 236
189 140
189 151
189 175
189 181
189 201
189 203
189 207
189 218
190 141
190 142
190 152
190 161
190 163
190 164
190 182
190 185
190 191
190 196
190 205
190 212
190 216
190 221
190 240
191 152
191 160
191 161
191 163
191 182
191 184
191 190
191 196
191 210
191 216
191 221
191 230
192 147
192 150
192 154
192 156
192 168
192 170
192 173
192 177
192 178
192 195
192 197
192 202
192 208
192 222
192 225
192 232
193 148
193 149
193 165
193 169
193 186
193 199
193 215
193 219
193 238
194 153
194 162
194 168
194 172
194 173
194 180
194 183
194 197
194 202
194 204
194 211
194 220
194 224
194 232
194 239
195 147
195 156
195 167
195 170
195 177
195 178
195 187
195 192
195 200
195 208
195 214
195 222
195 225
195 227
195 243
196 142
196 152
196 161
196 163
196 182
196 185
196 190
196 191
196 210
196 212
196 216
196 221
196 246
197 150
197 154
197 168
197 170
197 172
197 173
197 178
197 192
197 194
197 202
197 208
197 224
197 225
197 232
198 155
198 158
198 159
198 174
198 175
198 179
198 181
198 201
198 203
198 209
198 218
198 228
198 229
198 237
198 244
199 148
199 165
199 169
199 184
199 186
199 193
199 210
199 215
199 219
199 223
199 230
199 238
200 156
200 167
200 177
200 178
200 187
200 195
200 214
200 222
200 227
200 241
200 243
200 250
201 151
201 159
201 175
201 179
201 181
201 189
201 198
201 203
201 207
201 218
201 229
201 235
201 245
202 150
202 168
202 170
202 172
202 173
202 192
202 194
202 197
202 204
202 208
202 224
202 225
202 232
202 239
203 151
203 158
203 159
203 175
203 179
203 181
203 189
203 198
203 201
203 207
203 209
203 218
203 228
203 229
203 235
203 237
203 244
204 157
204 162
204 172
204 174
204 180
204 183
204 194
204 202
204 209
204 211
204 220
204 224
204 233
204 239
205 164
205 171
205 182
205 185
205 188
205 190
205 212
205 213
205 216
205 217
205 231
205 236
205 240
205 248
206 166
206 176
206 187
206 188
206 213
206 214
206 217
206 226
206 231
206 234
206 251
207 181
207 189
207 201
207 203
207 218
207 235
207 245
208 170
208 173
208 177
208 178
208 192
208 195
208 197
208 202
208 222
208 225
208 232
208 243
209 155
209 174
209 175
209 179
209 180
209 198
209 203
209 204
209 211
209 220
209 228
209 229
209 233
209 237
209 242
209 244
210 160
210 161
210 184
210 186
210 191
210 196
210 199
210 221
210 223
210 230
210 249
210 257
211 157
211 162
211 172
211 174
211 180
211 183
211 194
211 204
211 209
211 220
211 224
211 228
211 233
211 239
211 242
211 259
212 163
212 164
212 182
212 185
212 190
212 196
212 205
212 216
212 217
212 221
212 236
212 240
212 247
212 248
212 258
213 171
213 176
213 185
213 188
213 205
213 206
213 217
213 231
213 234
213 236
213 248
213 251
214 167
214 187
214 195
214 200
214 206
214 222
214 226
214 227
214 241
214 250
214 262
214 263
215 169
215 186
215 193
215 199
215 219
215 223
215 238
215 261
216 182
216 185
216 190
216 191
216 196
216 205
216 212
216 221
216 240
216 246
216 247
216 258
216 264
217 171
217 185
217 188
217 205
217 206
217 212
217 213
217 231
217 234
217 236
217 240
217 248
217 268
218 175
218 181
218 189
218 198
218 201
218 203
218 207
218 229
218 235
218 237
218 244
218 245
218 252
218 256
219 169
219 186
219 193
219 199
219 215
219 223
219 238
219 257
219 261
219 265
220 180
220 183
220 194
220 204
220 209
220 211
220 224
220 228
220 233
220 239
220 242
220 255
220 259
220 266
220 274
221 190
221 191
221 196
221 210
221 212
221 216
221 230
221 240
221 246
221 247
221 249
221 264
221 271
222 177
222 178
222 192
222 195
222 200
222 208
222 214
222 225
222 227
222 241
222 243
222 250
222 253
222 263
223 184
223 186
223 199
223 210
223 215
223 219
223 230
223 238
223 249
223 257
223 265
224 172
224 183
224 194
224 197
224 202
224 204
224 211
224 220
224 232
224 239
224 254
224 255
224 266
225 170
225 178
225 192
225 195
225 197
225 202
225 208
225 222
225 232
225 243
225 253
225 260
226 187
226 206
226 214
226 227
226 231
226 234
226 241
226 251
226 262
226 272
227 177
227 187
227 195
227 200
227 214
227 222
227 226
227 241
227 243
227 250
227 253
227 262
227 263
228 174
228 179
228 198
228 203
228 209
228 211
228 220
228 229
228 233
228 237
228 242
228 244
228 256
228 259
228 267
228 269
229 175
229 179
229 181
229 198
229 201
229 203
229 209
229 218
229 228
229 235
229 237
229 242
229 244
229 245
229 252
229 256
229 269
230 184
230 191
230 199
230 210
230 221
230 223
230 246
230 249
230 257
230 271
230 273
231 188
231 205
231 206
231 213
231 217
231 226
231 234
231 236
231 248
231 251
231 268
231 272
232 192
232 194
232 197
232 202
232 208
232 224
232 225
232 239
232 254
232 255
232 260
232 266
232 278
233 180
233 183
233 204
233 209
233 211
233 220
233 228
233 237
233 239
233 242
233 255
233 259
233 267
233 274
234 206
234 213
234 217
234 226
234 231
234 241
234 251
234 268
234 272
235 181
235 201
235 203
235 207
235 218
235 229
235 237
235 244
235 245
235 252
235 256
235 269
235 275
236 188
236 205
236 212
236 213
236 217
236 231
236 240
236 248
236 258
236 268
236 270
237 198
237 203
237 209
237 218
237 228
237 229
237 233
237 235
237 242
237 244
237 252
237 256
237 267
237 269
238 193
238 199
238 215
238 219
238 223
238 261
238 265
238 286
239 194
239 202
239 204
239 211
239 220
239 224
239 232
239 233
239 254
239 255
239 259
239 266
239 274
239 281
240 190
240 205
240 212
240 216
240 217
240 221
240 236
240 246
240 247
240 248
240 258
240 264
240 270
240 276
240 282
241 187
241 200
241 214
241 222
241 226
241 227
241 234
241 243
241 250
241 251
241 262
241 263
241 272
241 292
242 209
242 211
242 220
242 228
242 229
242 233
242 237
242 244
242 256
242 259
242 267
242 269
242 274
242 288
243 195
243 200
243 208
243 222
243 225
243 227
243 241
243 250
243 253
243 260
243 262
243 263
243 277
243 280
244 198
244 203
244 209
244 218
244 228
244 229
244 235
244 237
244 242
244 245
244 252
244 256
244 267
244 269
244 275
244 287
244 294
245 201
245 207
245 218
245 229
245 235
245 244
245 252
245 256
245 275
245 283
246 196
246 216
246 221
246 230
246 240
246 247
246 249
246 258
246 264
246 271
246 273
246 276
246 295
246 297
247 212
247 216
247 221
247 240
247 246
247 248
247 258
247 264
247 270
247 271
247 276
247 282
247 295
247 297
248 205
248 212
248 213
248 217
248 231
248 236
248 240
248 247
248 258
248 268
248 270
248 282
248 291
248 293
249 210
249 221
249 223
249 230
249 246
249 257
249 264
249 265
249 271
249 273
249 279
249 299
250 200
250 214
250 222
250 227
250 241
250 243
250 253
250 262
250 263
250 277
250 292
250 298
251 206
251 213
251 226
251 231
251 234
251 241
251 262
251 268
251 272
251 300
252 218
252 229
252 235
252 237
252 244
252 245
252 256
252 269
252 275
252 283
252 287
252 302
253 222
253 225
253 227
253 243
253 250
253 260
253 262
253 263
253 277
253 278
253 280
253 298
254 224
254 232
254 239
254 255
254 260
254 266
254 278
254 281
254 284
254 290
254 303
255 220
255 224
255 232
255 233
255 239
255 254
255 259
255 266
255 274
255 281
255 284
255 289
255 296
256 218
256 228
256 229
256 235
256 237
256 242
256 244
256 245
256 252
256 267
256 269
256 275
256 283
256 287
256 294
256 302
257 210
257 219
257 223
257 230
257 249
257 261
257 265
257 271
257 273
257 279
257 285
257 299
257 305
258 212
258 216
258 236
258 240
258 246
258 247
258 248
258 264
258 270
258 276
258 282
258 291
258 297
258 301
259 211
259 220
259 228
259 233
259 239
259 242
259 255
259 266
259 267
259 274
259 281
259 288
259 289
259 296
259 306
260 225
260 232
260 243
260 253
260 254
260 277
260 278
260 280
260 284
260 290
260 309
261 215
261 219
261 238
261 257
261 265
261 285
261 286
262 214
262 226
262 227
262 241
262 243
262 250
262 251
262 253
262 263
262 272
262 292
262 298
262 310
263 214
263 222
263 227
263 241
263 243
263 250
263 253
263 262
263 272
263 277
263 292
263 298
263 310
263 311
264 216
264 221
264 240
264 246
264 247
264 249
264 258
264 271
264 273
264 276
264 282
264 295
264 297
264 299
264 301
264 317
265 219
265 223
265 238
265 249
265 257
265 261
265 273
265 279
265 285
265 286
265 305
265 318
266 220
266 224
266 232
266 239
266 254
266 255
266 259
266 274
266 281
266 284
266 289
266 290
266 296
266 303
267 228
267 233
267 237
267 242
267 244
267 256
267 259
267 269
267 274
267 287
267 288
267 289
267 294
267 296
267 306
267 307
268 217
268 231
268 234
268 236
268 248
268 251
268 270
268 272
268 291
268 293
268 300
268 304
268 314
269 228
269 229
269 235
269 237
269 242
269 244
269 252
269 256
269 267
269 275
269 287
269 288
269 294
269 302
269 307
269 312
269 321
270 236
270 240
270 247
270 248
270 258
270 268
270 276
270 282
270 291
270 293
270 301
270 304
270 313
271 221
271 230
271 246
271 247
271 249
271 257
271 264
271 273
271 276
271 279
271 282
271 295
271 297
271 299
271 305
271 317
272 226
272 231
272 234
272 241
272 251
272 262
272 263
272 268
272 292
272 300
272 304
272 314
272 316
273 230
273 246
273 249
273 257
273 264
273 265
273 271
273 279
273 285
273 295
273 299
273 305
273 319
274 220
274 233
274 239
274 242
274 255
274 259
274 266
274 267
274 281
274 288
274 289
274 296
274 306
274 320
275 235
275 244
275 245
275 252
275 256
275 269
275 283
275 287
275 294
275 302
275 321
276 240
276 246
276 247
276 258
276 264
276 270
276 271
276 282
276 291
276 295
276 297
276 301
276 315
276 317
277 243
277 250
277 253
277 260
277 263
277 278
277 280
277 298
277 308
277 309
277 311
278 232
278 253
278 254
278 260
278 277
278 280
278 284
278 290
278 303
278 308
278 309
278 322
279 249
279 257
279 265
279 271
279 273
279 285
279 286
279 299
279 305
279 318
279 319
279 327
280 243
280 253
280 260
280 277
280 278
280 284
280 290
280 308
280 309
280 331
281 239
281 254
281 255
281 259
281 266
281 274
281 284
281 289
281 290
281 296
281 303
281 306
281 320
281 322
281 336
282 240
282 247
282 248
282 258
282 264
282 270
282 271
282 276
282 291
282 293
282 295
282 297
282 301
282 313
282 315
282 317
282 334
282 337
283 245
283 252
283 256
283 275
283 287
283 302
284 254
284 255
284 260
284 266
284 278
284 280
284 281
284 290
284 303
284 309
284 322
285 257
285 261
285 265
285 273
285 279
285 286
285 299
285 305
285 318
285 319
285 324
285 327
286 238
286 261
286 265
286 279
286 285
286 318
286 324
287 244
287 252
287 256
287 267
287 269
287 275
287 283
287 288
287 294
287 302
287 307
287 312
287 321
287 335
287 339
288 242
288 259
288 267
288 269
288 274
288 287
288 289
288 294
288 296
288 306
288 307
288 312
288 320
288 326
288 329
289 255
289 259
289 266
289 267
289 274
289 281
289 288
289 294
289 296
289 306
289 307
289 320
289 326
289 329
290 254
290 260
290 266
290 278
290 280
290 281
290 284
290 303
290 308
290 309
290 322
290 331
290 338
291 248
291 258
291 268
291 270
291 276
291 282
291 293
291 297
291 301
291 304
291 313
291 315
291 323
291 325
291 332
291 337
292 241
292 250
292 262
292 263
292 272
292 298
292 310
292 311
292 328
293 248
293 268
293 270
293 282
293 291
293 300
293 301
293 304
293 313
293 314
293 323
293 325
293 332
294 244
294 256
294 267
294 269
294 275
294 287
294 288
294 289
294 302
294 307
294 312
294 321
294 326
294 339
295 246
295 247
295 264
295 271
295 273
295 276
295 282
295 297
295 299
295 301
295 305
295 315
295 317
295 319
295 333
295 334
296 255
296 259
296 266
296 267
296 274
296 281
296 288
296 289
296 306
296 307
296 320
296 329
296 336
297 246
297 247
297 258
297 264
297 271
297 276
297 282
297 291
297 295
297 299
297 301
297 315
297 317
297 333
297 334
297 337
298 250
298 253
298 262
298 263
298 277
298 292
298 308
298 310
298 311
298 328
298 330
298 341
298 345
299 249
299 257
299 264
299 271
299 273
299 279
299 285
299 295
299 297
299 305
299 317
299 319
299 327
299 333
299 348
300 251
300 268
300 272
300 293
300 304
300 314
300 316
300 323
300 325
300 340
300 344
301 258
301 264
301 270
301 276
301 282
301 291
301 293
301 295
301 297
301 313
301 315
301 317
301 323
301 332
301 334
301 337
302 252
302 256
302 269
302 275
302 283
302 287
302 294
302 312
302 321
302 335
302 339
303 254
303 266
303 278
303 281
303 284
303 290
303 309
303 322
303 331
303 336
303 338
303 347
304 268
304 270
304 272
304 291
304 293
304 300
304 313
304 314
304 316
304 323
304 325
304 332
304 344
304 349
304 354
305 257
305 265
305 271
305 273
305 279
305 285
305 295
305 299
305 317
305 318
305 319
305 327
305 333
305 342
305 348
306 259
306 267
306 274
306 281
306 288
306 289
306 296
306 307
306 320
306 326
306 329
306 336
306 346
306 352
307 267
307 269
307 287
307 288
307 289
307 294
307 296
307 306
307 312
307 320
307 321
307 326
307 329
307 339
307 346
308 277
308 278
308 280
308 290
308 298
308 309
308 311
308 330
308 331
308 338
308 341
308 355
308 356
309 260
309 277
309 278
309 280
309 284
309 290
309 303
309 308
309 322
309 330
309 331
309 338
309 356
309 357
310 262
310 263
310 292
310 298
310 311
310 316
310 328
310 340
310 341
310 345
310 363
311 263
311 277
311 292
311 298
311 308
311 310
311 328
311 330
311 341
311 345
311 355
312 269
312 287
312 288
312 294
312 302
312 307
312 321
312 326
312 335
312 339
312 346
312 361
313 270
313 282
313 291
313 293
313 301
313 304
313 314
313 315
313 323
313 325
313 332
313 334
313 337
313 349
313 351
313 366
314 268
314 272
314 293
314 300
314 304
314 313
314 316
314 323
314 325
314 340
314 344
314 349
314 354
314 358
315 276
315 282
315 291
315 295
315 297
315 301
315 313
315 317
315 332
315 333
315 334
315 337
315 359
315 360
315 371
316 272
316 300
316 304
316 310
316 314
316 323
316 325
316 328
316 340
316 344
316 354
316 358
317 264
317 271
317 276
317 282
317 295
317 297
317 299
317 301
317 305
317 315
317 319
317 333
317 334
317 337
317 348
317 359
317 360
317 370
318 265
318 279
318 285
318 286
318 305
318 319
318 324
318 327
318 342
318 343
319 273
319 279
319 285
319 295
319 299
319 305
319 317
319 318
319 327
319 333
319 342
319 348
319 368
320 274
320 281
320 288
320 289
320 296
320 306
320 307
320 326
320 329
320 336
320 346
320 352
320 353
320 365
321 269
321 275
321 287
321 294
321 302
321 307
321 312
321 326
321 335
321 339
321 369
322 278
322 281
322 284
322 290
322 303
322 309
322 331
322 336
322 338
322 347
322 353
322 357
322 364
323 291
323 293
323 300
323 301
323 304
323 313
323 314
323 316
323 325
323 332
323 337
323 344
323 349
323 351
323 354
323 366
323 374
324 285
324 286
324 318
324 327
324 342
324 343
325 291
325 293
325 300
325 304
325 313
325 314
325 316
325 323
325 332
325 340
325 344
325 349
325 351
325 354
325 358
325 374
326 288
326 289
326 294
326 306
326 307
326 312
326 320
326 321
326 329
326 339
326 346
326 352
326 361
326 365
326 367
327 279
327 285
327 299
327 305
327 318
327 319
327 324
327 342
327 343
327 348
327 368
327 372
328 292
328 298
328 310
328 311
328 316
328 340
328 341
328 345
328 355
328 363
328 373
329 288
329 289
329 296
329 306
329 307
329 320
329 326
329 336
329 346
329 352
329 353
329 361
329 365
329 367
330 298
330 308
330 309
330 311
330 331
330 338
330 341
330 345
330 355
330 356
330 357
330 381
331 280
331 290
331 303
331 308
331 309
331 322
331 330
331 338
331 341
331 347
331 355
331 356
331 357
331 364
331 382
332 291
332 293
332 301
332 304
332 313
332 315
332 323
332 325
332 334
332 337
332 349
332 351
332 354
332 366
332 371
332 374
332 377
332 378
333 295
333 297
333 299
333 305
333 315
333 317
333 319
333 334
333 337
333 348
333 359
333 360
333 368
333 370
334 282
334 295
334 297
334 301
334 313
334 315
334 317
334 332
334 333
334 337
334 351
334 359
334 360
334 366
334 370
334 371
334 378
335 287
335 302
335 312
335 321
335 339
335 350
335 362
335 369
335 376
336 281
336 296
336 303
336 306
336 320
336 322
336 329
336 338
336 347
336 352
336 353
336 364
336 365
336 375
337 282
337 291
337 297
337 301
337 313
337 315
337 317
337 323
337 332
337 333
337 334
337 349
337 351
337 359
337 360
337 366
337 371
337 378
338 290
338 303
338 308
338 309
338 322
338 330
338 331
338 336
338 347
338 353
338 356
338 357
338 364
338 379
338 382
339 287
339 294
339 302
339 307
339 312
339 321
339 326
339 335
339 346
339 350
339 361
339 362
339 369
339 376
339 384
340 300
340 310
340 314
340 316
340 325
340 328
340 344
340 345
340 354
340 358
340 363
341 298
341 308
341 310
341 311
341 328
341 330
341 331
341 345
341 355
341 356
341 363
341 373
341 381
341 387
342 305
342 318
342 319
342 324
342 327
342 343
342 348
342 368
342 372
342 380
343 318
343 324
343 327
343 342
343 372
343 380
344 300
344 304
344 314
344 316
344 323
344 325
344 340
344 349
344 354
344 358
344 374
345 298
345 310
345 311
345 328
345 330
345 340
345 341
345 355
345 356
345 363
345 373
345 387
345 393
346 306
346 307
346 312
346 320
346 326
346 329
346 339
346 352
346 361
346 365
346 367
346 388
347 303
347 322
347 331
347 336
347 338
347 353
347 357
347 364
347 375
347 379
347 392
348 299
348 305
348 317
348 319
348 327
348 333
348 342
348 359
348 368
348 370
348 372
348 383
348 389
349 304
349 313
349 314
349 323
349 325
349 332
349 337
349 344
349 351
349 354
349 358
349 366
349 374
349 377
349 386
350 335
350 339
350 362
350 369
351 313
351 323
351 325
351 332
351 334
351 337
351 349
351 354
351 360
351 366
351 371
351 374
351 377
351 378
351 386
351 394
352 306
352 320
352 326
352 329
352 336
352 346
352 353
352 361
352 365
352 367
352 375
352 391
352 398
353 320
353 322
353 329
353 336
353 338
353 347
353 352
353 364
353 365
353 375
353 379
353 391
354 304
354 314
354 316
354 323
354 325
354 332
354 340
354 344
354 349
354 351
354 358
354 366
354 374
354 377
354 386
354 403
355 308
355 311
355 328
355 330
355 331
355 341
355 345
355 356
355 357
355 363
355 373
355 381
355 382
355 387
355 401
355 402
356 308
356 309
356 330
356 331
356 338
356 341
356 345
356 355
356 357
356 373
356 381
356 382
356 387
356 401
356 402
357 309
357 322
357 330
357 331
357 338
357 347
357 355
357 356
357 364
357 379
357 381
357 382
357 392
357 402
357 412
358 314
358 316
358 325
358 340
358 344
358 349
358 354
358 374
358 377
358 386
358 395
358 409
359 315
359 317
359 333
359 334
359 337
359 348
359 360
359 368
359 370
359 371
359 378
359 383
359 385
359 390
359 407
360 315
360 317
360 333
360 334
360 337
360 351
360 359
360 366
360 370
360 371
360 378
360 385
360 390
360 400
360 411
361 312
361 326
361 329
361 339
361 346
361 352
361 365
361 367
361 369
361 376
361 384
361 388
361 396
361 397
362 335
362 339
362 350
362 369
362 376
362 399
362 408
362 415
363 310
363 328
363 340
363 341
363 345
363 355
363 373
363 387
363 393
364 322
364 331
364 336
364 338
364 347
364 353
364 357
364 375
364 379
364 382
364 391
364 392
364 414
365 320
365 326
365 329
365 336
365 346
365 352
365 353
365 361
365 367
365 375
365 388
365 391
365 398
366 313
366 323
366 332
366 334
366 337
366 349
366 351
366 354
366 360
366 371
366 374
366 377
366 378
366 385
366 386
366 394
366 400
366 403
366 413
367 326
367 329
367 346
367 352
367 361
367 365
367 376
367 384
367 388
367 396
367 398
368 319
368 327
368 333
368 342
368 348
368 359
368 370
368 372
368 383
368 389
368 390
368 404
368 405
369 321
369 335
369 339
369 350
369 361
369 362
369 376
369 384
369 396
369 397
369 399
369 415
370 317
370 333
370 334
370 348
370 359
370 360
370 368
370 371
370 383
370 385
370 390
370 405
370 407
371 315
371 332
371 334
371 337
371 351
371 359
371 360
371 366
371 370
371 377
371 378
371 385
371 390
371 394
371 400
371 411
372 327
372 342
372 343
372 348
372 368
372 380
372 383
372 389
372 404
373 328
373 341
373 345
373 355
373 356
373 363
373 381
373 387
373 393
373 401
373 418
374 323
374 325
374 332
374 344
374 349
374 351
374 354
374 358
374 366
374 377
374 386
374 394
374 395
374 403
374 409
374 413
375 336
375 347
375 352
375 353
375 364
375 365
375 379
375 391
375 392
375 398
375 410
375 417
376 335
376 339
376 361
376 362
376 367
376 369
376 384
376 388
376 396
376 397
376 399
376 415
376 419
376 423
376 425
377 332
377 349
377 351
377 354
377 358
377 366
377 371
377 374
377 378
377 386
377 394
377 400
377 403
377 409
377 413
378 332
378 334
378 337
378 351
378 359
378 360
378 366
378 371
378 377
378 385
378 390
378 394
378 400
378 411
378 413
379 338
379 347
379 353
379 357
379 364
379 375
379 382
379 391
379 392
379 410
379 412
379 414
379 424
379 431
380 342
380 343
380 372
380 389
380 404
380 406
380 420
380 426
381 330
381 341
381 355
381 356
381 357
381 373
381 382
381 387
381 393
381 401
381 402
381 412
381 421
382 331
382 338
382 355
382 356
382 357
382 364
382 379
382 381
382 392
382 401
382 402
382 412
382 414
382 429
383 348
383 359
383 368
383 370
383 372
383 389
383 390
383 404
383 405
383 407
383 436
384 339
384 361
384 367
384 369
384 376
384 388
384 396
384 397
384 399
384 415
384 419
384 422
384 423
384 425
385 359
385 360
385 366
385 370
385 371
385 378
385 390
385 394
385 400
385 407
385 411
385 434
385 435
386 349
386 351
386 354
386 358
386 366
386 374
386 377
386 394
386 395
386 403
386 409
386 413
386 416
386 430
387 341
387 345
387 355
387 356
387 363
387 373
387 381
387 393
387 401
387 402
387 418
387 421
387 428
387 438
387 445
388 346
388 361
388 365
388 367
388 376
388 384
388 396
388 397
388 398
388 417
388 419
388 422
388 425
388 432
388 433
389 348
389 368
389 372
389 380
389 383
389 404
389 405
389 406
389 420
389 426
389 436
390 359
390 360
390 368
390 370
390 371
390 378
390 383
390 385
390 400
390 405
390 407
390 411
390 434
391 352
391 353
391 364
391 365
391 375
391 379
391 392
391 398
391 410
391 414
391 417
391 424
391 441
391 442
392 347
392 357
392 364
392 375
392 379
392 382
392 391
392 402
392 410
392 412
392 414
392 424
392 429
392 431
392 442
393 345
393 363
393 373
393 381
393 387
393 395
393 401
393 418
393 421
393 428
393 445
394 351
394 366
394 371
394 374
394 377
394 378
394 385
394 386
394 400
394 403
394 409
394 411
394 413
394 435
394 439
395 358
395 374
395 386
395 393
395 403
395 409
395 416
395 430
395 437
395 450
396 361
396 367
396 369
396 376
396 384
396 388
396 397
396 399
396 415
396 419
396 422
396 423
396 425
396 432
396 444
397 361
397 369
397 376
397 384
397 388
397 396
397 399
397 408
397 415
397 419
397 422
397 423
397 425
397 432
397 444
398 352
398 365
398 367
398 375
398 388
398 391
398 410
398 417
398 422
398 432
398 433
398 441
398 448
399 362
399 369
399 376
399 384
399 396
399 397
399 408
399 415
399 419
399 423
399 425
399 427
399 444
400 360
400 366
400 371
400 377
400 378
400 385
400 390
400 394
400 403
400 407
400 411
400 413
400 434
400 435
400 439
401 355
401 356
401 373
401 381
401 382
401 387
401 393
401 402
401 412
401 418
401 421
401 428
401 429
401 438
401 443
401 445
402 355
402 356
402 357
402 381
402 382
402 387
402 392
402 401
402 412
402 414
402 418
402 421
402 429
402 438
402 443
403 354
403 366
403 374
403 377
403 386
403 394
403 395
403 400
403 409
403 413
403 416
403 430
403 439
403 446
404 368
404 372
404 380
404 383
404 389
404 405
404 406
404 420
404 426
404 436
404 440
405 368
405 370
405 383
405 389
405 390
405 404
405 407
405 426
405 436
405 447
405 459
406 380
406 389
406 404
406 420
406 426
406 440
407 359
407 370
407 383
407 385
407 390
407 400
407 405
407 411
407 434
407 436
407 447
407 462
408 362
408 397
408 399
408 415
408 423
408 427
408 449
409 358
409 374
409 377
409 386
409 394
409 395
409 403
409 413
409 416
409 430
409 437
409 439
409 446
409 450
409 464
410 375
410 379
410 391
410 392
410 398
410 414
410 417
410 424
410 431
410 433
410 441
410 442
410 448
410 454
411 360
411 371
411 378
411 385
411 390
411 394
411 400
411 407
411 434
411 435
411 447
411 457
411 462
412 357
412 379
412 381
412 382
412 392
412 401
412 402
412 414
412 421
412 424
412 429
412 431
412 438
412 443
412 452
412 461
413 366
413 374
413 377
413 378
413 386
413 394
413 400
413 403
413 409
413 430
413 435
413 439
413 446
413 455
413 464
414 364
414 379
414 382
414 391
414 392
414 402
414 410
414 412
414 424
414 429
414 431
414 442
414 452
414 461
415 362
415 369
415 376
415 384
415 396
415 397
415 399
415 408
415 419
415 423
415 425
415 427
415 444
415 449
415 465
416 386
416 395
416 403
416 409
416 428
416 430
416 437
416 446
416 450
416 453
417 375
417 388
417 391
417 398
417 410
417 422
417 432
417 433
417 441
417 442
417 448
417 454
418 373
418 387
418 393
418 401
418 402
418 421
418 428
418 438
418 443
418 445
418 453
418 456
419 376
419 384
419 388
419 396
419 397
419 399
419 415
419 422
419 423
419 425
419 427
419 432
419 444
419 451
419 460
419 463
419 465
420 380
420 389
420 404
420 406
420 426
420 440
420 458
421 381
421 387
421 393
421 401
421 402
421 412
421 418
421 428
421 429
421 438
421 443
421 445
421 456
422 384
422 388
422 396
422 397
422 398
422 417
422 419
422 425
422 432
422 433
422 444
422 448
422 451
422 460
423 376
423 384
423 396
423 397
423 399
423 408
423 415
423 419
423 425
423 427
423 444
423 449
423 460
423 463
423 465
424 379
424 391
424 392
424 410
424 412
424 414
424 429
424 431
424 441
424 442
424 452
424 454
424 461
425 376
425 384
425 388
425 396
425 397
425 399
425 415
425 419
425 422
425 423
425 432
425 433
425 444
425 451
425 460
425 463
425 465
426 380
426 389
426 404
426 405
426 406
426 420
426 436
426 440
426 458
426 459
427 399
427 408
427 415
427 419
427 423
427 444
427 449
427 465
428 387
428 393
428 401
428 416
428 418
428 421
428 437
428 438
428 445
428 453
428 456
429 382
429 392
429 401
429 402
429 412
429 414
429 421
429 424
429 431
429 438
429 442
429 443
429 452
429 461
430 386
430 395
430 403
430 409
430 413
430 416
430 437
430 439
430 446
430 450
430 455
430 464
431 379
431 392
431 410
431 412
431 414
431 424
431 429
431 441
431 442
431 443
431 452
431 454
431 461
432 388
432 396
432 397
432 398
432 417
432 419
432 422
432 425
432 433
432 444
432 448
432 451
432 460
432 463
433 388
433 398
433 410
433 417
433 422
433 425
433 432
433 441
433 448
433 451
433 454
434 385
434 390
434 400
434 407
434 411
434 435
434 439
434 447
434 457
434 462
435 385
435 394
435 400
435 411
435 413
435 434
435 439
435 447
435 455
435 457
435 462
436 383
436 389
436 404
436 405
436 407
436 426
436 447
436 458
436 459
437 395
437 409
437 416
437 428
437 430
437 446
437 450
437 453
437 464
438 387
438 401
438 402
438 412
438 418
438 421
438 428
438 429
438 443
438 445
438 456
438 461
439 394
439 400
439 403
439 409
439 413
439 430
439 434
439 435
439 446
439 455
439 457
439 464
440 404
440 406
440 420
440 426
440 458
441 391
441 398
441 410
441 417
441 424
441 431
441 433
441 442
441 448
441 452
441 454
442 391
442 392
442 410
442 414
442 417
442 424
442 429
442 431
442 441
442 452
442 454
442 461
443 401
443 402
443 412
443 418
443 421
443 429
443 431
443 438
443 445
443 456
443 461
444 396
444 397
444 399
444 415
444 419
444 422
444 423
444 425
444 427
444 432
444 449
444 451
444 460
444 463
444 465
445 387
445 393
445 401
445 418
445 421
445 428
445 438
445 443
445 453
445 456
446 403
446 409
446 413
446 416
446 430
446 437
446 439
446 450
446 455
446 464
447 405
447 407
447 411
447 434
447 435
447 436
447 457
447 459
447 462
448 398
448 410
448 417
448 422
448 432
448 433
448 441
448 451
448 454
449 408
449 415
449 423
449 427
449 444
449 465
450 395
450 409
450 416
450 430
450 437
450 446
450 453
450 464
451 419
451 422
451 425
451 432
451 433
451 444
451 448
451 460
451 463
452 412
452 414
452 424
452 429
452 431
452 441
452 442
452 454
452 461
453 416
453 418
453 428
453 437
453 445
453 450
453 456
454 410
454 417
454 424
454 431
454 433
454 441
454 442
454 448
454 452
455 413
455 430
455 435
455 439
455 446
455 457
455 464
456 418
456 421
456 428
456 438
456 443
456 445
456 453
456 461
457 411
457 434
457 435
457 439
457 447
457 455
457 462
458 420
458 426
458 436
458 440
458 459
459 405
459 426
459 436
459 447
459 458
459 462
460 419
460 422
460 423
460 425
460 432
460 444
460 451
460 463
460 465
461 412
461 414
461 424
461 429
461 431
461 438
461 442
461 443
461 452
461 456
462 407
462 411
462 434
462 435
462 447
462 457
462 459
463 419
463 423
463 425
463 432
463 444
463 451
463 460
463 465
464 409
464 413
464 430
464 437
464 439
464 446
464 450
464 455
465 415
465 419
465 423
465 425
465 427
465 444
465 449
465 460
465 463
