1 5
1 9
1 11
1 38
1 40
2 7
2 8
2 12
2 16
2 19
2 36
2 41
2 49
3 22
3 27
3 28
3 34
3 54
4 6
4 7
4 20
4 24
4 26
4 30
4 42
4 48
5 1
5 9
5 10
5 11
5 25
5 29
5 38
5 43
5 52
6 4
6 7
6 8
6 26
6 30
6 47
6 48
6 59
7 2
7 4
7 6
7 8
7 12
7 26
7 30
7 41
7 47
7 59
8 2
8 6
8 7
8 12
8 16
8 26
8 30
8 36
8 41
8 47
8 49
9 1
9 5
9 11
9 25
9 38
9 40
9 43
9 52
9 53
10 5
10 20
10 24
10 25
10 29
10 43
10 50
10 52
10 57
11 1
11 5
11 9
11 38
11 40
11 43
11 53
12 2
12 7
12 8
12 16
12 19
12 26
12 36
12 41
12 47
12 49
13 14
13 18
13 27
13 28
13 31
13 35
13 56
13 66
13 69
14 13
14 17
14 18
14 28
14 31
14 35
14 37
14 56
15 17
15 18
15 21
15 37
15 39
15 44
15 46
15 61
15 65
15 67
16 2
16 8
16 12
16 19
16 22
16 36
16 41
16 49
16 51
16 62
17 14
17 15
17 18
17 21
17 31
17 35
17 37
17 39
17 44
17 61
17 65
18 13
18 14
18 15
18 17
18 31
18 35
18 37
18 39
18 56
18 61
19 2
19 12
19 16
19 22
19 34
19 36
19 49
19 51
19 58
19 62
19 64
20 4
20 10
20 24
20 29
20 30
20 42
20 48
20 50
20 63
20 70
21 15
21 17
21 23
21 32
21 33
21 39
21 44
21 46
21 55
21 65
21 67
21 71
22 3
22 16
22 19
22 34
22 36
22 51
22 58
22 60
22 62
22 64
23 21
23 32
23 33
23 44
23 45
23 46
23 55
23 76
24 4
24 10
24 20
24 25
24 29
24 42
24 48
24 50
24 57
24 63
24 70
25 5
25 9
25 10
25 24
25 29
25 38
25 43
25 50
25 52
25 57
26 4
26 6
26 7
26 8
26 12
26 30
26 41
26 47
26 48
26 49
26 59
26 78
26 79
27 3
27 13
27 28
27 31
27 34
27 54
27 60
27 66
27 75
28 3
28 13
28 14
28 27
28 31
28 34
28 35
28 54
28 56
28 66
28 69
28 75
29 5
29 10
29 20
29 24
29 25
29 42
29 43
29 50
29 52
29 57
29 63
30 4
30 6
30 7
30 8
30 20
30 26
30 42
30 47
30 48
30 59
30 70
30 73
30 78
31 13
31 14
31 17
31 18
31 27
31 28
31 35
31 37
31 56
31 66
31 69
32 21
32 23
32 33
32 44
32 45
32 46
32 55
32 71
32 76
33 21
33 23
33 32
33 45
33 46
33 55
33 76
34 3
34 19
34 22
34 27
34 28
34 51
34 54
34 58
34 60
34 64
34 75
34 77
35 13
35 14
35 17
35 18
35 28
35 31
35 37
35 39
35 56
35 61
35 69
35 80
35 81
36 2
36 8
36 12
36 16
36 19
36 22
36 41
36 49
36 51
36 58
36 62
36 64
36 84
37 14
37 15
37 17
37 18
37 31
37 35
37 39
37 44
37 56
37 61
37 65
37 80
37 81
38 1
38 5
38 9
38 11
38 25
38 40
38 43
38 52
38 53
38 68
38 72
38 74
39 15
39 17
39 18
39 21
39 35
39 37
39 44
39 46
39 61
39 65
39 67
39 71
39 80
40 1
40 9
40 11
40 38
40 43
40 53
40 68
40 74
40 92
41 2
41 7
41 8
41 12
41 16
41 26
41 36
41 47
41 49
41 51
41 62
41 79
41 82
41 84
42 4
42 20
42 24
42 29
42 30
42 48
42 50
42 57
42 59
42 63
42 70
42 73
43 5
43 9
43 10
43 11
43 25
43 29
43 38
43 40
43 52
43 53
43 57
43 68
43 72
43 74
43 83
44 15
44 17
44 21
44 23
44 32
44 37
44 39
44 46
44 55
44 61
44 65
44 67
44 71
44 86
44 93
45 23
45 32
45 33
45 46
45 55
45 76
45 90
45 99
46 15
46 21
46 23
46 32
46 33
46 39
46 44
46 45
46 55
46 65
46 67
46 71
46 76
46 86
46 90
47 6
47 7
47 8
47 12
47 26
47 30
47 41
47 49
47 59
47 78
47 79
47 82
47 84
48 4
48 6
48 20
48 24
48 26
48 30
48 42
48 59
48 63
48 70
48 73
48 78
48 94
49 2
49 8
49 12
49 16
49 19
49 26
49 36
49 41
49 47
49 51
49 62
49 64
49 79
49 82
49 84
49 89
50 10
50 20
50 24
50 25
50 29
50 42
50 52
50 57
50 63
50 70
50 83
50 85
50 95
50 98
50 100
51 16
51 19
51 22
51 34
51 36
51 41
51 49
51 58
51 60
51 62
51 64
51 77
51 84
51 89
51 96
51 97
52 5
52 9
52 10
52 25
52 29
52 38
52 43
52 50
52 53
52 57
52 68
52 72
52 74
52 83
52 85
53 9
53 11
53 38
53 40
53 43
53 52
53 68
53 72
53 74
53 92
54 3
54 27
54 28
54 34
54 58
54 60
54 66
54 69
54 75
54 77
54 87
54 88
54 102
55 21
55 23
55 32
55 33
55 44
55 45
55 46
55 67
55 71
55 76
55 86
55 90
55 99
56 13
56 14
56 18
56 28
56 31
56 35
56 37
56 61
56 66
56 69
56 80
56 81
56 87
56 91
57 10
57 24
57 25
57 29
57 42
57 43
57 50
57 52
57 63
57 72
57 83
57 85
57 95
57 98
57 100
58 19
58 22
58 34
58 36
58 51
58 54
58 60
58 62
58 64
58 77
58 88
58 89
58 96
58 97
58 103
59 6
59 7
59 26
59 30
59 42
59 47
59 48
59 70
59 73
59 78
59 79
59 82
59 94
59 106
60 22
60 27
60 34
60 51
60 54
60 58
60 64
60 75
60 77
60 88
60 96
60 97
60 102
60 103
61 15
61 17
61 18
61 35
61 37
61 39
61 44
61 56
61 65
61 67
61 80
61 81
61 91
61 93
62 16
62 19
62 22
62 36
62 41
62 49
62 51
62 58
62 64
62 77
62 82
62 84
62 89
62 96
62 97
63 20
63 24
63 29
63 42
63 48
63 50
63 57
63 70
63 73
63 85
63 94
63 95
63 98
63 100
63 101
64 19
64 22
64 34
64 36
64 49
64 51
64 58
64 60
64 62
64 77
64 84
64 89
64 96
64 97
65 15
65 17
65 21
65 37
65 39
65 44
65 46
65 61
65 67
65 71
65 80
65 81
65 86
65 93
66 13
66 27
66 28
66 31
66 54
66 56
66 69
66 75
66 87
66 88
66 91
66 102
66 105
66 107
67 15
67 21
67 39
67 44
67 46
67 55
67 61
67 65
67 71
67 80
67 86
67 90
67 93
67 104
67 115
68 38
68 40
68 43
68 52
68 53
68 72
68 74
68 83
68 92
68 111
68 113
68 118
69 13
69 28
69 31
69 35
69 54
69 56
69 66
69 75
69 81
69 87
69 91
69 105
69 107
69 110
70 20
70 24
70 30
70 42
70 48
70 50
70 59
70 63
70 73
70 78
70 94
70 95
70 98
70 101
70 112
71 21
71 32
71 39
71 44
71 46
71 55
71 65
71 67
71 76
71 86
71 90
71 93
71 104
71 109
71 115
72 38
72 43
72 52
72 53
72 57
72 68
72 74
72 83
72 85
72 92
72 100
72 111
72 113
72 118
73 30
73 42
73 48
73 59
73 63
73 70
73 78
73 79
73 94
73 98
73 101
73 112
73 114
74 38
74 40
74 43
74 52
74 53
74 68
74 72
74 92
74 111
74 113
74 118
75 27
75 28
75 34
75 54
75 60
75 66
75 69
75 77
75 87
75 88
75 102
75 103
75 105
75 107
76 23
76 32
76 33
76 45
76 46
76 55
76 71
76 86
76 90
76 99
76 104
76 109
76 125
76 129
77 34
77 51
77 54
77 58
77 60
77 62
77 64
77 75
77 88
77 96
77 97
77 102
77 103
77 121
78 26
78 30
78 47
78 48
78 59
78 70
78 73
78 79
78 82
78 94
78 106
78 108
78 112
78 114
78 131
79 26
79 41
79 47
79 49
79 59
79 73
79 78
79 82
79 84
79 94
79 106
79 108
79 112
79 114
79 126
80 35
80 37
80 39
80 56
80 61
80 65
80 67
80 81
80 86
80 91
80 93
80 110
80 116
80 119
80 120
81 35
81 37
81 56
81 61
81 65
81 69
81 80
81 87
81 91
81 107
81 110
81 116
81 119
82 41
82 47
82 49
82 59
82 62
82 78
82 79
82 84
82 89
82 106
82 108
82 114
82 117
82 126
83 43
83 50
83 52
83 57
83 68
83 72
83 85
83 95
83 100
83 113
83 118
83 122
84 36
84 41
84 47
84 49
84 51
84 62
84 64
84 79
84 82
84 89
84 97
84 106
84 108
84 117
84 126
85 50
85 52
85 57
85 63
85 72
85 83
85 95
85 98
85 100
85 113
85 122
85 130
86 44
86 46
86 55
86 65
86 67
86 71
86 76
86 80
86 90
86 93
86 99
86 104
86 109
86 115
86 120
86 125
87 54
87 56
87 66
87 69
87 75
87 81
87 91
87 102
87 105
87 107
87 110
87 116
87 127
88 54
88 58
88 60
88 66
88 75
88 77
88 96
88 102
88 103
88 105
88 121
88 133
88 134
88 136
89 49
89 51
89 58
89 62
89 64
89 82
89 84
89 96
89 97
89 108
89 117
89 121
89 126
89 128
89 132
90 45
90 46
90 55
90 67
90 71
90 76
90 86
90 93
90 99
90 104
90 109
90 115
90 125
90 129
91 56
91 61
91 66
91 69
91 80
91 81
91 87
91 105
91 107
91 110
91 116
91 119
91 127
91 140
92 40
92 53
92 68
92 72
92 74
92 111
92 118
92 138
93 44
93 61
93 65
93 67
93 71
93 80
93 86
93 90
93 104
93 115
93 119
93 120
94 48
94 59
94 63
94 70
94 73
94 78
94 79
94 98
94 101
94 106
94 112
94 114
94 123
94 124
94 131
94 135
95 50
95 57
95 63
95 70
95 83
95 85
95 98
95 100
95 101
95 122
95 123
95 124
95 130
95 137
95 145
96 51
96 58
96 60
96 62
96 64
96 77
96 88
96 89
96 97
96 102
96 103
96 121
96 128
96 132
96 133
97 51
97 58
97 60
97 62
97 64
97 77
97 84
97 89
97 96
97 103
97 117
97 121
97 128
97 132
98 50
98 57
98 63
98 70
98 73
98 85
98 94
98 95
98 100
98 101
98 112
98 123
98 124
98 130
98 137
99 45
99 55
99 76
99 86
99 90
99 104
99 109
99 125
99 129
100 50
100 57
100 63
100 72
100 83
100 85
100 95
100 98
100 101
100 113
100 122
100 123
100 130
100 137
100 145
101 63
101 70
101 73
101 94
101 95
101 98
101 100
101 112
101 123
101 124
101 130
101 131
101 135
101 137
102 54
102 60
102 66
102 75
102 77
102 87
102 88
102 96
102 103
102 105
102 107
102 121
102 127
102 133
102 134
102 136
102 142
103 58
103 60
103 75
103 77
103 88
103 96
103 97
103 102
103 105
103 121
103 132
103 133
103 134
103 136
103 150
103 152
104 67
104 71
104 76
104 86
104 90
104 93
104 99
104 109
104 115
104 120
104 125
104 129
104 151
104 153
105 66
105 69
105 75
105 87
105 88
105 91
105 102
105 103
105 107
105 110
105 127
105 134
105 136
105 140
105 142
106 59
106 78
106 79
106 82
106 84
106 94
106 108
106 112
106 114
106 126
106 131
106 135
106 141
106 148
106 155
107 66
107 69
107 75
107 81
107 87
107 91
107 102
107 105
107 110
107 116
107 127
107 136
107 140
107 142
107 144
108 78
108 79
108 82
108 84
108 89
108 106
108 114
108 117
108 126
108 141
108 146
108 155
109 71
109 76
109 86
109 90
109 99
109 104
109 115
109 125
109 129
109 157
110 69
110 80
110 81
110 87
110 91
110 105
110 107
110 116
110 119
110 127
110 140
110 142
110 144
111 68
111 72
111 74
111 92
111 113
111 118
111 138
111 139
111 143
111 156
112 70
112 73
112 78
112 79
112 94
112 98
112 101
112 106
112 114
112 123
112 124
112 131
112 135
112 141
112 148
113 68
113 72
113 74
113 83
113 85
113 100
113 111
113 118
113 122
113 130
113 138
113 139
113 143
113 154
113 167
114 73
114 78
114 79
114 82
114 94
114 106
114 108
114 112
114 124
114 126
114 131
114 135
114 141
114 148
114 155
115 67
115 71
115 86
115 90
115 93
115 104
115 109
115 119
115 120
115 125
115 147
115 151
115 153
115 161
115 164
116 80
116 81
116 87
116 91
116 107
116 110
116 119
116 120
116 127
116 140
116 144
116 147
116 163
117 82
117 84
117 89
117 97
117 108
117 121
117 126
117 128
117 132
117 146
117 149
117 162
117 165
118 68
118 72
118 74
118 83
118 92
118 111
118 113
118 122
118 138
118 139
118 143
118 154
118 166
119 80
119 81
119 91
119 93
119 110
119 115
119 116
119 120
119 140
119 144
119 147
119 151
119 163
119 164
120 80
120 86
120 93
120 104
120 115
120 116
120 119
120 147
120 151
120 153
120 163
120 164
121 77
121 88
121 89
121 96
121 97
121 102
121 103
121 117
121 128
121 132
121 133
121 134
121 149
121 150
121 152
121 168
121 172
122 83
122 85
122 95
122 100
122 113
122 118
122 123
122 130
122 137
122 139
122 145
122 154
122 167
123 94
123 95
123 98
123 100
123 101
123 112
123 122
123 124
123 130
123 135
123 137
123 145
123 170
124 94
124 95
124 98
124 101
124 112
124 114
124 123
124 130
124 131
124 135
124 137
124 148
124 170
124 176
125 76
125 86
125 90
125 99
125 104
125 109
125 115
125 129
125 151
125 153
125 157
125 161
125 177
126 79
126 82
126 84
126 89
126 106
126 108
126 114
126 117
126 128
126 131
126 141
126 146
126 149
126 155
126 162
126 178
127 87
127 91
127 102
127 105
127 107
127 110
127 116
127 134
127 136
127 140
127 142
127 144
127 159
127 160
127 169
127 179
128 89
128 96
128 97
128 117
128 121
128 126
128 132
128 133
128 146
128 149
128 150
128 152
128 162
128 165
128 168
128 172
129 76
129 90
129 99
129 104
129 109
129 125
129 153
129 157
129 161
129 177
130 85
130 95
130 98
130 100
130 101
130 113
130 122
130 123
130 124
130 137
130 139
130 145
130 154
130 181
131 78
131 94
131 101
131 106
131 112
131 114
131 124
131 126
131 135
131 141
131 148
131 155
131 170
131 174
131 176
132 89
132 96
132 97
132 103
132 117
132 121
132 128
132 133
132 134
132 146
132 149
132 150
132 152
132 158
132 165
132 168
132 172
132 175
133 88
133 96
133 102
133 103
133 121
133 128
133 132
133 134
133 136
133 149
133 150
133 152
133 158
133 160
133 168
133 172
133 175
134 88
134 102
134 103
134 105
134 121
134 127
134 132
134 133
134 136
134 142
134 150
134 152
134 158
134 159
134 160
134 172
134 175
134 182
135 94
135 101
135 106
135 112
135 114
135 123
135 124
135 131
135 137
135 141
135 148
135 170
135 174
135 176
136 88
136 102
136 103
136 105
136 107
136 127
136 133
136 134
136 142
136 150
136 158
136 159
136 160
136 175
136 179
136 182
137 95
137 98
137 100
137 101
137 122
137 123
137 124
137 130
137 135
137 145
137 170
137 176
137 181
137 184
138 92
138 111
138 113
138 118
138 139
138 143
138 156
138 166
138 167
138 171
138 185
139 111
139 113
139 118
139 122
139 130
139 138
139 143
139 145
139 154
139 166
139 167
139 183
139 185
140 91
140 105
140 107
140 110
140 116
140 119
140 127
140 142
140 144
140 147
140 159
140 163
140 169
140 173
140 179
140 180
140 188
140 190
141 106
141 108
141 112
141 114
141 126
141 131
141 135
141 146
141 148
141 155
141 162
141 174
141 176
141 178
141 186
142 102
142 105
142 107
142 110
142 127
142 134
142 136
142 140
142 144
142 158
142 159
142 160
142 169
142 179
142 182
142 188
143 111
143 113
143 118
143 138
143 139
143 154
143 156
143 166
143 167
143 171
143 183
143 185
144 107
144 110
144 116
144 119
144 127
144 140
144 142
144 147
144 163
144 164
144 169
144 173
144 180
144 190
144 193
145 95
145 100
145 122
145 123
145 130
145 137
145 139
145 154
145 167
145 181
145 183
145 184
145 195
146 108
146 117
146 126
146 128
146 132
146 141
146 149
146 155
146 162
146 165
146 168
146 178
146 186
146 191
147 115
147 116
147 119
147 120
147 140
147 144
147 151
147 153
147 163
147 164
147 173
147 180
147 189
147 193
147 194
148 106
148 112
148 114
148 124
148 131
148 135
148 141
148 155
148 170
148 174
148 176
148 178
149 117
149 121
149 126
149 128
149 132
149 133
149 146
149 150
149 152
149 162
149 165
149 168
149 172
149 191
149 196
149 200
150 103
150 121
150 128
150 132
150 133
150 134
150 136
150 149
150 152
150 158
150 160
150 168
150 172
150 175
150 182
150 196
151 104
151 115
151 119
151 120
151 125
151 147
151 153
151 161
151 163
151 164
151 177
151 180
151 187
151 189
151 194
152 103
152 121
152 128
152 132
152 133
152 134
152 149
152 150
152 158
152 165
152 168
152 172
152 175
152 196
153 104
153 115
153 120
153 125
153 129
153 147
153 151
153 157
153 161
153 164
153 177
153 187
153 189
153 192
153 194
153 209
154 113
154 118
154 122
154 130
154 139
154 143
154 145
154 166
154 167
154 181
154 183
154 185
154 195
154 207
155 106
155 108
155 114
155 126
155 131
155 141
155 146
155 148
155 162
155 174
155 178
155 186
155 198
155 203
156 111
156 138
156 143
156 166
156 171
156 185
156 206
157 109
157 125
157 129
157 153
157 161
157 177
157 187
157 192
157 202
158 132
158 133
158 134
158 136
158 142
158 150
158 152
158 159
158 160
158 172
158 175
158 179
158 182
158 201
158 210
159 127
159 134
159 136
159 140
159 142
159 158
159 160
159 169
159 173
159 179
159 182
159 188
159 190
159 199
159 212
160 127
160 133
160 134
160 136
160 142
160 150
160 158
160 159
160 169
160 172
160 175
160 179
160 182
160 188
160 199
160 201
160 210
160 212
161 115
161 125
161 129
161 151
161 153
161 157
161 164
161 177
161 187
161 192
161 194
161 202
161 209
162 117
162 126
162 128
162 141
162 146
162 149
162 155
162 165
162 168
162 174
162 178
162 186
162 191
162 200
162 203
163 116
163 119
163 120
163 140
163 144
163 147
163 151
163 164
163 169
163 173
163 180
163 189
163 190
163 193
163 194
164 115
164 119
164 120
164 144
164 147
164 151
164 153
164 161
164 163
164 173
164 180
164 187
164 189
164 193
164 194
165 117
165 128
165 132
165 146
165 149
165 152
165 162
165 168
165 172
165 186
165 191
165 196
165 200
165 203
166 118
166 138
166 139
166 143
166 154
166 156
166 167
166 171
166 183
166 185
166 206
166 207
166 211
166 214
167 113
167 122
167 138
167 139
167 143
167 145
167 154
167 166
167 171
167 181
167 183
167 185
167 195
167 207
167 211
167 214
168 121
168 128
168 132
168 133
168 146
168 149
168 150
168 152
168 162
168 165
168 172
168 175
168 191
168 196
168 200
169 127
169 140
169 142
169 144
169 159
169 160
169 163
169 173
169 179
169 180
169 188
169 190
169 193
169 199
169 208
170 123
170 124
170 131
170 135
170 137
170 148
170 176
170 181
170 184
170 197
170 204
170 205
171 138
171 143
171 156
171 166
171 167
171 185
171 206
171 211
172 121
172 128
172 132
172 133
172 134
172 149
172 150
172 152
172 158
172 160
172 165
172 168
172 175
172 182
172 191
172 196
172 201
172 215
173 140
173 144
173 147
173 159
173 163
173 164
173 169
173 179
173 180
173 188
173 189
173 190
173 193
173 208
173 218
174 131
174 135
174 141
174 148
174 155
174 162
174 176
174 178
174 186
174 198
174 204
174 205
174 217
174 224
175 132
175 133
175 134
175 136
175 150
175 152
175 158
175 160
175 168
175 172
175 182
175 196
175 201
175 210
175 215
175 219
176 124
176 131
176 135
176 137
176 141
176 148
176 170
176 174
176 184
176 197
176 198
176 204
176 205
177 125
177 129
177 151
177 153
177 157
177 161
177 187
177 192
177 194
177 202
177 209
177 220
177 227
178 126
178 141
178 146
178 148
178 155
178 162
178 174
178 186
178 198
178 200
178 203
178 205
178 217
178 221
178 224
179 127
179 136
179 140
179 142
179 158
179 159
179 160
179 169
179 173
179 182
179 188
179 190
179 199
179 208
179 210
179 212
179 223
180 140
180 144
180 147
180 151
180 163
180 164
180 169
180 173
180 189
180 190
180 193
180 194
180 208
180 218
180 225
181 130
181 137
181 145
181 154
181 167
181 170
181 183
181 184
181 195
181 197
181 207
181 213
181 222
181 229
182 134
182 136
182 142
182 150
182 158
182 159
182 160
182 172
182 175
182 179
182 188
182 199
182 201
182 210
182 212
182 215
182 219
182 231
183 139
183 143
183 145
183 154
183 166
183 167
183 181
183 184
183 185
183 195
183 207
183 211
183 213
183 214
184 137
184 145
184 170
184 176
184 181
184 183
184 195
184 197
184 204
184 213
184 222
184 229
184 233
185 138
185 139
185 143
185 154
185 156
185 166
185 167
185 171
185 183
185 195
185 206
185 207
185 211
185 214
186 141
186 146
186 155
186 162
186 165
186 174
186 178
186 191
186 198
186 200
186 203
186 205
186 217
186 221
186 224
186 234
187 151
187 153
187 157
187 161
187 164
187 177
187 189
187 192
187 194
187 202
187 209
187 216
187 220
187 227
187 230
187 244
188 140
188 142
188 159
188 160
188 169
188 173
188 179
188 182
188 190
188 193
188 199
188 208
188 210
188 212
188 223
188 231
188 232
189 147
189 151
189 153
189 163
189 164
189 173
189 180
189 187
189 193
189 194
189 209
189 216
189 218
189 225
189 230
189 238
190 140
190 144
190 159
190 163
190 169
190 173
190 179
190 180
190 188
190 193
190 199
190 208
190 212
190 218
190 223
190 232
191 146
191 149
191 162
191 165
191 168
191 172
191 186
191 196
191 200
191 203
191 215
191 221
191 226
191 234
192 153
192 157
192 161
192 177
192 187
192 194
192 202
192 209
192 216
192 220
192 227
192 230
192 241
192 244
193 144
193 147
193 163
193 164
193 169
193 173
193 180
193 188
193 189
193 190
193 194
193 208
193 216
193 218
193 225
193 232
194 147
194 151
194 153
194 161
194 163
194 164
194 177
194 180
194 187
194 189
194 192
194 193
194 209
194 216
194 218
194 225
194 230
194 238
194 240
195 145
195 154
195 167
195 181
195 183
195 184
195 185
195 207
195 213
195 214
195 222
195 229
196 149
196 150
196 152
196 165
196 168
196 172
196 175
196 191
196 200
196 201
196 203
196 215
196 219
196 226
196 236
197 170
197 176
197 181
197 184
197 204
197 205
197 222
197 228
197 229
197 233
197 237
197 243
198 155
198 174
198 176
198 178
198 186
198 203
198 204
198 205
198 217
198 221
198 224
198 228
198 239
198 243
198 248
199 159
199 160
199 169
199 179
199 182
199 188
199 190
199 201
199 208
199 210
199 212
199 219
199 223
199 231
199 232
199 242
199 245
199 246
200 149
200 162
200 165
200 168
200 178
200 186
200 191
200 196
200 203
200 217
200 221
200 226
200 234
201 158
201 160
201 172
201 175
201 182
201 196
201 199
201 210
201 212
201 215
201 219
201 226
201 231
201 235
201 236
201 245
202 157
202 161
202 177
202 187
202 192
202 209
202 220
202 227
202 230
202 241
202 244
203 155
203 162
203 165
203 178
203 186
203 191
203 196
203 198
203 200
203 217
203 221
203 224
203 226
203 234
203 250
203 252
204 170
204 174
204 176
204 184
204 197
204 198
204 205
204 217
204 222
204 224
204 228
204 233
204 237
204 239
204 243
204 248
205 170
205 174
205 176
205 178
205 186
205 197
205 198
205 204
205 217
205 224
205 228
205 237
205 239
205 243
205 248
206 156
206 166
206 171
206 185
206 207
206 211
206 214
206 247
207 154
207 166
207 167
207 181
207 183
207 185
207 195
207 206
207 211
207 213
207 214
207 229
208 169
208 173
208 179
208 180
208 188
208 190
208 193
208 199
208 212
208 218
208 223
208 232
208 242
208 246
208 255
209 153
209 161
209 177
209 187
209 189
209 192
209 194
209 202
209 216
209 220
209 225
209 227
209 230
209 238
209 240
209 241
209 244
209 251
209 257
210 158
210 160
210 175
210 179
210 182
210 188
210 199
210 201
210 212
210 215
210 219
210 223
210 231
210 235
210 236
210 242
210 245
211 166
211 167
211 171
211 183
211 185
211 206
211 207
211 214
211 247
211 259
212 159
212 160
212 179
212 182
212 188
212 190
212 199
212 201
212 208
212 210
212 215
212 219
212 223
212 231
212 235
212 236
212 242
212 245
212 246
213 181
213 183
213 184
213 195
213 207
213 214
213 222
213 229
213 233
214 166
214 167
214 183
214 185
214 195
214 206
214 207
214 211
214 213
214 247
214 259
215 172
215 175
215 182
215 191
215 196
215 201
215 210
215 212
215 219
215 226
215 231
215 235
215 236
215 258
215 267
216 187
216 189
216 192
216 193
216 194
216 209
216 218
216 225
216 227
216 230
216 238
216 240
216 244
216 249
216 251
216 253
216 262
217 174
217 178
217 186
217 198
217 200
217 203
217 204
217 205
217 221
217 224
217 228
217 234
217 239
217 243
217 248
217 250
217 252
217 263
218 173
218 180
218 189
218 190
218 193
218 194
218 208
218 216
218 225
218 232
218 238
218 249
218 253
218 254
218 255
218 262
219 175
219 182
219 196
219 199
219 201
219 210
219 212
219 215
219 226
219 231
219 235
219 236
219 242
219 245
219 258
219 265
219 267
220 177
220 187
220 192
220 202
220 209
220 227
220 230
220 241
220 244
220 257
220 260
221 178
221 186
221 191
221 198
221 200
221 203
221 217
221 224
221 234
221 239
221 248
221 250
221 252
221 256
221 263
221 272
222 181
222 184
222 195
222 197
222 204
222 213
222 229
222 233
222 237
222 268
223 179
223 188
223 190
223 199
223 208
223 210
223 212
223 231
223 232
223 242
223 245
223 246
223 255
223 266
224 174
224 178
224 186
224 198
224 203
224 204
224 205
224 217
224 221
224 228
224 234
224 239
224 243
224 248
224 250
224 263
225 180
225 189
225 193
225 194
225 209
225 216
225 218
225 230
225 232
225 238
225 240
225 244
225 249
225 251
225 253
225 254
225 262
226 191
226 196
226 200
226 201
226 203
226 215
226 219
226 234
226 236
226 252
226 256
226 258
226 270
227 177
227 187
227 192
227 202
227 209
227 216
227 220
227 230
227 240
227 241
227 244
227 251
227 257
227 260
228 197
228 198
228 204
228 205
228 217
228 224
228 233
228 237
228 239
228 243
228 248
228 250
228 263
229 181
229 184
229 195
229 197
229 207
229 213
229 222
229 233
229 237
229 268
230 187
230 189
230 192
230 194
230 202
230 209
230 216
230 220
230 225
230 227
230 238
230 240
230 241
230 244
230 251
230 253
230 257
230 260
230 262
231 182
231 188
231 199
231 201
231 210
231 212
231 215
231 219
231 223
231 235
231 236
231 242
231 245
231 246
231 265
231 266
231 267
232 188
232 190
232 193
232 199
232 208
232 218
232 223
232 225
232 242
232 246
232 249
232 254
232 255
232 273
232 277
233 184
233 197
233 204
233 213
233 222
233 228
233 229
233 237
233 243
233 268
233 281
234 186
234 191
234 200
234 203
234 217
234 221
234 224
234 226
234 250
234 252
234 256
234 263
234 270
234 272
235 201
235 210
235 212
235 215
235 219
235 231
235 236
235 242
235 245
235 258
235 265
235 266
235 267
235 279
236 196
236 201
236 210
236 212
236 215
236 219
236 226
236 231
236 235
236 245
236 258
236 265
236 267
236 270
236 279
237 197
237 204
237 205
237 222
237 228
237 229
237 233
237 239
237 243
237 248
237 268
237 276
237 281
237 285
238 189
238 194
238 209
238 216
238 218
238 225
238 230
238 240
238 244
238 249
238 251
238 253
238 254
238 262
238 274
238 284
239 198
239 204
239 205
239 217
239 221
239 224
239 228
239 237
239 243
239 248
239 250
239 263
239 285
239 291
240 194
240 209
240 216
240 225
240 227
240 230
240 238
240 241
240 244
240 249
240 251
240 253
240 257
240 260
240 262
240 274
240 275
241 192
241 202
241 209
241 220
241 227
241 230
241 240
241 244
241 251
241 257
241 260
241 275
241 280
241 289
242 199
242 208
242 210
242 212
242 219
242 223
242 231
242 232
242 235
242 245
242 246
242 255
242 265
242 266
242 273
242 277
242 279
242 287
243 197
243 198
243 204
243 205
243 217
243 224
243 228
243 233
243 237
243 239
243 248
243 250
243 263
243 276
243 285
244 187
244 192
244 202
244 209
244 216
244 220
244 225
244 227
244 230
244 238
244 240
244 241
244 251
244 253
244 257
244 260
244 262
244 274
244 275
244 280
245 199
245 201
245 210
245 212
245 219
245 223
245 231
245 235
245 236
245 242
245 246
245 265
245 266
245 267
245 273
245 279
246 199
246 208
246 212
246 223
246 231
246 232
246 242
246 245
246 254
246 255
246 266
246 273
246 277
246 287
247 206
247 211
247 214
247 259
247 261
247 264
247 269
247 271
247 283
248 198
248 204
248 205
248 217
248 221
248 224
248 228
248 237
248 239
248 243
248 250
248 263
248 276
248 285
248 291
248 293
249 216
249 218
249 225
249 232
249 238
249 240
249 251
249 253
249 254
249 255
249 262
249 274
249 277
249 282
249 284
249 286
250 203
250 217
250 221
250 224
250 228
250 234
250 239
250 243
250 248
250 252
250 256
250 263
250 272
250 291
250 292
251 209
251 216
251 225
251 227
251 230
251 238
251 240
251 241
251 244
251 249
251 253
251 257
251 260
251 262
251 274
251 275
251 280
251 284
251 294
251 295
251 297
252 203
252 217
252 221
252 226
252 234
252 250
252 256
252 263
252 270
252 272
252 292
252 299
253 216
253 218
253 225
253 230
253 238
253 240
253 244
253 249
253 251
253 254
253 257
253 262
253 274
253 275
253 284
253 286
253 294
253 295
254 218
254 225
254 232
254 238
254 246
254 249
254 253
254 255
254 262
254 273
254 277
254 282
254 284
254 286
254 287
255 208
255 218
255 223
255 232
255 242
255 246
255 249
255 254
255 266
255 273
255 277
255 282
255 286
255 287
256 221
256 226
256 234
256 250
256 252
256 258
256 270
256 272
256 299
256 301
257 209
257 220
257 227
257 230
257 240
257 241
257 244
257 251
257 253
257 260
257 262
257 274
257 275
257 280
257 289
257 294
257 295
257 297
258 215
258 219
258 226
258 235
258 236
258 256
258 265
258 267
258 270
258 279
258 304
259 211
259 214
259 247
259 261
259 264
259 269
259 271
259 278
259 283
259 300
259 302
259 303
260 220
260 227
260 230
260 240
260 241
260 244
260 251
260 257
260 275
260 280
260 289
260 294
260 297
261 247
261 259
261 269
261 271
261 283
261 300
261 302
262 216
262 218
262 225
262 230
262 238
262 240
262 244
262 249
262 251
262 253
262 254
262 257
262 274
262 275
262 282
262 284
262 286
262 294
262 295
263 217
263 221
263 224
263 228
263 234
263 239
263 243
263 248
263 250
263 252
263 272
263 285
263 291
263 292
263 293
264 247
264 259
264 268
264 269
264 271
264 278
264 288
264 302
264 303
264 308
265 219
265 231
265 235
265 236
265 242
265 245
265 258
265 266
265 267
265 279
265 307
266 223
266 231
266 235
266 242
266 245
266 246
266 255
266 265
266 267
266 273
266 279
266 287
266 311
267 215
267 219
267 231
267 235
267 236
267 245
267 258
267 265
267 266
267 270
267 279
267 304
267 305
267 307
268 222
268 229
268 233
268 237
268 264
268 276
268 278
268 281
268 288
268 290
268 296
268 306
268 309
269 247
269 259
269 261
269 264
269 271
269 283
269 300
269 302
269 303
270 226
270 234
270 236
270 252
270 256
270 258
270 267
270 272
270 299
270 301
270 304
270 313
271 247
271 259
271 261
271 264
271 269
271 278
271 283
271 300
271 302
271 303
271 308
272 221
272 234
272 250
272 252
272 256
272 263
272 270
272 291
272 292
272 299
272 301
272 314
273 232
273 242
273 245
273 246
273 254
273 255
273 266
273 277
273 282
273 286
273 287
273 312
273 323
274 238
274 240
274 244
274 249
274 251
274 253
274 257
274 262
274 275
274 282
274 284
274 286
274 294
274 295
274 297
274 316
274 321
275 240
275 241
275 244
275 251
275 253
275 257
275 260
275 262
275 274
275 280
275 289
275 294
275 295
275 297
275 316
276 237
276 243
276 248
276 268
276 281
276 285
276 290
276 291
276 293
276 296
276 298
276 318
276 322
276 329
277 232
277 242
277 246
277 249
277 254
277 255
277 273
277 282
277 284
277 286
277 287
277 310
277 312
277 326
278 259
278 264
278 268
278 271
278 288
278 290
278 303
278 306
278 308
278 309
278 319
279 235
279 236
279 242
279 245
279 258
279 265
279 266
279 267
279 287
279 305
279 307
279 311
279 327
280 241
280 244
280 251
280 257
280 260
280 275
280 289
280 294
280 295
280 297
280 332
281 233
281 237
281 268
281 276
281 285
281 288
281 290
281 296
281 298
281 306
281 309
281 318
281 322
282 249
282 254
282 255
282 262
282 273
282 274
282 277
282 284
282 286
282 287
282 310
282 326
283 247
283 259
283 261
283 269
283 271
283 300
283 302
283 303
283 320
283 331
284 238
284 249
284 251
284 253
284 254
284 262
284 274
284 277
284 282
284 286
284 294
284 295
284 310
284 316
284 321
285 237
285 239
285 243
285 248
285 263
285 276
285 281
285 291
285 293
285 296
285 298
285 315
285 322
285 328
285 329
286 249
286 253
286 254
286 255
286 262
286 273
286 274
286 277
286 282
286 284
286 295
286 310
286 321
286 326
287 242
287 246
287 254
287 255
287 266
287 273
287 277
287 279
287 282
287 311
287 312
287 323
287 326
287 336
288 264
288 268
288 278
288 281
288 290
288 296
288 306
288 308
288 309
288 318
288 319
288 325
289 241
289 257
289 260
289 275
289 280
289 294
289 297
289 332
290 268
290 276
290 278
290 281
290 288
290 296
290 298
290 306
290 309
290 318
290 319
290 322
290 325
291 239
291 248
291 250
291 263
291 272
291 276
291 285
291 292
291 293
291 298
291 299
291 314
291 315
291 328
291 329
291 333
292 250
292 252
292 263
292 272
292 291
292 293
292 299
292 301
292 313
292 314
292 315
292 317
292 333
292 339
292 341
293 248
293 263
293 276
293 285
293 291
293 292
293 296
293 298
293 315
293 322
293 328
293 329
293 333
293 349
294 251
294 253
294 257
294 260
294 262
294 274
294 275
294 280
294 284
294 289
294 295
294 297
294 316
294 321
294 332
294 335
294 338
295 251
295 253
295 257
295 262
295 274
295 275
295 280
295 284
295 286
295 294
295 297
295 310
295 316
295 321
295 335
295 338
295 344
296 268
296 276
296 281
296 285
296 288
296 290
296 293
296 298
296 306
296 309
296 318
296 322
296 325
296 329
296 343
297 251
297 257
297 260
297 274
297 275
297 280
297 289
297 294
297 295
297 316
297 332
297 335
297 338
298 276
298 281
298 285
298 290
298 291
298 293
298 296
298 309
298 318
298 322
298 328
298 329
298 343
299 252
299 256
299 270
299 272
299 291
299 292
299 301
299 304
299 313
299 314
299 315
299 317
299 339
299 341
299 351
300 259
300 261
300 269
300 271
300 283
300 302
300 303
300 320
300 331
300 334
300 346
300 347
301 256
301 270
301 272
301 292
301 299
301 304
301 305
301 313
301 314
301 317
301 324
301 341
301 351
301 356
302 259
302 261
302 264
302 269
302 271
302 283
302 300
302 303
302 308
302 320
302 331
302 334
302 346
302 347
303 259
303 264
303 269
303 271
303 278
303 283
303 300
303 302
303 306
303 308
303 319
303 331
303 334
303 347
303 355
304 258
304 267
304 270
304 299
304 301
304 305
304 307
304 313
304 317
304 324
304 327
304 337
304 353
304 356
305 267
305 279
305 301
305 304
305 307
305 311
305 313
305 324
305 327
305 337
305 348
305 353
306 268
306 278
306 281
306 288
306 290
306 296
306 303
306 308
306 309
306 318
306 319
306 325
306 354
306 357
307 265
307 267
307 279
307 304
307 305
307 311
307 312
307 324
307 327
307 330
307 337
307 348
307 353
307 358
307 360
308 264
308 271
308 278
308 288
308 302
308 303
308 306
308 309
308 319
308 325
308 334
308 347
308 354
308 355
308 357
309 268
309 278
309 281
309 288
309 290
309 296
309 298
309 306
309 308
309 318
309 319
309 322
309 325
309 354
310 277
310 282
310 284
310 286
310 295
310 321
310 326
310 336
310 340
310 344
310 345
310 363
310 365
311 266
311 279
311 287
311 305
311 307
311 312
311 323
311 327
311 330
311 336
311 342
311 348
311 358
312 273
312 277
312 287
312 307
312 311
312 323
312 326
312 327
312 330
312 336
312 342
312 362
313 270
313 292
313 299
313 301
313 304
313 305
313 314
313 317
313 324
313 337
313 339
313 341
313 351
313 356
314 272
314 291
314 292
314 299
314 301
314 313
314 315
314 317
314 328
314 333
314 339
314 341
314 351
315 285
315 291
315 292
315 293
315 299
315 314
315 317
315 328
315 329
315 333
315 339
315 341
315 349
315 366
315 370
316 274
316 275
316 284
316 294
316 295
316 297
316 321
316 332
316 335
316 338
316 344
316 345
316 352
317 292
317 299
317 301
317 304
317 313
317 314
317 315
317 324
317 339
317 341
317 351
317 356
317 379
318 276
318 281
318 288
318 290
318 296
318 298
318 306
318 309
318 319
318 322
318 325
318 329
318 343
318 354
318 359
318 361
318 367
319 278
319 288
319 290
319 303
319 306
319 308
319 309
319 318
319 325
319 334
319 354
319 355
319 357
319 371
320 283
320 300
320 302
320 331
320 334
320 346
320 347
320 368
321 274
321 284
321 286
321 294
321 295
321 310
321 316
321 326
321 335
321 338
321 340
321 344
321 345
321 365
321 372
321 374
322 276
322 281
322 285
322 290
322 293
322 296
322 298
322 309
322 318
322 325
322 328
322 329
322 333
322 343
322 349
322 359
322 361
322 367
323 273
323 287
323 311
323 312
323 326
323 327
323 330
323 336
323 340
323 342
323 362
323 363
323 364
323 373
324 301
324 304
324 305
324 307
324 313
324 317
324 327
324 337
324 341
324 348
324 351
324 353
324 356
324 360
324 375
324 377
325 288
325 290
325 296
325 306
325 308
325 309
325 318
325 319
325 322
325 354
325 357
325 361
325 367
325 371
326 277
326 282
326 286
326 287
326 310
326 312
326 321
326 323
326 336
326 340
326 342
326 345
326 362
326 363
326 364
326 365
327 279
327 304
327 305
327 307
327 311
327 312
327 323
327 324
327 330
327 337
327 342
327 348
327 353
327 358
327 360
327 373
327 381
328 285
328 291
328 293
328 298
328 314
328 315
328 322
328 329
328 333
328 339
328 343
328 349
328 359
328 366
328 370
329 276
329 285
329 291
329 293
329 296
329 298
329 315
329 318
329 322
329 328
329 333
329 343
329 349
329 359
329 361
329 366
330 307
330 311
330 312
330 323
330 327
330 336
330 337
330 342
330 348
330 358
330 360
330 362
330 373
330 381
331 283
331 300
331 302
331 303
331 320
331 334
331 346
331 347
331 355
331 368
331 369
332 280
332 289
332 294
332 297
332 316
332 335
332 338
332 350
332 352
332 378
332 380
333 291
333 292
333 293
333 314
333 315
333 322
333 328
333 329
333 339
333 341
333 343
333 349
333 359
333 366
333 370
333 376
334 300
334 302
334 303
334 308
334 319
334 320
334 331
334 346
334 347
334 355
334 357
334 368
334 369
335 294
335 295
335 297
335 316
335 321
335 332
335 338
335 344
335 345
335 352
335 372
335 374
335 378
335 385
336 287
336 310
336 311
336 312
336 323
336 326
336 330
336 340
336 342
336 345
336 362
336 363
336 364
336 365
336 373
336 382
336 383
337 304
337 305
337 307
337 313
337 324
337 327
337 330
337 348
337 353
337 356
337 358
337 360
337 375
337 377
337 381
337 390
338 294
338 295
338 297
338 316
338 321
338 332
338 335
338 344
338 350
338 352
338 374
338 378
338 380
338 385
339 292
339 299
339 313
339 314
339 315
339 317
339 328
339 333
339 341
339 349
339 351
339 356
339 366
339 370
339 376
339 379
339 386
340 310
340 321
340 323
340 326
340 336
340 342
340 344
340 345
340 362
340 363
340 364
340 365
340 372
340 383
341 292
341 299
341 301
341 313
341 314
341 315
341 317
341 324
341 333
341 339
341 351
341 356
341 370
341 376
341 377
341 379
341 384
341 386
342 311
342 312
342 323
342 326
342 327
342 330
342 336
342 340
342 348
342 358
342 362
342 363
342 364
342 373
342 381
342 382
343 296
343 298
343 318
343 322
343 328
343 329
343 333
343 349
343 359
343 361
343 366
343 367
343 396
344 295
344 310
344 316
344 321
344 335
344 338
344 340
344 345
344 352
344 365
344 372
344 374
344 385
344 387
345 310
345 316
345 321
345 326
345 335
345 336
345 340
345 344
345 363
345 364
345 365
345 372
345 374
345 383
345 387
346 300
346 302
346 320
346 331
346 334
346 347
346 355
346 368
346 369
346 388
346 399
347 300
347 302
347 303
347 308
347 320
347 331
347 334
347 346
347 355
347 357
347 368
347 369
347 388
347 397
348 305
348 307
348 311
348 324
348 327
348 330
348 337
348 342
348 353
348 358
348 360
348 373
348 375
348 381
348 390
348 394
349 293
349 315
349 322
349 328
349 329
349 333
349 339
349 343
349 359
349 361
349 366
349 370
349 376
349 395
349 398
350 332
350 338
350 352
350 378
350 380
350 393
351 299
351 301
351 313
351 314
351 317
351 324
351 339
351 341
351 353
351 356
351 370
351 376
351 377
351 379
351 384
351 386
351 389
352 316
352 332
352 335
352 338
352 344
352 350
352 374
352 378
352 380
352 385
352 393
353 304
353 305
353 307
353 324
353 327
353 337
353 348
353 351
353 356
353 358
353 360
353 375
353 377
353 381
353 389
353 390
353 394
353 411
354 306
354 308
354 309
354 318
354 319
354 325
354 355
354 357
354 361
354 367
354 371
354 391
354 392
355 303
355 308
355 319
355 331
355 334
355 346
355 347
355 354
355 357
355 368
355 369
355 371
355 388
355 391
355 397
355 409
356 301
356 304
356 313
356 317
356 324
356 337
356 339
356 341
356 351
356 353
356 375
356 376
356 377
356 379
356 384
356 389
356 390
357 306
357 308
357 319
357 325
357 334
357 347
357 354
357 355
357 367
357 369
357 371
357 391
357 392
357 397
357 409
358 307
358 311
358 327
358 330
358 337
358 342
358 348
358 353
358 360
358 362
358 373
358 375
358 381
358 382
358 394
358 400
358 412
359 318
359 322
359 328
359 329
359 333
359 343
359 349
359 361
359 366
359 367
359 395
359 396
359 398
359 401
359 415
360 307
360 324
360 327
360 330
360 337
360 348
360 353
360 358
360 373
360 375
360 381
360 390
360 394
360 411
360 412
361 318
361 322
361 325
361 329
361 343
361 349
361 354
361 359
361 367
361 371
361 392
361 396
361 398
361 401
361 404
362 312
362 323
362 326
362 330
362 336
362 340
362 342
362 358
362 363
362 364
362 365
362 373
362 381
362 382
362 383
362 400
362 407
362 413
363 310
363 323
363 326
363 336
363 340
363 342
363 345
363 362
363 364
363 365
363 372
363 374
363 382
363 383
363 387
363 402
363 407
363 413
363 419
364 323
364 326
364 336
364 340
364 342
364 345
364 362
364 363
364 365
364 372
364 373
364 382
364 383
364 400
364 402
364 407
364 413
365 310
365 321
365 326
365 336
365 340
365 344
365 345
365 362
365 363
365 364
365 372
365 374
365 383
365 387
365 402
365 406
365 413
365 419
366 315
366 328
366 329
366 333
366 339
366 343
366 349
366 359
366 370
366 376
366 386
366 395
366 396
366 398
366 403
366 414
366 415
367 318
367 322
367 325
367 343
367 354
367 357
367 359
367 361
367 371
367 392
367 396
367 401
367 404
367 416
368 320
368 331
368 334
368 346
368 347
368 355
368 369
368 388
368 397
368 399
368 405
369 331
369 334
369 346
369 347
369 355
369 357
369 368
369 388
369 391
369 397
369 399
369 405
369 409
370 315
370 328
370 333
370 339
370 341
370 349
370 351
370 366
370 376
370 379
370 384
370 386
370 395
370 398
370 403
370 414
371 319
371 325
371 354
371 355
371 357
371 361
371 367
371 391
371 392
371 404
371 409
371 416
371 421
372 321
372 335
372 340
372 344
372 345
372 363
372 364
372 365
372 374
372 383
372 385
372 387
372 402
372 406
372 408
372 419
372 423
372 424
373 323
373 327
373 330
373 336
373 342
373 348
373 358
373 360
373 362
373 364
373 381
373 382
373 400
373 407
373 412
374 321
374 335
374 338
374 344
374 345
374 352
374 363
374 365
374 372
374 378
374 385
374 387
374 402
374 406
374 408
374 410
374 423
374 424
374 425
375 324
375 337
375 348
375 353
375 356
375 358
375 360
375 377
375 381
375 384
375 389
375 390
375 394
375 411
375 422
375 426
376 333
376 339
376 341
376 349
376 351
376 356
376 366
376 370
376 377
376 379
376 384
376 386
376 389
376 395
376 403
376 414
376 420
376 433
377 324
377 337
377 341
377 351
377 353
377 356
377 375
377 376
377 379
377 384
377 386
377 389
377 390
377 394
377 411
377 420
377 430
378 332
378 335
378 338
378 350
378 352
378 374
378 380
378 385
378 393
378 408
378 410
378 417
378 418
379 317
379 339
379 341
379 351
379 356
379 370
379 376
379 377
379 384
379 386
379 389
379 403
379 420
380 332
380 338
380 350
380 352
380 378
380 385
380 393
380 410
380 417
380 418
381 327
381 330
381 337
381 342
381 348
381 353
381 358
381 360
381 362
381 373
381 375
381 382
381 390
381 394
381 400
381 411
381 412
381 422
382 336
382 342
382 358
382 362
382 363
382 364
382 373
382 381
382 383
382 400
382 407
382 412
382 413
382 432
382 435
383 336
383 340
383 345
383 362
383 363
383 364
383 365
383 372
383 382
383 387
383 402
383 406
383 407
383 413
383 419
383 423
383 432
383 435
384 341
384 351
384 356
384 370
384 375
384 376
384 377
384 379
384 386
384 389
384 390
384 403
384 420
384 430
385 335
385 338
385 344
385 352
385 372
385 374
385 378
385 380
385 387
385 393
385 406
385 408
385 410
385 417
385 424
385 425
386 339
386 341
386 351
386 366
386 370
386 376
386 377
386 379
386 384
386 389
386 395
386 398
386 403
386 414
386 420
386 433
387 344
387 345
387 363
387 365
387 372
387 374
387 383
387 385
387 402
387 406
387 408
387 410
387 419
387 423
387 424
387 425
388 346
388 347
388 355
388 368
388 369
388 391
388 397
388 399
388 405
388 409
388 427
388 428
388 429
389 351
389 353
389 356
389 375
389 376
389 377
389 379
389 384
389 386
389 390
389 394
389 403
389 411
389 420
389 426
389 430
389 434
390 337
390 348
390 353
390 356
390 360
390 375
390 377
390 381
390 384
390 389
390 394
390 411
390 412
390 422
390 426
390 430
390 434
391 354
391 355
391 357
391 369
391 371
391 388
391 392
391 397
391 405
391 409
391 416
391 421
391 427
392 354
392 357
392 361
392 367
392 371
392 391
392 401
392 404
392 409
392 416
392 421
392 431
393 350
393 352
393 378
393 380
393 385
393 410
393 417
393 418
394 348
394 353
394 358
394 360
394 375
394 377
394 381
394 389
394 390
394 400
394 411
394 412
394 422
394 426
394 434
395 349
395 359
395 366
395 370
395 376
395 386
395 396
395 398
395 403
395 414
395 415
395 433
395 437
395 438
396 343
396 359
396 361
396 366
396 367
396 395
396 398
396 401
396 404
396 414
396 415
396 416
396 431
396 436
396 437
396 438
397 347
397 355
397 357
397 368
397 369
397 388
397 391
397 399
397 405
397 409
397 421
397 427
397 428
397 429
398 349
398 359
398 361
398 366
398 370
398 386
398 395
398 396
398 401
398 403
398 414
398 415
398 433
398 436
398 437
398 438
399 346
399 368
399 369
399 388
399 397
399 405
399 409
399 427
399 428
399 429
400 358
400 362
400 364
400 373
400 381
400 382
400 394
400 407
400 412
400 413
400 422
400 432
400 435
401 359
401 361
401 367
401 392
401 396
401 398
401 404
401 415
401 416
401 431
401 436
401 437
402 363
402 364
402 365
402 372
402 374
402 383
402 387
402 406
402 407
402 408
402 413
402 419
402 423
402 424
402 435
403 366
403 370
403 376
403 379
403 384
403 386
403 389
403 395
403 398
403 414
403 420
403 433
403 438
404 361
404 367
404 371
404 392
404 396
404 401
404 415
404 416
404 421
404 431
404 436
405 368
405 369
405 388
405 391
405 397
405 399
405 409
405 427
405 428
405 429
406 365
406 372
406 374
406 383
406 385
406 387
406 402
406 408
406 410
406 419
406 423
406 424
406 425
407 362
407 363
407 364
407 373
407 382
407 383
407 400
407 402
407 413
407 419
407 432
407 435
408 372
408 374
408 378
408 385
408 387
408 402
408 406
408 410
408 417
408 419
408 423
408 424
408 425
409 355
409 357
409 369
409 371
409 388
409 391
409 392
409 397
409 399
409 405
409 421
409 427
409 428
410 374
410 378
410 380
410 385
410 387
410 393
410 406
410 408
410 417
410 418
410 424
410 425
411 353
411 360
411 375
411 377
411 381
411 389
411 390
411 394
411 412
411 422
411 426
411 430
411 434
412 358
412 360
412 373
412 381
412 382
412 390
412 394
412 400
412 411
412 422
412 426
413 362
413 363
413 364
413 365
413 382
413 383
413 400
413 402
413 407
413 419
413 423
413 432
413 435
414 366
414 370
414 376
414 386
414 395
414 396
414 398
414 403
414 415
414 420
414 433
414 437
414 438
415 359
415 366
415 395
415 396
415 398
415 401
415 404
415 414
415 431
415 436
415 437
415 438
416 367
416 371
416 391
416 392
416 396
416 401
416 404
416 421
416 431
416 436
417 378
417 380
417 385
417 393
417 408
417 410
417 418
417 425
418 378
418 380
418 393
418 410
418 417
419 363
419 365
419 372
419 383
419 387
419 402
419 406
419 407
419 408
419 413
419 423
419 424
419 432
419 435
420 376
420 377
420 379
420 384
420 386
420 389
420 403
420 414
420 430
420 433
420 434
421 371
421 391
421 392
421 397
421 404
421 409
421 416
421 427
421 431
422 375
422 381
422 390
422 394
422 400
422 411
422 412
422 426
422 430
422 434
423 372
423 374
423 383
423 387
423 402
423 406
423 408
423 413
423 419
423 424
423 425
423 435
424 372
424 374
424 385
424 387
424 402
424 406
424 408
424 410
424 419
424 423
424 425
425 374
425 385
425 387
425 406
425 408
425 410
425 417
425 423
425 424
426 375
426 389
426 390
426 394
426 411
426 412
426 422
426 430
426 434
427 388
427 391
427 397
427 399
427 405
427 409
427 421
427 428
427 429
428 388
428 397
428 399
428 405
428 409
428 427
428 429
429 388
429 397
429 399
429 405
429 427
429 428
430 377
430 384
430 389
430 390
430 411
430 420
430 422
430 426
430 434
431 392
431 396
431 401
431 404
431 415
431 416
431 421
431 436
431 437
432 382
432 383
432 400
432 407
432 413
432 419
432 435
433 376
433 386
433 395
433 398
433 403
433 414
433 420
433 437
433 438
434 389
434 390
434 394
434 411
434 420
434 422
434 426
434 430
435 382
435 383
435 400
435 402
435 407
435 413
435 419
435 423
435 432
436 396
436 398
436 401
436 404
436 415
436 416
436 431
436 437
436 438
437 395
437 396
437 398
437 401
437 414
437 415
437 431
437 433
437 436
437 438
438 395
438 396
438 398
438 403
438 414
438 415
438 433
438 436
438 437
