1 8
1 17
1 24
2 6
2 7
2 18
3 5
3 12
3 13
4 10
4 15
4 20
5 3
5 16
5 21
5 31
6 2
6 7
6 18
6 25
7 2
7 6
7 25
7 34
8 1
8 9
8 24
8 26
9 8
9 26
9 27
9 32
10 4
10 13
10 20
10 28
10 41
11 14
11 19
11 23
12 3
12 13
12 28
12 45
13 3
13 10
13 12
13 28
13 45
14 11
14 19
14 38
15 4
15 22
15 29
15 30
16 5
16 21
16 31
16 40
16 43
17 1
17 24
17 35
18 2
18 6
18 33
18 34
19 11
19 14
19 23
19 38
19 44
20 4
20 10
20 28
20 36
20 41
20 48
21 5
21 16
21 31
21 40
22 15
22 29
22 37
22 51
23 11
23 19
23 25
23 39
23 44
23 46
23 50
24 1
24 8
24 17
24 26
24 35
24 42
24 53
25 6
25 7
25 23
25 34
25 39
25 46
25 50
26 8
26 9
26 24
26 32
26 35
26 42
26 55
27 9
27 32
27 43
27 47
28 10
28 12
28 13
28 20
28 41
28 45
28 48
28 60
29 15
29 22
29 30
29 36
29 37
29 49
30 15
30 29
30 36
30 41
30 49
30 57
30 61
31 5
31 16
31 21
31 40
31 58
31 59
32 9
32 26
32 27
32 42
32 47
32 55
33 18
33 34
33 46
33 56
34 7
34 18
34 25
34 33
34 39
34 46
34 50
34 56
34 63
35 17
35 24
35 26
35 42
35 53
35 66
36 20
36 29
36 30
36 41
36 48
36 57
36 61
37 22
37 29
37 49
37 51
37 65
38 14
38 19
38 44
38 54
38 64
39 23
39 25
39 34
39 44
39 46
39 50
39 54
39 63
40 16
40 21
40 31
40 43
40 58
41 10
41 20
41 28
41 30
41 36
41 48
41 57
41 67
42 24
42 26
42 32
42 35
42 47
42 53
42 55
42 69
43 16
43 27
43 40
43 68
44 19
44 23
44 38
44 39
44 54
44 64
44 70
45 12
45 13
45 28
45 59
45 60
46 23
46 25
46 33
46 34
46 39
46 50
46 56
46 63
47 27
47 32
47 42
47 55
47 62
47 69
47 75
48 20
48 28
48 36
48 41
48 57
48 60
48 67
49 29
49 30
49 37
49 51
49 61
49 65
49 78
50 23
50 25
50 34
50 39
50 46
50 54
50 63
50 84
51 22
51 37
51 49
51 65
51 82
51 83
52 53
52 66
53 24
53 35
53 42
53 52
53 55
53 66
53 80
54 38
54 39
54 44
54 50
54 64
54 70
54 74
55 26
55 32
55 42
55 47
55 53
55 66
55 69
55 75
55 85
56 33
56 34
56 46
56 71
56 77
57 30
57 36
57 41
57 48
57 61
57 67
57 72
58 31
58 40
58 59
58 73
58 90
59 31
59 45
59 58
59 60
59 90
60 28
60 45
60 48
60 59
60 81
61 30
61 36
61 49
61 57
61 67
61 72
61 78
61 93
62 47
62 68
62 69
62 75
62 76
63 34
63 39
63 46
63 50
63 71
63 77
63 84
63 94
64 38
64 44
64 54
64 70
64 74
64 79
64 91
65 37
65 49
65 51
65 78
65 82
65 83
65 95
66 35
66 52
66 53
66 55
66 69
66 80
66 87
67 41
67 48
67 57
67 61
67 72
67 81
67 88
67 92
68 43
68 62
68 73
68 76
69 42
69 47
69 55
69 62
69 66
69 75
69 85
69 87
70 44
70 54
70 64
70 74
70 79
70 91
71 56
71 63
71 77
71 84
71 89
72 57
72 61
72 67
72 88
72 92
72 93
73 58
73 68
73 90
74 54
74 64
74 70
74 79
74 84
74 91
74 94
74 99
75 47
75 55
75 62
75 69
75 76
75 85
75 97
75 100
76 62
76 68
76 75
76 85
76 97
77 56
77 63
77 71
77 84
77 89
77 94
77 101
78 49
78 61
78 65
78 82
78 83
78 93
78 95
78 105
79 64
79 70
79 74
79 91
79 99
80 53
80 66
80 86
80 87
81 60
81 67
81 88
81 96
81 98
81 103
82 51
82 65
82 78
82 83
82 95
82 102
83 51
83 65
83 78
83 82
83 95
83 102
84 50
84 63
84 71
84 74
84 77
84 89
84 94
84 101
84 104
85 55
85 69
85 75
85 76
85 87
85 97
85 100
86 80
87 66
87 69
87 80
87 85
87 100
87 108
88 67
88 72
88 81
88 92
88 93
88 96
88 107
89 71
89 77
89 84
89 101
90 58
90 59
90 73
90 98
91 64
91 70
91 74
91 79
91 99
92 67
92 72
92 88
92 93
92 96
92 106
92 107
93 61
93 72
93 78
93 88
93 92
93 95
93 105
93 106
93 107
94 63
94 74
94 77
94 84
94 99
94 104
95 65
95 78
95 82
95 83
95 93
95 102
95 105
96 81
96 88
96 92
96 103
96 107
96 112
97 75
97 76
97 85
97 100
97 110
98 81
98 90
98 103
99 74
99 79
99 91
99 94
99 115
100 75
100 85
100 87
100 97
100 108
100 110
100 116
101 77
101 84
101 89
101 104
101 114
101 124
102 82
102 83
102 95
102 105
102 111
102 123
103 81
103 96
103 98
103 112
103 120
104 84
104 94
104 101
104 113
104 114
104 124
105 78
105 93
105 95
105 102
105 106
105 123
105 126
106 92
106 93
106 105
106 107
106 119
107 88
107 92
107 93
107 96
107 106
107 112
107 119
107 125
108 87
108 100
108 110
108 121
109 117
109 118
109 134
110 97
110 100
110 108
110 116
110 121
110 132
111 102
111 123
111 130
112 96
112 103
112 107
112 120
112 125
112 135
113 104
113 114
113 115
113 131
113 137
114 101
114 104
114 113
114 124
114 131
114 136
114 137
115 99
115 113
115 129
115 131
115 139
115 145
116 100
116 110
116 121
116 132
116 149
117 109
117 118
117 128
117 134
117 140
117 142
117 147
118 109
118 117
118 134
118 142
119 106
119 107
119 125
119 126
119 135
120 103
120 112
120 125
120 135
120 146
120 152
121 108
121 110
121 116
121 132
121 133
121 141
122 128
122 140
122 143
122 152
123 102
123 105
123 111
123 126
123 130
123 144
124 101
124 104
124 114
124 136
124 137
125 107
125 112
125 119
125 120
125 135
126 105
126 119
126 123
126 144
126 151
127 133
127 138
128 117
128 122
128 140
128 143
128 147
129 115
129 131
129 139
129 145
130 111
130 123
130 144
131 113
131 114
131 115
131 129
131 137
131 145
131 150
131 153
132 110
132 116
132 121
132 141
132 148
132 149
132 160
133 121
133 127
133 138
133 141
134 109
134 117
134 118
134 142
134 148
135 112
135 119
135 120
135 125
135 146
135 155
135 156
136 114
136 124
136 137
136 153
136 157
137 113
137 114
137 124
137 131
137 136
137 150
137 153
137 157
138 127
138 133
139 115
139 129
139 145
139 159
139 162
140 117
140 122
140 128
140 143
140 147
140 154
140 167
141 121
141 132
141 133
141 149
141 160
141 166
142 117
142 118
142 134
142 147
142 148
143 122
143 128
143 140
143 147
143 152
143 154
144 123
144 126
144 130
144 151
144 158
144 161
144 169
145 115
145 129
145 131
145 139
145 150
145 159
145 162
145 165
146 120
146 135
146 152
146 155
146 164
147 117
147 128
147 140
147 142
147 143
147 167
148 132
148 134
148 142
148 149
148 172
149 116
149 132
149 141
149 148
149 160
150 131
150 137
150 145
150 153
150 162
150 165
150 168
151 126
151 144
151 156
151 161
151 174
152 120
152 122
152 143
152 146
152 154
152 164
153 131
153 136
153 137
153 150
153 157
153 165
153 168
154 140
154 143
154 152
155 135
155 146
155 156
155 164
156 135
156 151
156 155
156 161
156 174
156 180
157 136
157 137
157 153
157 168
157 184
158 144
158 163
158 169
158 171
158 181
159 139
159 145
159 162
159 178
160 132
160 141
160 149
160 166
160 173
160 176
160 179
161 144
161 151
161 156
161 169
161 174
161 186
162 139
162 145
162 150
162 159
162 165
162 178
162 188
163 158
163 169
163 171
163 190
164 146
164 152
164 155
165 145
165 150
165 153
165 162
165 168
165 185
166 141
166 160
166 173
166 176
167 140
167 147
167 175
167 177
167 187
168 150
168 153
168 157
168 165
168 184
168 185
169 144
169 158
169 161
169 163
169 171
169 181
169 186
170 182
170 194
171 158
171 163
171 169
171 181
171 190
171 200
172 148
172 175
172 177
172 179
172 189
172 199
173 160
173 166
173 176
173 179
173 189
173 191
173 205
173 206
174 151
174 156
174 161
174 180
174 186
174 202
174 203
175 167
175 172
175 177
175 195
175 199
176 160
176 166
176 173
176 191
176 206
177 167
177 172
177 175
177 187
177 195
177 199
178 159
178 162
178 188
178 193
178 196
178 208
178 209
179 160
179 172
179 173
179 189
179 191
179 199
179 204
179 205
180 156
180 174
180 192
180 198
180 202
180 211
181 158
181 169
181 171
181 186
181 190
181 200
181 203
181 212
182 170
182 194
182 210
183 187
183 201
183 207
184 157
184 168
184 185
184 197
185 165
185 168
185 184
185 188
185 196
185 197
186 161
186 169
186 174
186 181
186 202
186 203
186 212
187 167
187 177
187 183
187 195
187 201
187 215
188 162
188 178
188 185
188 193
188 196
188 208
188 209
189 172
189 173
189 179
189 191
189 199
189 204
189 205
190 163
190 171
190 181
190 200
190 213
191 173
191 176
191 179
191 189
191 204
191 205
191 206
191 218
192 180
192 198
192 207
193 178
193 188
193 196
193 208
193 209
194 170
194 182
194 210
194 214
195 175
195 177
195 187
195 199
195 215
195 216
195 220
196 178
196 185
196 188
196 193
196 197
196 209
196 221
197 184
197 185
197 196
197 217
197 221
198 180
198 192
198 202
198 211
199 172
199 175
199 177
199 179
199 189
199 195
199 204
199 216
199 224
200 171
200 181
200 190
200 212
200 213
200 225
201 183
201 187
201 215
202 174
202 180
202 186
202 198
202 203
202 211
202 222
202 230
203 174
203 181
203 186
203 202
203 211
203 212
203 222
203 226
204 179
204 189
204 191
204 199
204 205
204 216
204 224
205 173
205 179
205 189
205 191
205 204
205 206
205 218
206 173
206 176
206 191
206 205
206 218
207 183
207 192
207 219
207 223
208 178
208 188
208 193
208 209
208 228
209 178
209 188
209 193
209 196
209 208
209 228
210 182
210 194
210 214
210 229
211 180
211 198
211 202
211 203
211 222
211 230
212 181
212 186
212 200
212 203
212 213
212 225
212 226
212 234
213 190
213 200
213 212
213 225
213 227
213 234
214 194
214 210
214 229
215 187
215 195
215 201
215 220
215 237
216 195
216 199
216 204
216 220
216 224
216 236
217 197
217 221
217 231
217 233
217 243
218 191
218 205
218 206
218 235
218 240
219 207
219 223
220 195
220 215
220 216
220 236
220 237
221 196
221 197
221 217
221 231
221 233
221 243
222 202
222 203
222 211
222 226
222 230
222 239
222 241
223 207
223 219
223 232
223 252
224 199
224 204
224 216
224 235
224 236
224 240
224 245
225 200
225 212
225 213
225 226
225 227
225 234
225 239
225 248
226 203
226 212
226 222
226 225
226 230
226 239
226 241
227 213
227 225
227 234
227 238
227 248
228 208
228 209
228 233
228 242
228 254
229 210
229 214
229 244
229 247
230 202
230 211
230 222
230 226
230 232
230 239
230 241
230 246
230 255
231 217
231 221
231 233
231 243
232 223
232 230
232 246
232 252
232 253
233 217
233 221
233 228
233 231
233 242
233 243
233 250
234 212
234 213
234 225
234 227
234 238
234 248
234 257
235 218
235 224
235 240
235 251
235 258
236 216
236 220
236 224
236 237
236 245
236 249
237 215
237 220
237 236
237 249
238 227
238 234
238 248
238 257
238 260
239 222
239 225
239 226
239 230
239 241
239 255
239 263
240 218
240 224
240 235
240 245
240 251
240 256
240 258
241 222
241 226
241 230
241 239
241 246
241 255
241 263
242 228
242 233
242 250
242 254
242 265
243 217
243 221
243 231
243 233
243 250
243 259
244 229
244 247
244 261
245 224
245 236
245 240
245 251
245 256
245 258
246 230
246 232
246 241
246 252
246 253
246 255
246 268
247 229
247 244
247 261
248 225
248 227
248 234
248 238
248 257
248 262
248 267
249 236
249 237
249 264
249 273
250 233
250 242
250 243
250 254
250 259
250 265
251 235
251 240
251 245
251 256
251 258
252 223
252 232
252 246
252 253
253 232
253 246
253 252
253 255
253 268
254 228
254 242
254 250
254 265
254 266
255 230
255 239
255 241
255 246
255 253
255 263
255 274
255 279
256 240
256 245
256 251
256 258
256 264
256 271
257 234
257 238
257 248
257 260
257 262
257 267
258 235
258 240
258 245
258 251
258 256
258 271
258 285
259 243
259 250
259 265
259 272
259 276
260 238
260 257
260 262
260 267
260 272
260 278
260 283
261 244
261 247
261 275
261 277
262 248
262 257
262 260
262 267
262 270
262 283
262 286
263 239
263 241
263 255
263 270
263 274
263 279
264 249
264 256
264 271
264 273
264 282
264 288
265 242
265 250
265 254
265 259
265 266
265 276
265 287
266 254
266 265
266 287
266 290
267 248
267 257
267 260
267 262
267 278
267 283
267 286
268 246
268 253
268 279
268 280
268 281
268 291
269 273
270 262
270 263
270 274
270 286
271 256
271 258
271 264
271 282
271 285
271 288
271 292
272 259
272 260
272 276
272 278
273 249
273 264
273 269
273 282
273 288
274 255
274 263
274 270
274 279
275 261
275 277
276 259
276 265
276 272
276 287
277 261
277 275
278 260
278 267
278 272
278 283
279 255
279 263
279 268
279 274
279 281
279 291
280 268
280 281
280 284
280 289
280 291
281 268
281 279
281 280
281 291
282 264
282 271
282 273
282 288
283 260
283 262
283 267
283 278
283 286
284 280
284 289
284 291
285 258
285 271
285 288
285 292
286 262
286 267
286 270
286 283
287 265
287 266
287 276
287 290
288 264
288 271
288 273
288 282
288 285
288 292
289 280
289 284
290 266
290 287
291 268
291 279
291 280
291 281
291 284
292 271
292 285
292 288
