1 8
1 17
1 24
2 6
2 18
3 12
3 13
4 10
4 20
5 16
5 21
6 2
6 7
6 18
7 6
7 25
8 1
8 9
8 24
8 26
9 8
9 26
9 27
10 4
10 13
10 20
10 28
11 14
11 19
11 23
12 3
12 13
13 3
13 10
13 12
13 28
14 11
14 19
14 38
15 29
15 30
16 5
16 21
16 40
17 1
17 24
17 35
18 2
18 6
18 33
19 11
19 14
19 38
19 44
20 4
20 10
20 36
20 41
21 5
21 16
21 31
21 40
22 29
22 37
23 11
23 25
23 39
23 44
24 1
24 8
24 17
24 26
24 35
25 7
25 23
25 34
25 39
25 46
25 50
26 8
26 9
26 24
26 32
26 42
27 9
27 32
27 47
28 10
28 13
28 45
29 15
29 22
29 30
29 37
29 49
30 15
30 29
30 36
30 49
31 21
31 40
31 57
32 26
32 27
32 42
32 47
32 54
33 18
33 34
33 55
34 25
34 33
34 46
34 50
35 17
35 24
35 52
36 20
36 30
36 41
36 56
37 22
37 29
37 49
37 51
38 14
38 19
38 44
39 23
39 25
39 44
39 46
39 50
39 53
40 16
40 21
40 31
40 43
41 20
41 36
41 48
41 56
42 26
42 32
42 47
42 54
43 40
44 19
44 23
44 38
44 39
44 53
45 28
45 58
45 59
46 25
46 34
46 39
46 50
46 62
47 27
47 32
47 42
47 54
47 61
48 41
48 56
48 66
49 29
49 30
49 37
49 51
49 60
49 64
50 25
50 34
50 39
50 46
50 62
51 37
51 49
51 64
52 35
52 65
53 39
53 44
53 69
53 73
54 32
54 42
54 47
54 68
55 33
55 70
56 36
56 41
56 48
56 60
56 66
56 71
57 31
57 58
58 45
58 57
59 45
59 80
60 49
60 56
60 66
60 71
61 47
61 74
61 75
62 46
62 50
62 76
62 83
63 69
63 78
64 49
64 51
64 77
64 81
65 52
65 79
65 86
66 48
66 56
66 60
66 71
66 87
66 91
67 72
68 54
68 74
68 84
68 86
69 53
69 63
69 73
69 78
69 90
70 55
70 76
70 88
71 56
71 60
71 66
71 87
71 91
71 92
72 67
72 89
73 53
73 69
73 90
73 98
74 61
74 68
74 75
74 84
74 96
75 61
75 74
75 96
76 62
76 70
76 83
76 88
77 64
77 81
77 94
78 63
78 69
78 90
79 65
79 85
79 86
80 59
80 87
80 95
81 64
81 77
81 82
81 94
82 81
83 62
83 76
83 88
83 93
84 68
84 74
84 86
84 96
84 99
85 79
86 65
86 68
86 79
86 84
87 66
87 71
87 80
87 91
87 95
88 70
88 76
88 83
88 100
89 72
89 97
90 69
90 73
90 78
90 98
91 66
91 71
91 87
91 92
91 105
91 106
92 71
92 91
92 105
93 83
93 103
94 77
94 81
94 101
94 104
95 80
95 87
95 102
96 74
96 75
96 84
96 99
97 89
97 102
98 73
98 90
98 114
99 84
99 96
99 109
99 115
100 88
100 103
101 94
101 104
101 110
102 95
102 97
102 111
102 119
103 93
103 100
103 112
103 113
104 94
104 101
105 91
105 92
105 106
105 118
106 91
106 105
106 111
106 118
106 124
107 120
108 116
108 117
109 99
109 115
110 101
110 122
110 129
111 102
111 106
111 119
111 124
112 103
112 113
112 114
112 130
112 136
113 103
113 112
113 123
113 135
113 136
114 98
114 112
114 128
114 130
115 99
115 109
115 120
115 131
116 108
116 117
116 127
116 146
117 108
117 116
117 133
117 141
118 105
118 106
118 124
118 125
118 134
119 102
119 111
119 145
120 107
120 115
120 131
120 132
120 140
121 127
121 142
122 110
122 125
122 129
122 143
123 113
123 135
123 136
124 106
124 111
124 118
124 134
125 118
125 122
125 150
126 132
126 137
127 116
127 121
127 139
127 142
127 146
128 114
128 138
128 144
129 110
129 122
130 112
130 114
130 136
130 144
130 149
130 152
131 115
131 120
131 140
131 148
132 120
132 126
132 137
132 140
133 117
133 141
133 147
134 118
134 124
134 145
134 154
135 113
135 123
135 136
135 152
135 156
136 112
136 113
136 123
136 130
136 135
136 149
136 152
136 156
137 126
137 132
138 128
138 144
138 158
138 161
139 127
139 142
139 146
140 120
140 131
140 132
140 159
140 165
141 117
141 133
141 146
141 147
142 121
142 127
142 139
142 146
142 151
142 153
143 122
143 150
143 157
144 128
144 130
144 138
144 149
144 158
144 161
145 119
145 134
145 151
145 154
145 163
146 116
146 127
146 139
146 141
146 142
146 166
147 133
147 141
147 148
148 131
148 147
148 159
149 130
149 136
149 144
149 152
149 164
150 125
150 143
150 155
150 160
151 142
151 145
151 153
151 163
152 130
152 135
152 136
152 149
152 156
152 164
152 167
153 142
153 151
154 134
154 145
154 163
155 150
155 160
155 173
156 135
156 136
156 152
156 167
157 143
157 162
157 168
157 170
158 138
158 144
158 161
158 177
159 140
159 148
159 165
159 172
159 175
160 150
160 155
160 173
161 138
161 144
161 158
161 164
161 177
162 157
162 170
163 145
163 151
163 154
164 149
164 152
164 161
164 167
164 184
165 140
165 159
165 172
165 175
166 146
166 174
166 176
167 152
167 156
167 164
167 183
168 157
168 170
168 180
168 185
169 181
169 193
170 157
170 162
170 168
170 180
170 189
171 174
171 176
171 178
171 188
172 159
172 165
172 175
172 178
172 190
173 155
173 160
173 179
173 185
174 166
174 171
174 176
174 194
175 159
175 165
175 172
175 190
176 166
176 171
176 174
176 194
177 158
177 161
177 187
177 192
178 171
178 172
178 188
178 190
178 203
179 173
179 191
179 197
180 168
180 170
180 185
180 199
181 169
181 193
182 206
183 167
183 196
184 164
184 187
184 195
184 196
185 168
185 173
185 180
185 201
185 202
186 200
186 214
187 177
187 184
187 192
187 195
187 208
188 171
188 178
188 190
188 198
188 203
188 204
189 170
189 199
189 212
190 172
190 175
190 178
190 188
190 203
190 204
190 205
191 179
191 197
192 177
192 187
192 195
192 207
192 208
193 169
193 181
193 209
193 213
194 174
194 176
194 198
194 215
194 219
195 184
195 187
195 192
195 196
195 208
196 183
196 184
196 195
196 216
197 179
197 191
197 210
198 188
198 194
198 203
198 215
199 180
199 189
199 211
199 212
200 186
200 214
201 185
201 202
201 210
201 221
202 185
202 201
202 210
202 211
202 221
203 178
203 188
203 190
203 198
203 204
203 215
203 223
204 188
204 190
204 203
204 205
204 217
205 190
205 204
205 217
206 182
206 218
206 222
207 192
207 208
207 227
208 187
208 192
208 195
208 207
208 227
209 193
209 213
210 197
210 201
210 202
210 221
210 229
211 199
211 202
211 212
211 224
211 225
212 189
212 199
212 211
212 226
212 233
213 193
213 209
213 228
214 186
214 200
214 219
215 194
215 198
215 203
215 219
215 223
215 235
216 196
216 220
216 230
216 232
217 204
217 205
217 234
218 206
218 222
219 194
219 214
219 215
219 235
219 236
220 216
220 230
220 232
221 201
221 202
221 210
221 225
221 229
221 238
221 240
222 206
222 218
223 203
223 215
223 244
224 211
224 225
224 233
225 211
225 221
225 224
225 238
226 212
226 233
226 237
227 207
227 208
227 241
228 213
228 243
228 246
229 210
229 221
229 231
229 238
229 240
229 245
230 216
230 220
230 232
230 242
231 229
231 245
231 252
232 216
232 220
232 230
232 241
232 242
232 249
233 212
233 224
233 226
233 237
233 247
234 217
234 239
234 250
235 215
235 219
235 236
235 248
236 219
236 235
236 248
237 226
237 233
237 247
237 256
238 221
238 225
238 229
238 240
238 254
239 234
239 244
239 250
239 257
240 221
240 229
240 238
240 245
240 254
241 227
241 232
241 249
241 253
242 230
242 232
242 249
242 258
243 228
243 246
243 260
244 223
244 239
244 255
244 257
245 229
245 231
245 240
245 252
245 254
246 228
246 243
246 260
247 233
247 237
247 256
247 261
248 235
248 236
248 263
249 232
249 241
249 242
249 258
249 264
250 234
250 239
250 257
251 252
252 231
252 245
252 251
252 267
253 241
253 265
254 238
254 240
254 245
254 262
255 244
255 257
255 263
255 270
256 237
256 247
256 259
256 261
256 266
257 239
257 244
257 250
257 255
258 242
258 249
258 264
258 271
258 275
259 256
259 266
259 271
259 277
260 243
260 246
260 274
260 276
261 247
261 256
261 266
261 285
262 254
262 269
262 273
263 248
263 255
263 270
263 272
263 281
264 249
264 258
264 275
264 286
265 253
265 289
266 256
266 259
266 261
266 277
266 282
266 285
267 252
267 278
267 279
267 280
267 290
268 272
269 262
269 273
270 255
270 263
270 284
270 287
270 291
271 258
271 259
271 275
271 277
272 263
272 268
272 281
273 262
273 269
274 260
274 276
275 258
275 264
275 271
275 286
276 260
276 274
277 259
277 266
277 271
277 282
278 267
278 280
278 290
279 267
279 280
279 283
279 290
280 267
280 278
280 279
280 290
281 263
281 272
281 287
282 266
282 277
282 285
283 279
283 288
283 290
284 270
284 291
285 261
285 266
285 282
286 264
286 275
286 289
287 270
287 281
287 291
288 283
289 265
289 286
290 267
290 278
290 279
290 280
290 283
291 270
291 284
291 287
