1 2
1 5
1 10
1 12
1 13
1 15
1 28
2 1
2 10
2 12
2 13
2 28
3 4
3 5
3 6
3 15
3 20
3 27
4 3
4 6
4 8
4 9
4 20
4 23
5 1
5 3
5 6
5 12
5 15
5 27
6 3
6 4
6 5
6 12
6 15
6 20
6 27
7 11
7 14
7 16
7 26
7 33
7 35
8 4
8 9
8 11
8 22
8 23
8 26
8 30
8 44
9 4
9 8
9 11
9 20
9 22
9 23
9 30
9 44
10 1
10 2
10 12
10 13
10 28
10 40
11 7
11 8
11 9
11 14
11 22
11 26
11 30
11 33
11 44
12 1
12 2
12 5
12 6
12 10
12 13
12 15
12 28
13 1
13 2
13 10
13 12
13 15
13 28
13 40
13 52
14 7
14 11
14 26
14 30
14 33
14 35
14 51
15 1
15 3
15 5
15 6
15 12
15 13
15 27
15 28
15 49
15 50
16 7
16 17
16 19
16 33
16 35
16 37
17 16
17 18
17 19
17 25
17 37
17 38
17 46
17 47
18 17
18 19
18 21
18 25
18 38
18 47
18 48
19 16
19 17
19 18
19 25
19 35
19 37
19 38
19 46
19 47
20 3
20 4
20 6
20 9
20 23
20 27
20 45
20 57
20 62
21 18
21 24
21 25
21 38
21 47
21 48
21 53
22 8
22 9
22 11
22 23
22 26
22 30
22 44
22 61
23 4
23 8
23 9
23 20
23 22
23 44
23 45
23 57
23 62
24 21
24 31
24 32
24 48
24 53
24 56
25 17
25 18
25 19
25 21
25 37
25 38
25 46
25 47
25 48
25 68
26 7
26 8
26 11
26 14
26 22
26 30
26 33
26 44
26 51
26 55
27 3
27 5
27 6
27 15
27 20
27 45
27 49
27 50
27 66
28 1
28 2
28 10
28 12
28 13
28 15
28 40
28 52
29 32
29 34
29 39
29 42
29 60
29 63
30 8
30 9
30 11
30 14
30 22
30 26
30 33
30 44
30 51
30 72
31 24
31 32
31 34
31 53
31 56
32 24
32 29
32 31
32 34
32 56
32 60
32 70
33 7
33 11
33 14
33 16
33 26
33 30
33 35
33 51
33 55
33 58
33 71
34 29
34 31
34 32
34 42
34 60
34 70
35 7
35 14
35 16
35 19
35 33
35 37
35 46
35 55
35 58
35 59
36 43
36 54
36 64
37 16
37 17
37 19
37 25
37 35
37 46
37 58
37 59
37 68
37 74
38 17
38 18
38 19
38 21
38 25
38 46
38 47
38 48
38 67
38 68
39 29
39 41
39 42
39 63
39 65
40 10
40 13
40 28
40 52
40 75
41 39
41 43
41 65
41 69
42 29
42 34
42 39
42 60
42 63
42 65
43 36
43 41
43 54
43 64
43 69
43 76
44 8
44 9
44 11
44 22
44 23
44 26
44 30
44 51
44 57
44 61
44 72
44 78
44 80
45 20
45 23
45 27
45 50
45 57
45 62
45 66
45 79
46 17
46 19
46 25
46 35
46 37
46 38
46 47
46 59
46 68
46 74
46 83
46 84
47 17
47 18
47 19
47 21
47 25
47 38
47 46
47 48
47 53
47 67
47 68
47 82
47 83
48 18
48 21
48 24
48 25
48 38
48 47
48 53
48 56
48 67
48 73
48 82
48 83
49 15
49 27
49 50
49 52
49 66
49 85
49 87
50 15
50 27
50 45
50 49
50 62
50 66
50 79
50 85
51 14
51 26
51 30
51 33
51 44
51 55
51 58
51 71
51 72
51 86
52 13
52 28
52 40
52 49
52 75
52 77
52 87
53 21
53 24
53 31
53 47
53 48
53 56
53 67
53 73
53 82
54 36
54 43
54 64
54 69
54 76
54 92
55 26
55 33
55 35
55 51
55 58
55 59
55 71
55 72
55 74
55 86
56 24
56 31
56 32
56 48
56 53
56 70
56 73
56 81
56 97
57 20
57 23
57 44
57 45
57 61
57 62
57 78
57 79
57 93
58 33
58 35
58 37
58 51
58 55
58 59
58 71
58 74
58 86
58 95
59 35
59 37
59 46
59 55
59 58
59 68
59 74
59 84
59 86
59 95
60 29
60 32
60 34
60 42
60 63
60 70
60 81
60 90
60 91
61 22
61 44
61 57
61 62
61 72
61 78
61 80
61 93
61 98
61 100
62 20
62 23
62 45
62 50
62 57
62 61
62 78
62 79
62 89
62 93
63 29
63 39
63 42
63 60
63 65
63 88
63 91
64 36
64 43
64 54
64 76
64 92
65 39
65 41
65 42
65 63
65 69
65 88
66 27
66 45
66 49
66 50
66 79
66 85
66 87
66 89
66 96
66 106
67 38
67 47
67 48
67 53
67 68
67 73
67 82
67 83
67 94
67 99
68 25
68 37
68 38
68 46
68 47
68 59
68 67
68 74
68 83
68 84
68 94
68 95
68 102
69 41
69 43
69 54
69 65
69 76
69 92
69 110
70 32
70 34
70 56
70 60
70 81
70 90
70 91
70 97
70 111
71 33
71 51
71 55
71 58
71 72
71 80
71 86
71 103
71 107
72 30
72 44
72 51
72 55
72 61
72 71
72 78
72 80
72 100
72 103
73 48
73 53
73 56
73 67
73 81
73 82
73 94
73 97
73 99
73 101
74 37
74 46
74 55
74 58
74 59
74 68
74 84
74 86
74 95
74 102
74 104
74 109
75 40
75 52
75 77
75 87
75 105
76 43
76 54
76 64
76 69
76 92
76 110
76 112
77 52
77 75
77 85
77 87
77 105
77 116
78 44
78 57
78 61
78 62
78 72
78 80
78 93
78 98
78 100
78 103
78 117
79 45
79 50
79 57
79 62
79 66
79 85
79 89
79 93
79 96
80 44
80 61
80 71
80 72
80 78
80 98
80 100
80 103
81 56
81 60
81 70
81 73
81 90
81 91
81 97
81 101
81 111
82 47
82 48
82 53
82 67
82 73
82 83
82 94
82 99
82 101
82 113
83 46
83 47
83 48
83 67
83 68
83 82
83 84
83 94
83 99
83 102
83 113
83 120
84 46
84 59
84 68
84 74
84 83
84 95
84 102
84 118
84 120
85 49
85 50
85 66
85 77
85 79
85 87
85 89
85 96
85 106
85 119
86 51
86 55
86 58
86 59
86 71
86 74
86 95
86 104
86 107
86 109
87 49
87 52
87 66
87 75
87 77
87 85
87 105
87 106
87 116
87 122
88 63
88 65
88 91
88 108
88 114
88 115
89 62
89 66
89 79
89 85
89 93
89 96
89 119
89 121
90 60
90 70
90 81
90 91
90 97
90 111
90 114
90 124
91 60
91 63
91 70
91 81
91 88
91 90
91 111
91 114
91 130
92 54
92 64
92 69
92 76
92 110
92 112
93 57
93 61
93 62
93 78
93 79
93 89
93 98
93 100
93 117
93 121
93 128
94 67
94 68
94 73
94 82
94 83
94 99
94 101
94 102
94 113
94 120
95 58
95 59
95 68
95 74
95 84
95 86
95 102
95 104
95 109
95 118
95 120
96 66
96 79
96 85
96 89
96 106
96 119
96 121
96 122
97 56
97 70
97 73
97 81
97 90
97 99
97 101
97 111
97 123
97 124
97 125
98 61
98 78
98 80
98 93
98 100
98 103
98 117
98 126
98 128
99 67
99 73
99 82
99 83
99 94
99 97
99 101
99 113
99 123
99 125
100 61
100 72
100 78
100 80
100 93
100 98
100 103
100 117
100 126
100 132
101 73
101 81
101 82
101 94
101 97
101 99
101 113
101 123
101 124
101 125
102 68
102 74
102 83
102 84
102 94
102 95
102 118
102 120
103 71
103 72
103 78
103 80
103 98
103 100
103 107
103 117
103 126
103 132
104 74
104 86
104 95
104 107
104 109
104 118
104 135
104 139
104 140
105 75
105 77
105 87
105 116
105 129
105 133
106 66
106 85
106 87
106 96
106 116
106 119
106 122
106 133
106 137
106 138
107 71
107 86
107 103
107 104
107 109
107 132
107 135
107 147
108 88
108 110
108 114
108 115
108 127
108 134
108 136
108 142
109 74
109 86
109 95
109 104
109 107
109 135
109 139
109 140
110 69
110 76
110 92
110 108
110 112
110 115
110 127
110 134
110 142
111 70
111 81
111 90
111 91
111 97
111 114
111 124
111 125
111 130
111 131
111 148
112 76
112 92
112 110
112 134
113 82
113 83
113 94
113 99
113 101
113 120
113 123
113 145
113 151
114 88
114 90
114 91
114 108
114 111
114 115
114 130
114 131
114 136
115 88
115 108
115 110
115 114
115 127
115 136
115 142
116 77
116 87
116 105
116 106
116 122
116 129
116 133
116 137
116 150
116 154
117 78
117 93
117 98
117 100
117 103
117 121
117 126
117 128
117 141
117 152
118 84
118 95
118 102
118 104
118 120
118 140
118 143
118 149
119 85
119 89
119 96
119 106
119 121
119 122
119 137
119 138
119 141
119 144
119 155
119 158
120 83
120 84
120 94
120 95
120 102
120 113
120 118
120 140
120 143
120 145
120 149
120 159
121 89
121 93
121 96
121 117
121 119
121 128
121 138
121 141
121 144
121 164
122 87
122 96
122 106
122 116
122 119
122 133
122 137
122 138
122 150
122 154
122 155
123 97
123 99
123 101
123 113
123 124
123 125
123 145
123 151
123 157
123 161
124 90
124 97
124 101
124 111
124 123
124 125
124 131
124 148
124 161
125 97
125 99
125 101
125 111
125 123
125 124
125 148
125 151
125 157
125 161
126 98
126 100
126 103
126 117
126 128
126 132
126 147
126 152
126 156
126 162
127 108
127 110
127 115
127 134
127 136
127 142
127 160
127 167
127 170
128 93
128 98
128 117
128 121
128 126
128 141
128 144
128 152
128 162
128 164
129 105
129 116
129 133
129 146
129 150
129 154
130 91
130 111
130 114
130 131
130 136
130 148
130 165
130 169
131 111
131 114
131 124
131 130
131 148
131 165
131 168
132 100
132 103
132 107
132 126
132 135
132 147
132 152
132 156
132 163
133 105
133 106
133 116
133 122
133 129
133 137
133 138
133 146
133 150
133 154
133 155
134 108
134 110
134 112
134 127
134 142
134 167
134 173
135 104
135 107
135 109
135 132
135 139
135 140
135 147
135 153
135 163
135 171
136 108
136 114
136 115
136 127
136 130
136 142
136 160
136 167
136 169
136 170
136 177
137 106
137 116
137 119
137 122
137 133
137 138
137 144
137 150
137 154
137 155
137 158
138 106
138 119
138 121
138 122
138 133
138 137
138 141
138 144
138 154
138 155
138 158
138 164
139 104
139 109
139 135
139 140
139 147
139 149
139 153
139 171
139 175
140 104
140 109
140 118
140 120
140 135
140 139
140 143
140 149
140 153
140 159
140 175
141 117
141 119
141 121
141 128
141 138
141 144
141 158
141 162
141 164
142 108
142 110
142 115
142 127
142 134
142 136
142 160
142 167
142 170
142 173
142 181
143 118
143 120
143 140
143 145
143 149
143 159
143 166
143 174
143 184
144 119
144 121
144 128
144 137
144 138
144 141
144 155
144 158
144 164
144 183
145 113
145 120
145 123
145 143
145 151
145 157
145 159
145 166
145 187
146 129
146 133
146 150
146 154
146 176
146 185
147 107
147 126
147 132
147 135
147 139
147 153
147 156
147 163
147 171
147 178
148 111
148 124
148 125
148 130
148 131
148 161
148 165
148 168
148 192
149 118
149 120
149 139
149 140
149 143
149 159
149 174
149 175
149 188
150 116
150 122
150 129
150 133
150 137
150 146
150 154
150 155
150 176
150 180
150 185
151 113
151 123
151 125
151 145
151 157
151 161
151 166
151 182
151 186
152 117
152 126
152 128
152 132
152 156
152 162
152 172
152 191
153 135
153 139
153 140
153 147
153 163
153 171
153 175
153 178
154 116
154 122
154 129
154 133
154 137
154 138
154 146
154 150
154 155
154 158
154 176
154 180
155 119
155 122
155 133
155 137
155 138
155 144
155 150
155 154
155 158
155 180
155 183
156 126
156 132
156 147
156 152
156 162
156 163
156 172
156 178
156 191
157 123
157 125
157 145
157 151
157 161
157 166
157 182
157 186
157 195
158 119
158 137
158 138
158 141
158 144
158 154
158 155
158 164
158 180
158 183
158 190
158 198
159 120
159 140
159 143
159 145
159 149
159 166
159 174
159 184
159 188
160 127
160 136
160 142
160 167
160 169
160 170
160 173
160 177
160 181
160 196
161 123
161 124
161 125
161 148
161 151
161 157
161 168
161 182
161 186
161 192
161 195
161 197
162 126
162 128
162 141
162 152
162 156
162 164
162 172
162 189
162 191
162 194
163 132
163 135
163 147
163 153
163 156
163 171
163 172
163 178
163 202
164 121
164 128
164 138
164 141
164 144
164 158
164 162
164 183
164 189
164 190
164 194
165 130
165 131
165 148
165 168
165 169
165 192
165 193
165 200
166 143
166 145
166 151
166 157
166 159
166 174
166 184
166 186
166 187
166 204
167 127
167 134
167 136
167 142
167 160
167 170
167 173
167 177
167 179
167 181
167 209
168 131
168 148
168 161
168 165
168 192
168 193
168 197
168 200
168 205
169 130
169 136
169 160
169 165
169 170
169 177
169 193
169 196
169 216
170 127
170 136
170 142
170 160
170 167
170 169
170 173
170 177
170 181
170 196
170 209
170 212
171 135
171 139
171 147
171 153
171 163
171 175
171 178
171 188
171 199
171 202
171 210
172 152
172 156
172 162
172 163
172 178
172 189
172 191
172 206
172 215
173 134
173 142
173 160
173 167
173 170
173 177
173 179
173 181
173 201
173 209
173 212
174 143
174 149
174 159
174 166
174 175
174 184
174 187
174 188
174 204
174 208
174 214
175 139
175 140
175 149
175 153
175 171
175 174
175 188
175 199
175 210
175 214
176 146
176 150
176 154
176 180
176 185
176 211
176 219
177 136
177 160
177 167
177 169
177 170
177 173
177 181
177 193
177 196
177 209
177 218
177 220
178 147
178 153
178 156
178 163
178 171
178 172
178 191
178 202
178 210
178 215
179 167
179 173
179 181
179 201
179 212
179 224
180 150
180 154
180 155
180 158
180 176
180 183
180 185
180 198
180 211
181 142
181 160
181 167
181 170
181 173
181 177
181 179
181 196
181 209
181 212
181 220
181 230
182 151
182 157
182 161
182 186
182 192
182 195
182 197
182 205
182 207
182 217
182 226
183 144
183 155
183 158
183 164
183 180
183 190
183 194
183 198
183 203
183 213
183 221
183 223
184 143
184 159
184 166
184 174
184 187
184 188
184 204
184 207
184 208
184 234
185 146
185 150
185 176
185 180
185 211
185 219
186 151
186 157
186 161
186 166
186 182
186 187
186 195
186 197
186 207
186 217
186 226
186 228
187 145
187 166
187 174
187 184
187 186
187 195
187 204
187 207
187 208
187 228
188 149
188 159
188 171
188 174
188 175
188 184
188 199
188 208
188 214
188 227
188 232
189 162
189 164
189 172
189 190
189 191
189 194
189 206
189 213
189 229
189 231
190 158
190 164
190 183
190 189
190 194
190 198
190 203
190 213
190 221
190 223
190 231
191 152
191 156
191 162
191 172
191 178
191 189
191 194
191 202
191 206
191 215
191 229
191 236
192 148
192 161
192 165
192 168
192 182
192 193
192 197
192 200
192 205
192 217
192 222
192 233
192 237
193 165
193 168
193 169
193 177
193 192
193 196
193 200
193 205
193 216
193 218
193 220
193 222
194 162
194 164
194 183
194 189
194 190
194 191
194 203
194 206
194 213
194 223
194 229
194 231
195 157
195 161
195 182
195 186
195 187
195 197
195 207
195 217
195 226
195 228
196 160
196 169
196 170
196 177
196 181
196 193
196 209
196 216
196 218
196 220
197 161
197 168
197 182
197 186
197 192
197 195
197 200
197 205
197 217
197 226
197 233
197 237
197 241
198 158
198 180
198 183
198 190
198 203
198 211
198 221
198 223
198 246
199 171
199 175
199 188
199 202
199 210
199 214
199 225
199 227
199 232
199 242
200 165
200 168
200 192
200 193
200 197
200 205
200 216
200 218
200 222
200 233
200 237
200 240
201 173
201 179
201 212
201 224
201 230
202 163
202 171
202 178
202 191
202 199
202 210
202 215
202 225
202 235
202 239
202 245
203 183
203 190
203 194
203 198
203 213
203 221
203 223
203 231
203 246
203 253
204 166
204 174
204 184
204 187
204 207
204 208
204 228
204 232
204 234
204 247
204 254
205 168
205 182
205 192
205 193
205 197
205 200
205 216
205 217
205 222
205 233
205 237
205 240
205 241
206 172
206 189
206 191
206 194
206 213
206 215
206 229
206 231
206 236
206 239
206 244
207 182
207 184
207 186
207 187
207 195
207 204
207 217
207 226
207 228
207 247
207 257
208 174
208 184
208 187
208 188
208 204
208 214
208 227
208 232
208 234
208 242
208 249
208 254
209 167
209 170
209 173
209 177
209 181
209 196
209 212
209 218
209 220
209 230
209 251
209 252
210 171
210 175
210 178
210 199
210 202
210 214
210 225
210 227
210 235
210 255
211 176
211 180
211 185
211 198
211 219
211 221
211 243
211 246
211 265
212 170
212 173
212 179
212 181
212 201
212 209
212 220
212 224
212 230
212 250
212 251
212 262
213 183
213 189
213 190
213 194
213 203
213 206
213 221
213 223
213 229
213 231
213 253
213 256
214 174
214 175
214 188
214 199
214 208
214 210
214 225
214 227
214 232
214 234
214 242
214 249
215 172
215 178
215 191
215 202
215 206
215 229
215 235
215 236
215 239
215 244
215 245
216 169
216 193
216 196
216 200
216 205
216 218
216 220
216 222
216 240
216 248
217 182
217 186
217 192
217 195
217 197
217 205
217 207
217 226
217 233
217 237
217 241
217 258
217 259
218 177
218 193
218 196
218 200
218 209
218 216
218 220
218 222
218 240
218 248
218 252
219 176
219 185
219 211
219 238
219 243
220 177
220 181
220 193
220 196
220 209
220 212
220 216
220 218
220 248
220 251
220 252
221 183
221 190
221 198
221 203
221 211
221 213
221 223
221 246
221 253
221 261
222 192
222 193
222 200
222 205
222 216
222 218
222 233
222 237
222 240
222 248
222 263
222 266
222 269
223 183
223 190
223 194
223 198
223 203
223 213
223 221
223 229
223 231
223 246
223 253
223 256
223 261
224 179
224 201
224 212
224 230
224 250
224 262
224 264
225 199
225 202
225 210
225 214
225 227
225 235
225 242
225 255
225 260
225 268
226 182
226 186
226 195
226 197
226 207
226 217
226 228
226 241
226 247
226 257
226 258
227 188
227 199
227 208
227 210
227 214
227 225
227 232
227 234
227 242
227 249
227 255
227 268
228 186
228 187
228 195
228 204
228 207
228 226
228 234
228 247
228 254
228 257
229 189
229 191
229 194
229 206
229 213
229 215
229 223
229 231
229 236
229 239
229 244
229 253
229 256
229 267
230 181
230 201
230 209
230 212
230 224
230 250
230 251
230 262
231 189
231 190
231 194
231 203
231 206
231 213
231 223
231 229
231 236
231 244
231 253
231 256
231 267
231 272
232 188
232 199
232 204
232 208
232 214
232 227
232 234
232 242
232 249
232 254
232 255
232 270
233 192
233 197
233 200
233 205
233 217
233 222
233 237
233 240
233 241
233 258
233 259
233 263
233 275
234 184
234 204
234 208
234 214
234 227
234 228
234 232
234 242
234 247
234 249
234 254
234 270
235 202
235 210
235 215
235 225
235 239
235 245
235 255
235 260
235 273
235 276
235 277
236 191
236 206
236 215
236 229
236 231
236 239
236 244
236 245
236 256
236 267
236 271
236 274
237 192
237 197
237 200
237 205
237 217
237 222
237 233
237 240
237 241
237 259
237 263
237 266
237 269
237 275
238 219
238 243
238 265
239 202
239 206
239 215
239 229
239 235
239 236
239 244
239 245
239 260
239 271
239 273
239 274
240 200
240 205
240 216
240 218
240 222
240 233
240 237
240 248
240 263
240 266
240 269
240 275
241 197
241 205
241 217
241 226
241 233
241 237
241 257
241 258
241 259
241 263
241 275
241 285
242 199
242 208
242 214
242 225
242 227
242 232
242 234
242 249
242 254
242 255
242 268
242 270
243 211
243 219
243 238
243 246
243 265
244 206
244 215
244 229
244 231
244 236
244 239
244 245
244 256
244 267
244 271
244 274
245 202
245 215
245 235
245 236
245 239
245 244
245 260
245 271
245 273
245 276
246 198
246 203
246 211
246 221
246 223
246 243
246 253
246 261
246 265
246 272
247 204
247 207
247 226
247 228
247 234
247 254
247 257
247 258
247 281
247 283
247 284
248 216
248 218
248 220
248 222
248 240
248 252
248 266
248 269
248 282
249 208
249 214
249 227
249 232
249 234
249 242
249 254
249 270
249 283
249 287
250 212
250 224
250 230
250 251
250 262
250 264
250 278
250 279
250 286
251 209
251 212
251 220
251 230
251 250
251 252
251 262
251 278
251 279
251 280
252 209
252 218
252 220
252 248
252 251
252 262
252 266
252 278
252 280
252 282
253 203
253 213
253 221
253 223
253 229
253 231
253 246
253 256
253 261
253 267
253 272
254 204
254 208
254 228
254 232
254 234
254 242
254 247
254 249
254 257
254 270
254 281
254 283
254 287
255 210
255 225
255 227
255 232
255 235
255 242
255 260
255 268
255 276
255 277
256 213
256 223
256 229
256 231
256 236
256 244
256 253
256 261
256 267
256 272
256 274
257 207
257 226
257 228
257 241
257 247
257 254
257 258
257 281
257 284
257 288
258 217
258 226
258 233
258 241
258 247
258 257
258 259
258 284
258 285
258 288
258 289
259 217
259 233
259 237
259 241
259 258
259 263
259 269
259 275
259 285
259 289
260 225
260 235
260 239
260 245
260 255
260 271
260 273
260 276
260 277
261 221
261 223
261 246
261 253
261 256
261 265
261 272
262 212
262 224
262 230
262 250
262 251
262 252
262 264
262 278
262 279
262 280
262 297
263 222
263 233
263 237
263 240
263 241
263 259
263 266
263 269
263 275
263 285
263 291
264 224
264 250
264 262
264 279
264 286
264 296
265 211
265 238
265 243
265 246
265 261
265 293
265 295
266 222
266 237
266 240
266 248
266 252
266 263
266 269
266 275
266 282
266 291
266 292
266 294
267 229
267 231
267 236
267 244
267 253
267 256
267 272
267 274
267 302
267 303
268 225
268 227
268 242
268 255
268 270
268 276
268 277
268 287
269 222
269 237
269 240
269 248
269 259
269 263
269 266
269 275
269 282
269 285
269 291
269 292
270 232
270 234
270 242
270 249
270 254
270 268
270 283
270 287
271 236
271 239
271 244
271 245
271 260
271 273
271 274
271 276
271 304
272 231
272 246
272 253
272 256
272 261
272 267
272 299
272 300
272 302
273 235
273 239
273 245
273 260
273 271
273 274
273 276
273 277
273 304
274 236
274 239
274 244
274 256
274 267
274 271
274 273
274 303
274 307
275 233
275 237
275 240
275 241
275 259
275 263
275 266
275 269
275 285
275 289
275 291
275 292
276 235
276 245
276 255
276 260
276 268
276 271
276 273
276 277
276 304
277 235
277 255
277 260
277 268
277 273
277 276
277 304
277 308
278 250
278 251
278 252
278 262
278 279
278 280
278 297
278 298
278 301
279 250
279 251
279 262
279 264
279 278
279 280
279 286
279 296
279 297
279 301
279 309
280 251
280 252
280 262
280 278
280 279
280 282
280 294
280 297
280 298
281 247
281 254
281 257
281 283
281 284
281 288
281 313
282 248
282 252
282 266
282 269
282 280
282 291
282 292
282 294
282 298
283 247
283 249
283 254
283 270
283 281
283 284
283 287
283 313
283 315
284 247
284 257
284 258
284 281
284 283
284 288
284 289
284 313
284 317
285 241
285 258
285 259
285 263
285 269
285 275
285 288
285 289
285 291
286 250
286 264
286 279
286 296
286 301
286 306
286 309
287 249
287 254
287 268
287 270
287 283
287 310
287 315
287 322
288 257
288 258
288 281
288 284
288 285
288 289
288 313
288 317
289 258
289 259
289 275
289 284
289 285
289 288
289 317
290 293
290 305
290 326
291 263
291 266
291 269
291 275
291 282
291 285
291 292
291 294
291 320
291 331
292 266
292 269
292 275
292 282
292 291
292 294
292 298
292 320
293 265
293 290
293 295
293 300
293 305
293 312
294 266
294 280
294 282
294 291
294 292
294 298
294 320
294 332
295 265
295 293
295 299
295 300
295 312
295 318
295 340
296 264
296 279
296 286
296 301
296 306
296 309
296 335
297 262
297 278
297 279
297 280
297 298
297 301
297 306
297 309
297 338
298 278
298 280
298 282
298 292
298 294
298 297
298 332
298 334
299 272
299 295
299 300
299 302
299 312
299 314
299 316
299 318
299 327
300 272
300 293
300 295
300 299
300 312
300 314
300 318
300 327
300 340
301 278
301 279
301 286
301 296
301 297
301 306
301 309
301 335
301 338
302 267
302 272
302 299
302 303
302 307
302 314
302 316
302 324
302 327
303 267
303 274
303 302
303 307
303 311
303 316
303 319
303 324
304 271
304 273
304 276
304 277
304 308
304 311
304 319
304 323
304 325
304 329
305 290
305 293
305 312
305 326
305 337
305 343
306 286
306 296
306 297
306 301
306 309
306 335
306 346
307 274
307 302
307 303
307 311
307 316
307 319
307 323
307 324
307 348
307 350
308 277
308 304
308 310
308 321
308 322
308 323
308 325
308 329
308 353
309 279
309 286
309 296
309 297
309 301
309 306
309 335
309 338
309 346
310 287
310 308
310 321
310 322
310 325
310 329
311 303
311 304
311 307
311 319
311 323
311 324
311 325
311 348
311 350
311 351
311 352
312 293
312 295
312 299
312 300
312 305
312 318
312 327
312 340
312 343
312 354
313 281
313 283
313 284
313 288
313 315
313 317
313 333
313 336
313 339
313 345
314 299
314 300
314 302
314 316
314 318
314 327
314 340
314 344
314 347
315 283
315 287
315 313
315 321
315 322
315 333
315 342
315 345
315 355
316 299
316 302
316 303
316 307
316 314
316 324
316 327
316 344
316 350
316 356
317 284
317 288
317 289
317 313
317 328
317 336
317 339
317 345
318 295
318 299
318 300
318 312
318 314
318 327
318 340
318 343
318 344
318 347
318 354
319 303
319 304
319 307
319 311
319 323
319 324
319 325
319 348
319 350
319 351
319 352
320 291
320 292
320 294
320 330
320 331
320 332
320 341
320 349
320 363
321 308
321 310
321 315
321 322
321 329
321 342
321 358
321 359
321 365
322 287
322 308
322 310
322 315
322 321
322 329
322 333
322 342
322 355
322 359
322 365
323 304
323 307
323 308
323 311
323 319
323 325
323 329
323 348
323 350
323 351
323 352
323 353
323 370
324 302
324 303
324 307
324 311
324 316
324 319
324 344
324 348
324 350
324 356
324 366
325 304
325 308
325 310
325 311
325 319
325 323
325 329
325 351
325 352
325 353
325 358
325 373
326 290
326 305
326 337
326 343
326 360
326 375
327 299
327 300
327 302
327 312
327 314
327 316
327 318
327 340
327 344
327 347
327 354
327 362
328 317
328 330
328 331
328 339
328 357
328 364
328 378
329 304
329 308
329 310
329 321
329 322
329 323
329 325
329 351
329 353
329 358
329 373
330 320
330 328
330 331
330 339
330 341
330 357
330 364
330 377
330 378
331 291
331 320
331 328
331 330
331 341
331 357
331 363
331 377
332 294
332 298
332 320
332 334
332 341
332 349
332 363
332 367
332 369
333 313
333 315
333 322
333 336
333 342
333 345
333 355
333 359
333 372
333 382
334 298
334 332
334 338
334 349
334 367
334 369
334 381
335 296
335 301
335 306
335 309
335 338
335 346
335 371
335 376
336 313
336 317
336 333
336 339
336 345
336 355
336 368
336 372
336 374
337 305
337 326
337 343
337 360
337 361
337 375
337 380
338 297
338 301
338 309
338 334
338 335
338 346
338 371
338 376
338 381
339 313
339 317
339 328
339 330
339 336
339 345
339 357
339 364
339 368
339 374
340 295
340 300
340 312
340 314
340 318
340 327
340 343
340 344
340 347
340 354
340 361
340 379
340 383
341 320
341 330
341 331
341 332
341 349
341 357
341 363
341 367
341 377
342 315
342 321
342 322
342 333
342 355
342 359
342 365
342 382
343 305
343 312
343 318
343 326
343 337
343 340
343 354
343 360
343 361
343 375
343 380
344 314
344 316
344 318
344 324
344 327
344 340
344 347
344 356
344 362
344 383
344 384
345 313
345 315
345 317
345 333
345 336
345 339
345 355
345 368
345 372
345 374
345 382
346 306
346 309
346 335
346 338
346 371
346 376
347 314
347 318
347 327
347 340
347 344
347 354
347 362
347 379
347 383
347 390
348 307
348 311
348 319
348 323
348 324
348 350
348 351
348 352
348 356
348 366
348 370
348 386
348 388
349 320
349 332
349 334
349 341
349 363
349 367
349 369
349 381
350 307
350 311
350 316
350 319
350 323
350 324
350 348
350 352
350 356
350 366
350 370
350 384
350 386
350 388
351 311
351 319
351 323
351 325
351 329
351 348
351 352
351 353
351 358
351 370
351 373
351 385
352 311
352 319
352 323
352 325
352 348
352 350
352 351
352 353
352 366
352 370
352 373
352 385
352 388
353 308
353 323
353 325
353 329
353 351
353 352
353 358
353 370
353 373
353 385
353 389
354 312
354 318
354 327
354 340
354 343
354 347
354 361
354 379
354 380
354 383
354 390
355 315
355 322
355 333
355 336
355 342
355 345
355 359
355 365
355 372
355 374
355 382
355 394
356 316
356 324
356 344
356 348
356 350
356 362
356 366
356 384
356 386
357 328
357 330
357 331
357 339
357 341
357 364
357 377
357 378
357 399
358 321
358 325
358 329
358 351
358 353
358 365
358 373
358 387
358 389
359 321
359 322
359 333
359 342
359 355
359 365
359 382
359 387
359 392
359 405
360 326
360 337
360 343
360 361
360 375
360 380
360 403
361 337
361 340
361 343
361 354
361 360
361 375
361 379
361 380
361 390
362 327
362 344
362 347
362 356
362 366
362 379
362 383
362 384
362 391
362 401
363 320
363 331
363 332
363 341
363 349
363 367
363 369
363 377
363 393
363 404
364 328
364 330
364 339
364 357
364 368
364 374
364 377
364 378
364 396
364 397
364 399
365 321
365 322
365 342
365 355
365 358
365 359
365 382
365 387
365 392
366 324
366 348
366 350
366 352
366 356
366 362
366 370
366 384
366 386
366 388
366 410
367 332
367 334
367 341
367 349
367 363
367 369
367 381
367 393
367 412
368 336
368 339
368 345
368 364
368 372
368 374
368 378
368 394
368 396
368 397
369 332
369 334
369 349
369 363
369 367
369 371
369 381
369 393
369 395
370 323
370 348
370 350
370 351
370 352
370 353
370 366
370 373
370 385
370 386
370 388
370 406
370 415
371 335
371 338
371 346
371 369
371 376
371 381
371 395
371 402
372 333
372 336
372 345
372 355
372 368
372 374
372 382
372 394
372 400
373 325
373 329
373 351
373 352
373 353
373 358
373 370
373 385
373 387
373 389
373 406
373 407
373 409
374 336
374 339
374 345
374 355
374 364
374 368
374 372
374 382
374 394
374 397
374 400
374 417
375 326
375 337
375 343
375 360
375 361
375 380
375 403
375 411
376 335
376 338
376 346
376 371
376 395
376 402
376 416
377 330
377 331
377 341
377 357
377 363
377 364
377 378
377 398
377 399
377 404
378 328
378 330
378 357
378 364
378 368
378 377
378 396
378 397
378 398
378 399
379 340
379 347
379 354
379 361
379 362
379 380
379 383
379 390
379 401
379 408
379 414
380 337
380 343
380 354
380 360
380 361
380 375
380 379
380 390
380 403
380 408
380 411
380 414
381 334
381 338
381 349
381 367
381 369
381 371
381 395
382 333
382 342
382 345
382 355
382 359
382 365
382 372
382 374
382 392
382 394
382 400
382 405
382 418
383 340
383 344
383 347
383 354
383 362
383 379
383 390
383 391
383 401
383 408
383 420
384 344
384 350
384 356
384 362
384 366
384 386
384 388
384 391
384 410
384 413
384 420
385 351
385 352
385 353
385 370
385 373
385 388
385 389
385 406
385 407
385 409
385 415
386 348
386 350
386 356
386 366
386 370
386 384
386 388
386 410
386 413
386 415
387 358
387 359
387 365
387 373
387 389
387 392
387 407
387 409
388 348
388 350
388 352
388 366
388 370
388 384
388 385
388 386
388 406
388 410
388 413
388 415
389 353
389 358
389 373
389 385
389 387
389 392
389 406
389 407
389 409
390 347
390 354
390 361
390 379
390 380
390 383
390 391
390 401
390 408
390 411
390 414
391 362
391 383
391 384
391 390
391 401
391 408
391 410
391 420
392 359
392 365
392 382
392 387
392 389
392 405
392 409
393 363
393 367
393 369
393 404
393 412
393 419
394 355
394 368
394 372
394 374
394 382
394 397
394 400
394 405
394 417
394 418
395 369
395 371
395 376
395 381
395 402
395 416
396 364
396 368
396 378
396 397
396 398
396 399
396 417
397 364
397 368
397 374
397 378
397 394
397 396
397 399
397 417
398 377
398 378
398 396
398 399
398 404
398 419
399 357
399 364
399 377
399 378
399 396
399 397
399 398
399 404
400 372
400 374
400 382
400 394
400 405
400 417
400 418
401 362
401 379
401 383
401 390
401 391
401 408
401 414
401 420
402 371
402 376
402 395
402 416
403 360
403 375
403 380
403 411
404 363
404 377
404 393
404 398
404 399
404 412
404 419
405 359
405 382
405 392
405 394
405 400
405 418
406 370
406 373
406 385
406 388
406 389
406 407
406 409
406 415
407 373
407 385
407 387
407 389
407 406
407 409
407 415
408 379
408 380
408 383
408 390
408 391
408 401
408 411
408 414
408 420
409 373
409 385
409 387
409 389
409 392
409 406
409 407
410 366
410 384
410 386
410 388
410 391
410 413
410 415
410 420
411 375
411 380
411 390
411 403
411 408
411 414
412 367
412 393
412 404
412 419
413 384
413 386
413 388
413 410
413 415
414 379
414 380
414 390
414 401
414 408
414 411
415 370
415 385
415 386
415 388
415 406
415 407
415 410
415 413
416 376
416 395
416 402
417 374
417 394
417 396
417 397
417 400
417 418
418 382
418 394
418 400
418 405
418 417
419 393
419 398
419 404
419 412
420 383
420 384
420 391
420 401
420 408
420 410
