1 8
1 9
1 17
1 24
1 26
1 35
2 6
2 7
2 18
2 33
3 5
3 10
3 12
3 13
3 21
3 28
4 10
4 15
4 20
4 30
4 36
4 41
5 3
5 12
5 16
5 21
5 31
5 40
6 2
6 7
6 18
6 25
6 33
6 34
7 2
7 6
7 11
7 18
7 23
7 25
7 34
7 39
7 46
8 1
8 9
8 17
8 24
8 26
8 27
8 32
8 35
8 42
9 1
9 8
9 26
9 27
9 32
9 42
10 3
10 4
10 12
10 13
10 20
10 28
10 36
10 41
10 48
11 7
11 14
11 19
11 23
11 25
11 38
11 39
11 44
12 3
12 5
12 10
12 13
12 21
12 28
12 31
12 45
13 3
13 10
13 12
13 20
13 28
13 45
14 11
14 19
14 23
14 38
14 44
15 4
15 22
15 29
15 30
15 36
15 37
15 49
16 5
16 21
16 27
16 31
16 40
16 43
17 1
17 8
17 24
17 26
17 35
17 52
17 53
18 2
18 6
18 7
18 22
18 25
18 33
18 34
18 56
19 11
19 14
19 23
19 38
19 39
19 44
19 54
20 4
20 10
20 13
20 28
20 30
20 36
20 41
20 48
20 57
21 3
21 5
21 12
21 16
21 31
21 40
21 43
21 58
22 15
22 18
22 29
22 30
22 37
22 49
22 51
23 7
23 11
23 14
23 19
23 25
23 34
23 38
23 39
23 44
23 46
23 50
23 54
24 1
24 8
24 17
24 26
24 32
24 35
24 42
24 53
24 55
24 66
25 6
25 7
25 11
25 18
25 23
25 33
25 34
25 39
25 46
25 50
25 63
26 1
26 8
26 9
26 17
26 24
26 27
26 32
26 35
26 42
26 47
26 53
26 55
27 8
27 9
27 16
27 26
27 32
27 42
27 43
27 47
27 62
28 3
28 10
28 12
28 13
28 20
28 41
28 45
28 48
28 60
29 15
29 22
29 30
29 36
29 37
29 49
29 51
29 61
29 65
30 4
30 15
30 20
30 22
30 29
30 36
30 37
30 41
30 49
30 57
30 61
31 5
31 12
31 16
31 21
31 40
31 43
31 45
31 58
31 59
32 8
32 9
32 24
32 26
32 27
32 42
32 47
32 55
32 62
32 69
33 2
33 6
33 18
33 25
33 34
33 37
33 46
33 51
33 56
33 71
34 6
34 7
34 18
34 23
34 25
34 33
34 39
34 46
34 50
34 56
34 63
34 71
35 1
35 8
35 17
35 24
35 26
35 42
35 52
35 53
35 55
35 66
36 4
36 10
36 15
36 20
36 29
36 30
36 41
36 48
36 49
36 57
36 61
36 67
36 72
37 15
37 22
37 29
37 30
37 33
37 49
37 51
37 65
38 11
38 14
38 19
38 23
38 44
38 54
38 64
38 70
39 7
39 11
39 19
39 23
39 25
39 34
39 44
39 46
39 50
39 54
39 63
40 5
40 16
40 21
40 31
40 43
40 58
40 59
40 68
40 73
41 4
41 10
41 20
41 28
41 30
41 36
41 48
41 57
41 60
41 61
41 67
41 72
42 8
42 9
42 24
42 26
42 27
42 32
42 35
42 47
42 53
42 55
42 62
42 66
42 69
43 16
43 21
43 27
43 31
43 40
43 47
43 62
43 68
43 73
44 11
44 14
44 19
44 23
44 38
44 39
44 50
44 54
44 64
44 70
44 74
45 12
45 13
45 28
45 31
45 48
45 58
45 59
45 60
46 7
46 23
46 25
46 33
46 34
46 39
46 50
46 54
46 56
46 63
46 71
46 77
46 84
47 26
47 27
47 32
47 42
47 43
47 55
47 62
47 69
47 75
47 76
47 85
48 10
48 20
48 28
48 36
48 41
48 45
48 57
48 60
48 61
48 67
48 72
48 81
48 88
49 15
49 22
49 29
49 30
49 36
49 37
49 51
49 57
49 61
49 65
49 72
49 78
49 82
50 23
50 25
50 34
50 39
50 44
50 46
50 54
50 56
50 63
50 71
50 74
50 77
50 84
51 22
51 29
51 33
51 37
51 49
51 56
51 65
51 78
51 82
51 83
52 17
52 35
52 53
52 66
52 80
52 86
53 17
53 24
53 26
53 35
53 42
53 52
53 55
53 66
53 69
53 80
53 87
54 19
54 23
54 38
54 39
54 44
54 46
54 50
54 63
54 64
54 70
54 74
54 79
54 91
55 24
55 26
55 32
55 35
55 42
55 47
55 53
55 62
55 66
55 69
55 75
55 85
55 87
56 18
56 33
56 34
56 46
56 50
56 51
56 63
56 71
56 77
56 83
56 89
57 20
57 30
57 36
57 41
57 48
57 49
57 61
57 67
57 72
57 88
57 92
57 93
58 21
58 31
58 40
58 45
58 59
58 60
58 68
58 73
58 90
59 31
59 40
59 45
59 58
59 60
59 73
59 81
59 90
60 28
60 41
60 45
60 48
60 58
60 59
60 67
60 81
60 88
60 96
61 29
61 30
61 36
61 41
61 48
61 49
61 57
61 65
61 67
61 72
61 78
61 88
61 92
61 93
62 27
62 32
62 42
62 43
62 47
62 55
62 68
62 69
62 75
62 76
62 85
62 97
63 25
63 34
63 39
63 46
63 50
63 54
63 56
63 71
63 74
63 77
63 84
63 89
63 94
64 38
64 44
64 54
64 70
64 74
64 79
64 91
65 29
65 37
65 49
65 51
65 61
65 78
65 82
65 83
65 95
66 24
66 35
66 42
66 52
66 53
66 55
66 69
66 80
66 85
66 86
66 87
67 36
67 41
67 48
67 57
67 60
67 61
67 72
67 81
67 88
67 92
67 93
67 96
68 40
68 43
68 58
68 62
68 73
68 75
68 76
68 90
69 32
69 42
69 47
69 53
69 55
69 62
69 66
69 75
69 76
69 80
69 85
69 87
69 97
69 100
70 38
70 44
70 54
70 64
70 74
70 79
70 91
70 94
70 99
71 33
71 34
71 46
71 50
71 56
71 63
71 77
71 83
71 84
71 89
71 101
72 36
72 41
72 48
72 49
72 57
72 61
72 67
72 78
72 88
72 92
72 93
72 106
73 40
73 43
73 58
73 59
73 68
73 76
73 90
74 44
74 50
74 54
74 63
74 64
74 70
74 79
74 84
74 91
74 94
74 99
75 47
75 55
75 62
75 68
75 69
75 76
75 85
75 87
75 97
75 100
76 47
76 62
76 68
76 69
76 73
76 75
76 85
76 97
76 100
77 46
77 50
77 56
77 63
77 71
77 84
77 89
77 94
77 101
77 104
78 49
78 51
78 61
78 65
78 72
78 82
78 83
78 93
78 95
78 102
78 105
79 54
79 64
79 70
79 74
79 91
79 99
80 52
80 53
80 66
80 69
80 85
80 86
80 87
80 108
81 48
81 59
81 60
81 67
81 88
81 92
81 96
81 98
81 103
82 49
82 51
82 65
82 78
82 83
82 95
82 102
82 105
83 51
83 56
83 65
83 71
83 78
83 82
83 89
83 95
83 102
84 46
84 50
84 63
84 71
84 74
84 77
84 89
84 94
84 101
84 104
85 47
85 55
85 62
85 66
85 69
85 75
85 76
85 80
85 87
85 97
85 100
85 108
85 110
86 52
86 66
86 80
86 87
87 53
87 55
87 66
87 69
87 75
87 80
87 85
87 86
87 100
87 108
88 48
88 57
88 60
88 61
88 67
88 72
88 81
88 92
88 93
88 96
88 103
88 106
88 107
88 112
89 56
89 63
89 71
89 77
89 83
89 84
89 94
89 101
89 104
90 58
90 59
90 68
90 73
90 98
91 54
91 64
91 70
91 74
91 79
91 94
91 99
92 57
92 61
92 67
92 72
92 81
92 88
92 93
92 96
92 106
92 107
93 57
93 61
93 67
93 72
93 78
93 88
93 92
93 95
93 105
93 106
93 107
94 63
94 70
94 74
94 77
94 84
94 89
94 91
94 99
94 101
94 104
94 113
94 114
95 65
95 78
95 82
95 83
95 93
95 102
95 105
95 106
95 111
96 60
96 67
96 81
96 88
96 92
96 98
96 103
96 107
96 112
96 120
97 62
97 69
97 75
97 76
97 85
97 100
97 109
97 110
97 116
98 81
98 90
98 96
98 103
98 122
99 70
99 74
99 79
99 91
99 94
99 113
99 115
99 129
100 69
100 75
100 76
100 85
100 87
100 97
100 108
100 110
100 116
100 121
101 71
101 77
101 84
101 89
101 94
101 104
101 114
101 124
102 78
102 82
102 83
102 95
102 105
102 111
102 123
102 130
103 81
103 88
103 96
103 98
103 107
103 112
103 120
103 122
104 77
104 84
104 89
104 94
104 101
104 113
104 114
104 124
105 78
105 82
105 93
105 95
105 102
105 106
105 111
105 123
105 126
106 72
106 88
106 92
106 93
106 95
106 105
106 107
106 112
106 119
106 125
106 126
107 88
107 92
107 93
107 96
107 103
107 106
107 112
107 119
107 120
107 125
107 135
108 80
108 85
108 87
108 100
108 110
108 116
108 121
108 133
109 97
109 117
109 118
109 134
109 142
110 85
110 97
110 100
110 108
110 116
110 121
110 132
111 95
111 102
111 105
111 123
111 130
112 88
112 96
112 103
112 106
112 107
112 119
112 120
112 125
112 135
112 146
113 94
113 99
113 104
113 114
113 115
113 124
113 129
113 131
113 136
113 137
113 145
113 150
114 94
114 101
114 104
114 113
114 115
114 124
114 131
114 136
114 137
114 150
114 153
115 99
115 113
115 114
115 129
115 131
115 137
115 139
115 145
115 150
116 97
116 100
116 108
116 110
116 121
116 132
116 134
116 141
116 148
116 149
117 109
117 118
117 122
117 128
117 134
117 140
117 142
117 143
117 147
118 109
118 117
118 128
118 134
118 140
118 142
118 147
118 148
119 106
119 107
119 112
119 125
119 126
119 135
119 151
119 156
120 96
120 103
120 107
120 112
120 122
120 125
120 135
120 146
120 152
120 155
121 100
121 108
121 110
121 116
121 132
121 133
121 141
121 149
121 160
122 98
122 103
122 117
122 120
122 128
122 140
122 143
122 147
122 152
122 154
123 102
123 105
123 111
123 126
123 130
123 144
123 151
123 158
124 101
124 104
124 113
124 114
124 130
124 131
124 136
124 137
124 153
124 157
125 106
125 107
125 112
125 119
125 120
125 126
125 135
125 146
125 151
125 155
125 156
126 105
126 106
126 119
126 123
126 125
126 144
126 151
126 156
126 161
127 133
127 138
128 117
128 118
128 122
128 140
128 142
128 143
128 147
128 154
129 99
129 113
129 115
129 131
129 139
129 145
129 150
129 159
129 162
130 102
130 111
130 123
130 124
130 144
130 158
130 163
131 113
131 114
131 115
131 124
131 129
131 136
131 137
131 139
131 145
131 150
131 153
131 157
131 162
131 165
132 110
132 116
132 121
132 133
132 134
132 141
132 148
132 149
132 160
133 108
133 121
133 127
133 132
133 138
133 141
133 160
133 166
134 109
134 116
134 117
134 118
134 132
134 142
134 147
134 148
134 149
135 107
135 112
135 119
135 120
135 125
135 146
135 151
135 155
135 156
135 164
136 113
136 114
136 124
136 131
136 137
136 150
136 153
136 157
136 168
137 113
137 114
137 115
137 124
137 131
137 136
137 145
137 150
137 153
137 157
137 165
137 168
138 127
138 133
138 141
138 170
139 115
139 129
139 131
139 145
139 150
139 159
139 162
139 165
140 117
140 118
140 122
140 128
140 142
140 143
140 147
140 152
140 154
140 167
141 116
141 121
141 132
141 133
141 138
141 149
141 160
141 166
141 173
141 176
142 109
142 117
142 118
142 128
142 134
142 140
142 147
142 148
142 149
142 167
142 172
142 175
142 177
143 117
143 122
143 128
143 140
143 147
143 152
143 154
143 167
144 123
144 126
144 130
144 151
144 158
144 161
144 163
144 169
144 171
145 113
145 115
145 129
145 131
145 137
145 139
145 150
145 153
145 159
145 162
145 165
145 178
146 112
146 120
146 125
146 135
146 152
146 154
146 155
146 164
147 117
147 118
147 122
147 128
147 134
147 140
147 142
147 143
147 154
147 167
148 116
148 118
148 132
148 134
148 142
148 149
148 160
148 172
148 175
148 179
149 116
149 121
149 132
149 134
149 141
149 142
149 148
149 160
149 166
149 172
149 173
149 179
150 113
150 114
150 115
150 129
150 131
150 136
150 137
150 139
150 145
150 153
150 157
150 159
150 162
150 165
150 168
151 119
151 123
151 125
151 126
151 135
151 144
151 156
151 158
151 161
151 169
151 174
152 120
152 122
152 140
152 143
152 146
152 154
152 155
152 164
152 183
153 114
153 124
153 131
153 136
153 137
153 145
153 150
153 157
153 162
153 165
153 168
153 184
153 185
154 122
154 128
154 140
154 143
154 146
154 147
154 152
154 164
154 167
154 183
155 120
155 125
155 135
155 146
155 152
155 156
155 164
155 180
155 192
156 119
156 125
156 126
156 135
156 151
156 155
156 161
156 164
156 174
156 180
157 124
157 131
157 136
157 137
157 150
157 153
157 163
157 165
157 168
157 184
158 123
158 130
158 144
158 151
158 161
158 163
158 169
158 171
158 181
159 129
159 139
159 145
159 150
159 162
159 165
159 178
159 188
159 193
160 121
160 132
160 133
160 141
160 148
160 149
160 166
160 173
160 176
160 179
160 191
161 126
161 144
161 151
161 156
161 158
161 169
161 174
161 180
161 181
161 186
162 129
162 131
162 139
162 145
162 150
162 153
162 159
162 165
162 178
162 185
162 188
162 193
162 196
163 130
163 144
163 157
163 158
163 169
163 171
163 181
163 190
164 135
164 146
164 152
164 154
164 155
164 156
164 180
164 183
164 192
165 131
165 137
165 139
165 145
165 150
165 153
165 157
165 159
165 162
165 168
165 178
165 184
165 185
165 188
165 196
166 133
166 141
166 149
166 160
166 170
166 173
166 176
166 179
166 191
167 140
167 142
167 143
167 147
167 154
167 172
167 175
167 177
167 187
167 195
168 136
168 137
168 150
168 153
168 157
168 165
168 184
168 185
168 197
169 144
169 151
169 158
169 161
169 163
169 171
169 174
169 181
169 186
169 190
169 200
170 138
170 166
170 176
170 182
170 194
171 144
171 158
171 163
171 169
171 181
171 186
171 190
171 200
172 142
172 148
172 149
172 167
172 173
172 175
172 177
172 179
172 189
172 191
172 195
172 199
172 204
173 141
173 149
173 160
173 166
173 172
173 176
173 179
173 189
173 191
173 204
173 205
173 206
174 151
174 156
174 161
174 169
174 180
174 181
174 186
174 198
174 202
174 203
174 211
175 142
175 148
175 167
175 172
175 177
175 179
175 189
175 195
175 199
175 204
176 141
176 160
176 166
176 170
176 173
176 179
176 189
176 191
176 194
176 205
176 206
177 142
177 167
177 172
177 175
177 187
177 189
177 195
177 199
178 145
178 159
178 162
178 165
178 185
178 188
178 193
178 196
178 208
178 209
179 148
179 149
179 160
179 166
179 172
179 173
179 175
179 176
179 189
179 191
179 199
179 204
179 205
179 206
180 155
180 156
180 161
180 164
180 174
180 186
180 192
180 198
180 202
180 203
180 211
181 158
181 161
181 163
181 169
181 171
181 174
181 186
181 190
181 200
181 203
181 212
181 213
182 170
182 194
182 210
182 214
183 152
183 154
183 164
183 187
183 201
183 207
183 219
184 153
184 157
184 165
184 168
184 185
184 190
184 196
184 197
184 217
185 153
185 162
185 165
185 168
185 178
185 184
185 188
185 193
185 196
185 197
185 209
185 217
185 221
186 161
186 169
186 171
186 174
186 180
186 181
186 200
186 202
186 203
186 211
186 212
187 167
187 177
187 183
187 195
187 201
187 215
187 220
188 159
188 162
188 165
188 178
188 185
188 193
188 196
188 197
188 208
188 209
188 221
189 172
189 173
189 175
189 176
189 177
189 179
189 191
189 195
189 199
189 204
189 205
189 206
189 216
189 224
190 163
190 169
190 171
190 181
190 184
190 200
190 212
190 213
190 227
191 160
191 166
191 172
191 173
191 176
191 179
191 189
191 204
191 205
191 206
191 218
192 155
192 164
192 180
192 198
192 202
192 207
192 211
193 159
193 162
193 178
193 185
193 188
193 196
193 208
193 209
193 228
194 170
194 176
194 182
194 206
194 210
194 214
194 229
195 167
195 172
195 175
195 177
195 187
195 189
195 199
195 201
195 204
195 215
195 216
195 220
196 162
196 165
196 178
196 184
196 185
196 188
196 193
196 197
196 208
196 209
196 217
196 221
196 228
196 233
197 168
197 184
197 185
197 188
197 196
197 217
197 221
197 231
198 174
198 180
198 192
198 202
198 207
198 211
198 232
199 172
199 175
199 177
199 179
199 189
199 195
199 204
199 205
199 216
199 220
199 224
199 236
200 169
200 171
200 181
200 186
200 190
200 203
200 212
200 213
200 225
200 226
200 227
200 234
201 183
201 187
201 195
201 207
201 215
201 219
201 220
202 174
202 180
202 186
202 192
202 198
202 203
202 211
202 222
202 226
202 230
203 174
203 180
203 181
203 186
203 200
203 202
203 211
203 212
203 222
203 225
203 226
203 230
204 172
204 173
204 175
204 179
204 189
204 191
204 195
204 199
204 205
204 206
204 216
204 218
204 224
205 173
205 176
205 179
205 189
205 191
205 199
205 204
205 206
205 218
205 224
205 235
206 173
206 176
206 179
206 189
206 191
206 194
206 204
206 205
206 214
206 218
206 229
206 235
207 183
207 192
207 198
207 201
207 219
207 223
208 178
208 188
208 193
208 196
208 209
208 228
209 178
209 185
209 188
209 193
209 196
209 208
209 221
209 228
209 233
209 242
210 182
210 194
210 214
210 229
211 174
211 180
211 186
211 192
211 198
211 202
211 203
211 222
211 226
211 230
211 232
211 241
212 181
212 186
212 190
212 200
212 203
212 213
212 222
212 225
212 226
212 227
212 234
213 181
213 190
213 200
213 212
213 225
213 227
213 234
213 238
213 248
214 182
214 194
214 206
214 210
214 218
214 229
214 244
214 247
215 187
215 195
215 201
215 216
215 219
215 220
215 236
215 237
216 189
216 195
216 199
216 204
216 215
216 220
216 224
216 236
216 237
216 245
217 184
217 185
217 196
217 197
217 221
217 231
217 233
217 243
218 191
218 204
218 205
218 206
218 214
218 224
218 229
218 235
218 240
218 251
219 183
219 201
219 207
219 215
219 223
220 187
220 195
220 199
220 201
220 215
220 216
220 224
220 236
220 237
220 249
221 185
221 188
221 196
221 197
221 209
221 217
221 228
221 231
221 233
221 242
221 243
221 250
222 202
222 203
222 211
222 212
222 225
222 226
222 230
222 232
222 239
222 241
222 246
222 255
223 207
223 219
223 232
223 252
224 189
224 199
224 204
224 205
224 216
224 218
224 220
224 235
224 236
224 240
224 245
224 251
224 256
225 200
225 203
225 212
225 213
225 222
225 226
225 227
225 234
225 238
225 239
225 248
226 200
226 202
226 203
226 211
226 212
226 222
226 225
226 230
226 234
226 239
226 241
226 248
227 190
227 200
227 212
227 213
227 225
227 234
227 238
227 248
227 257
228 193
228 196
228 208
228 209
228 221
228 233
228 242
228 250
228 254
229 194
229 206
229 210
229 214
229 218
229 235
229 244
229 247
229 261
230 202
230 203
230 211
230 222
230 226
230 232
230 239
230 241
230 246
230 253
230 255
231 197
231 217
231 221
231 233
231 243
231 250
231 259
232 198
232 211
232 222
232 223
232 230
232 241
232 246
232 252
232 253
233 196
233 209
233 217
233 221
233 228
233 231
233 242
233 243
233 250
233 259
234 200
234 212
234 213
234 225
234 226
234 227
234 238
234 248
234 257
234 262
235 205
235 206
235 218
235 224
235 229
235 240
235 244
235 245
235 251
235 258
236 199
236 215
236 216
236 220
236 224
236 237
236 245
236 249
236 256
236 264
237 215
237 216
237 220
237 236
237 249
237 264
238 213
238 225
238 227
238 234
238 248
238 257
238 260
238 262
238 267
239 222
239 225
239 226
239 230
239 241
239 246
239 248
239 255
239 263
239 270
240 218
240 224
240 235
240 245
240 251
240 256
240 258
241 211
241 222
241 226
241 230
241 232
241 239
241 246
241 253
241 255
241 263
242 209
242 221
242 228
242 233
242 243
242 250
242 254
242 265
242 266
243 217
243 221
243 231
243 233
243 242
243 250
243 259
243 265
243 272
244 214
244 229
244 235
244 247
244 251
244 261
244 275
245 216
245 224
245 235
245 236
245 240
245 249
245 251
245 256
245 258
245 264
245 271
246 222
246 230
246 232
246 239
246 241
246 252
246 253
246 255
246 268
247 214
247 229
247 244
247 261
247 277
248 213
248 225
248 226
248 227
248 234
248 238
248 239
248 257
248 260
248 262
248 267
248 270
249 220
249 236
249 237
249 245
249 256
249 264
249 269
249 271
249 273
249 282
250 221
250 228
250 231
250 233
250 242
250 243
250 254
250 259
250 265
250 266
250 276
251 218
251 224
251 235
251 240
251 244
251 245
251 256
251 258
252 223
252 232
252 246
252 253
252 268
252 280
252 284
253 230
253 232
253 241
253 246
253 252
253 255
253 268
253 280
253 281
254 228
254 242
254 250
254 265
254 266
255 222
255 230
255 239
255 241
255 246
255 253
255 263
255 268
255 270
255 274
255 279
255 281
256 224
256 236
256 240
256 245
256 249
256 251
256 258
256 264
256 271
256 285
256 288
257 227
257 234
257 238
257 248
257 260
257 262
257 267
257 278
257 283
257 286
258 235
258 240
258 245
258 251
258 256
258 271
258 285
258 292
259 231
259 233
259 243
259 250
259 260
259 265
259 272
259 276
259 278
260 238
260 248
260 257
260 259
260 262
260 267
260 272
260 278
260 283
261 229
261 244
261 247
261 275
261 277
262 234
262 238
262 248
262 257
262 260
262 267
262 270
262 278
262 283
262 286
263 239
263 241
263 255
263 270
263 274
263 279
264 236
264 237
264 245
264 249
264 256
264 271
264 273
264 282
264 288
265 242
265 243
265 250
265 254
265 259
265 266
265 272
265 276
265 287
265 290
266 242
266 250
266 254
266 265
266 287
266 290
267 238
267 248
267 257
267 260
267 262
267 272
267 278
267 283
267 286
268 246
268 252
268 253
268 255
268 279
268 280
268 281
268 284
268 291
269 249
269 273
269 282
269 289
270 239
270 248
270 255
270 262
270 263
270 274
270 286
271 245
271 249
271 256
271 258
271 264
271 273
271 282
271 285
271 288
271 292
272 243
272 259
272 260
272 265
272 267
272 276
272 278
272 283
273 249
273 264
273 269
273 271
273 282
273 288
274 255
274 263
274 270
274 279
274 286
275 244
275 261
275 277
276 250
276 259
276 265
276 272
276 287
277 247
277 261
277 275
278 257
278 259
278 260
278 262
278 267
278 272
278 283
278 286
279 255
279 263
279 268
279 274
279 280
279 281
279 291
280 252
280 253
280 268
280 279
280 281
280 284
280 289
280 291
281 253
281 255
281 268
281 279
281 280
281 284
281 291
282 249
282 264
282 269
282 271
282 273
282 288
282 292
283 257
283 260
283 262
283 267
283 272
283 278
283 286
284 252
284 268
284 280
284 281
284 289
284 291
285 256
285 258
285 271
285 288
285 292
286 257
286 262
286 267
286 270
286 274
286 278
286 283
287 265
287 266
287 276
287 290
288 256
288 264
288 271
288 273
288 282
288 285
288 292
289 269
289 280
289 284
289 291
290 265
290 266
290 287
291 268
291 279
291 280
291 281
291 284
291 289
292 258
292 271
292 282
292 285
292 288
