1 2
1 5
1 12
1 13
1 15
2 1
2 10
2 12
2 13
2 28
3 4
3 5
3 6
3 20
3 27
4 3
4 9
4 20
4 23
5 1
5 3
5 6
5 12
5 15
5 27
6 3
6 5
6 15
6 27
7 14
7 16
7 33
7 35
8 9
8 11
8 22
8 23
8 30
9 4
9 8
9 20
9 22
9 23
10 2
10 13
10 28
10 40
11 8
11 14
11 22
11 26
11 30
12 1
12 2
12 5
12 13
12 15
12 28
13 1
13 2
13 10
13 12
13 28
13 40
14 7
14 11
14 26
14 30
14 33
15 1
15 5
15 6
15 12
15 27
15 49
16 7
16 19
16 33
16 35
16 37
17 18
17 19
17 25
17 37
17 38
17 46
18 17
18 19
18 21
18 25
18 38
18 47
18 48
19 16
19 17
19 18
19 25
19 37
19 38
19 46
20 3
20 4
20 9
20 23
20 27
20 45
20 57
21 18
21 24
21 38
21 47
21 48
21 53
22 8
22 9
22 11
22 23
22 26
22 30
22 44
23 4
23 8
23 9
23 20
23 22
23 45
23 57
24 21
24 31
24 48
24 53
24 56
25 17
25 18
25 19
25 37
25 38
25 46
25 47
26 11
26 14
26 22
26 30
26 33
26 44
26 51
27 3
27 5
27 6
27 15
27 20
27 45
27 49
27 50
28 2
28 10
28 12
28 13
28 40
28 52
29 32
29 34
29 39
29 42
29 60
30 8
30 11
30 14
30 22
30 26
30 44
30 51
31 24
31 32
31 34
31 53
31 56
32 29
32 31
32 34
32 56
32 60
33 7
33 14
33 16
33 26
33 35
33 51
33 55
33 58
34 29
34 31
34 32
34 42
34 60
35 7
35 16
35 33
35 37
35 55
35 58
35 59
36 43
36 54
36 64
37 16
37 17
37 19
37 25
37 35
37 46
37 58
37 59
38 17
38 18
38 19
38 21
38 25
38 46
38 47
38 48
38 67
38 68
39 29
39 41
39 42
39 63
39 65
40 10
40 13
40 28
40 52
40 75
41 39
41 43
41 65
41 69
42 29
42 34
42 39
42 60
42 63
42 65
43 36
43 41
43 54
43 64
43 69
43 76
44 22
44 26
44 30
44 51
44 61
44 72
44 80
45 20
45 23
45 27
45 50
45 57
45 62
45 79
46 17
46 19
46 25
46 37
46 38
46 47
46 59
46 68
46 84
47 18
47 21
47 25
47 38
47 46
47 48
47 67
47 68
47 82
47 83
48 18
48 21
48 24
48 38
48 47
48 53
48 67
48 73
48 82
49 15
49 27
49 50
49 52
49 66
49 85
50 27
50 45
50 49
50 66
50 79
50 85
51 26
51 30
51 33
51 44
51 55
51 71
51 72
52 28
52 40
52 49
52 75
52 77
52 87
53 21
53 24
53 31
53 48
53 56
53 67
53 73
53 82
54 36
54 43
54 64
54 69
54 76
55 33
55 35
55 51
55 58
55 71
55 86
56 24
56 31
56 32
56 53
56 70
56 73
56 81
57 20
57 23
57 45
57 61
57 62
57 78
57 93
58 33
58 35
58 37
58 55
58 59
58 74
58 86
59 35
59 37
59 46
59 58
59 68
59 74
59 84
59 86
59 95
60 29
60 32
60 34
60 42
60 63
60 70
60 81
60 90
60 91
61 44
61 57
61 72
61 78
61 80
61 98
62 45
62 57
62 78
62 79
62 89
62 93
63 39
63 42
63 60
63 65
63 88
63 91
64 36
64 43
64 54
64 76
64 92
65 39
65 41
65 42
65 63
65 69
65 88
66 49
66 50
66 79
66 85
66 87
66 96
67 38
67 47
67 48
67 53
67 68
67 73
67 82
67 83
67 94
67 99
68 38
68 46
68 47
68 59
68 67
68 83
68 84
68 102
69 41
69 43
69 54
69 65
69 76
70 56
70 60
70 81
70 90
70 91
70 97
71 51
71 55
71 72
71 80
71 86
72 44
72 51
72 61
72 71
72 80
72 100
72 103
73 48
73 53
73 56
73 67
73 82
73 97
73 99
73 101
74 58
74 59
74 84
74 86
74 95
74 104
75 40
75 52
75 77
75 87
75 105
76 43
76 54
76 64
76 69
76 92
76 112
77 52
77 75
77 87
77 105
78 57
78 61
78 62
78 80
78 93
78 98
78 100
78 117
79 45
79 50
79 62
79 66
79 85
79 89
79 93
79 96
80 44
80 61
80 71
80 72
80 78
80 98
80 100
80 103
81 56
81 60
81 70
81 90
81 97
81 101
81 111
82 47
82 48
82 53
82 67
82 73
82 83
82 94
82 99
82 101
82 113
83 47
83 67
83 68
83 82
83 84
83 94
83 102
84 46
84 59
84 68
84 74
84 83
84 95
84 102
84 118
85 49
85 50
85 66
85 79
85 87
85 96
85 106
86 55
86 58
86 59
86 71
86 74
86 95
86 104
86 107
86 109
87 52
87 66
87 75
87 77
87 85
87 105
87 106
87 116
88 63
88 65
88 91
88 108
88 114
88 115
89 62
89 79
89 93
89 96
89 119
89 121
90 60
90 70
90 81
90 91
90 97
90 111
91 60
91 63
91 70
91 88
91 90
91 111
91 114
92 64
92 76
92 112
93 57
93 62
93 78
93 79
93 89
93 98
93 117
93 121
94 67
94 82
94 83
94 99
94 102
94 113
95 59
95 74
95 84
95 86
95 102
95 104
95 118
96 66
96 79
96 85
96 89
96 106
96 119
97 70
97 73
97 81
97 90
97 99
97 101
97 111
97 124
97 125
98 61
98 78
98 80
98 93
98 100
98 103
98 117
99 67
99 73
99 82
99 94
99 97
99 101
99 113
99 123
100 72
100 78
100 80
100 98
100 103
100 117
100 126
101 73
101 81
101 82
101 97
101 99
101 113
101 123
101 125
102 68
102 83
102 84
102 94
102 95
102 118
102 120
103 72
103 80
103 98
103 100
103 107
103 126
103 132
104 74
104 86
104 95
104 107
104 109
104 139
105 75
105 77
105 87
105 116
105 129
105 133
106 85
106 87
106 96
106 116
106 119
106 122
106 137
106 138
107 86
107 103
107 104
107 109
107 135
108 88
108 110
108 115
108 127
108 136
109 86
109 104
109 107
109 135
109 139
110 108
110 112
110 115
110 127
110 134
110 142
111 81
111 90
111 91
111 97
111 124
111 130
111 131
112 76
112 92
112 110
112 134
113 82
113 94
113 99
113 101
113 123
113 145
114 88
114 91
114 115
114 130
114 131
114 136
115 88
115 108
115 110
115 114
115 127
115 136
115 142
116 87
116 105
116 106
116 122
116 129
116 133
116 137
116 150
117 78
117 93
117 98
117 100
117 121
117 126
117 128
118 84
118 95
118 102
118 120
118 140
118 143
118 149
119 89
119 96
119 106
119 121
119 122
119 137
119 138
119 144
120 102
120 118
120 143
121 89
121 93
121 117
121 119
121 128
121 141
121 144
122 106
122 116
122 119
122 133
122 137
122 138
122 154
122 155
123 99
123 101
123 113
123 124
123 125
123 151
123 157
124 97
124 111
124 123
124 125
124 131
124 148
124 161
125 97
125 101
125 123
125 124
125 148
125 161
126 100
126 103
126 117
126 128
126 132
126 152
126 156
127 108
127 110
127 115
127 134
127 136
127 142
127 160
127 167
128 117
128 121
128 126
128 141
128 152
128 162
129 105
129 116
129 133
129 146
129 150
130 111
130 114
130 131
130 136
130 165
131 111
131 114
131 124
131 130
131 148
131 165
131 168
132 103
132 126
132 135
132 147
132 152
132 156
132 163
133 105
133 116
133 122
133 129
133 137
133 146
133 150
133 154
134 110
134 112
134 127
134 142
134 167
135 107
135 109
135 132
135 139
135 147
135 153
135 163
136 108
136 114
136 115
136 127
136 130
136 142
136 160
136 169
137 106
137 116
137 119
137 122
137 133
137 138
137 150
137 154
137 155
137 158
138 106
138 119
138 122
138 137
138 144
138 154
138 155
138 158
139 104
139 109
139 135
139 140
139 149
139 153
140 118
140 139
140 149
140 153
140 159
141 121
141 128
141 144
141 158
141 162
141 164
142 110
142 115
142 127
142 134
142 136
142 160
142 167
142 170
142 173
143 118
143 120
143 145
143 149
143 159
143 166
143 174
144 119
144 121
144 138
144 141
144 155
144 158
144 164
145 113
145 143
145 151
145 157
145 166
146 129
146 133
146 150
147 132
147 135
147 153
147 156
147 163
147 171
147 178
148 124
148 125
148 131
148 161
148 165
148 168
149 118
149 139
149 140
149 143
149 159
149 174
150 116
150 129
150 133
150 137
150 146
150 154
150 176
150 180
151 123
151 145
151 157
151 161
151 166
151 186
152 126
152 128
152 132
152 156
152 162
152 172
153 135
153 139
153 140
153 147
153 163
153 171
153 175
154 122
154 133
154 137
154 138
154 150
154 155
154 158
154 176
154 180
155 122
155 137
155 138
155 144
155 154
155 158
155 180
156 126
156 132
156 147
156 152
156 163
156 172
156 178
156 191
157 123
157 145
157 151
157 161
157 166
157 182
157 186
158 137
158 138
158 141
158 144
158 154
158 155
158 164
158 180
158 183
159 140
159 143
159 149
159 166
159 174
159 184
159 188
160 127
160 136
160 142
160 167
160 169
160 170
160 177
160 181
161 124
161 125
161 148
161 151
161 157
161 168
161 182
161 197
162 128
162 141
162 152
162 164
162 172
162 189
162 191
162 194
163 132
163 135
163 147
163 153
163 156
163 171
163 172
163 178
164 141
164 144
164 158
164 162
164 183
164 189
164 190
164 194
165 130
165 131
165 148
165 168
165 169
165 193
166 143
166 145
166 151
166 157
166 159
166 184
166 186
166 187
167 127
167 134
167 142
167 160
167 170
167 173
167 177
167 181
168 131
168 148
168 161
168 165
168 192
168 200
169 136
169 160
169 165
169 170
169 177
169 193
169 196
170 142
170 160
170 167
170 169
170 173
170 177
170 181
170 196
170 209
171 147
171 153
171 163
171 175
171 178
171 199
171 202
171 210
172 152
172 156
172 162
172 163
172 178
172 189
172 191
172 215
173 142
173 167
173 170
173 179
173 181
173 212
174 143
174 149
174 159
174 184
174 188
174 204
174 208
175 153
175 171
175 188
175 199
175 210
175 214
176 150
176 154
176 180
176 185
176 211
177 160
177 167
177 169
177 170
177 181
177 196
177 209
177 220
178 147
178 156
178 163
178 171
178 172
178 202
178 210
179 173
179 201
180 150
180 154
180 155
180 158
180 176
180 185
180 198
180 211
181 160
181 167
181 170
181 173
181 177
181 196
181 209
181 212
182 157
182 161
182 186
182 192
182 195
182 197
182 217
183 158
183 164
183 190
183 194
183 198
183 203
183 213
183 221
183 223
184 159
184 166
184 174
184 187
184 188
184 204
184 208
185 176
185 180
185 211
185 219
186 151
186 157
186 166
186 182
186 187
186 195
186 207
186 217
186 226
187 166
187 184
187 186
187 204
187 207
187 228
188 159
188 174
188 175
188 184
188 199
188 208
188 214
188 227
189 162
189 164
189 172
189 190
189 191
189 194
189 206
189 213
189 229
190 164
190 183
190 189
190 194
190 203
190 213
190 223
191 156
191 162
191 172
191 189
191 206
191 215
192 168
192 182
192 193
192 197
192 200
192 205
192 222
192 233
193 165
193 169
193 192
193 196
193 200
193 216
193 218
193 222
194 162
194 164
194 183
194 189
194 190
194 203
194 206
194 213
194 223
194 229
194 231
195 182
195 186
195 197
195 207
195 217
195 226
196 169
196 170
196 177
196 181
196 193
196 209
196 216
196 218
196 220
197 161
197 182
197 192
197 195
197 205
197 217
197 233
197 241
198 180
198 183
198 203
198 211
198 221
198 223
199 171
199 175
199 188
199 210
199 214
199 225
199 227
200 168
200 192
200 193
200 205
200 216
200 222
200 233
200 237
200 240
201 179
201 212
201 224
202 171
202 178
202 210
202 215
202 225
202 235
202 245
203 183
203 190
203 194
203 198
203 213
203 221
203 223
203 231
204 174
204 184
204 187
204 207
204 208
204 228
204 234
205 192
205 197
205 200
205 217
205 222
205 233
205 237
206 189
206 191
206 194
206 213
206 215
206 229
206 231
206 236
206 244
207 186
207 187
207 195
207 204
207 217
207 226
207 228
207 247
208 174
208 184
208 188
208 204
208 214
208 227
208 232
208 234
208 249
209 170
209 177
209 181
209 196
209 212
209 218
209 220
209 230
209 251
210 171
210 175
210 178
210 199
210 202
210 225
210 227
210 235
210 255
211 176
211 180
211 185
211 198
211 219
211 221
211 243
212 173
212 181
212 201
212 209
212 224
212 230
212 250
212 251
213 183
213 189
213 190
213 194
213 203
213 206
213 223
213 229
213 231
213 253
213 256
214 175
214 188
214 199
214 208
214 225
214 227
214 232
214 234
214 242
214 249
215 172
215 191
215 202
215 206
215 235
215 236
215 239
215 245
216 193
216 196
216 200
216 218
216 220
216 222
216 240
216 248
217 182
217 186
217 195
217 197
217 205
217 207
217 226
217 233
217 241
217 258
218 193
218 196
218 209
218 216
218 220
218 222
218 248
218 252
219 185
219 211
219 238
219 243
220 177
220 196
220 209
220 216
220 218
220 248
220 251
220 252
221 183
221 198
221 203
221 211
221 223
221 246
221 261
222 192
222 193
222 200
222 205
222 216
222 218
222 233
222 237
222 240
222 248
223 183
223 190
223 194
223 198
223 203
223 213
223 221
223 231
223 246
223 253
223 261
224 201
224 212
224 230
224 250
224 264
225 199
225 202
225 210
225 214
225 227
225 235
225 242
225 255
226 186
226 195
226 207
226 217
226 228
226 241
226 247
226 257
226 258
227 188
227 199
227 208
227 210
227 214
227 225
227 232
227 242
227 249
227 255
228 187
228 204
228 207
228 226
228 234
228 247
228 254
228 257
229 189
229 194
229 206
229 213
229 231
229 236
229 244
229 253
229 256
229 267
230 209
230 212
230 224
230 250
230 251
230 262
231 194
231 203
231 206
231 213
231 223
231 229
231 236
231 244
231 253
231 256
231 267
232 208
232 214
232 227
232 234
232 242
232 249
232 254
232 270
233 192
233 197
233 200
233 205
233 217
233 222
233 237
233 240
233 241
233 259
233 263
234 204
234 208
234 214
234 228
234 232
234 242
234 247
234 249
234 254
235 202
235 210
235 215
235 225
235 239
235 245
235 255
235 260
235 276
236 206
236 215
236 229
236 231
236 239
236 244
236 245
236 256
236 267
236 274
237 200
237 205
237 222
237 233
237 240
237 241
237 259
237 263
237 269
237 275
238 219
238 243
239 215
239 235
239 236
239 244
239 245
239 260
239 271
239 273
239 274
240 200
240 216
240 222
240 233
240 237
240 248
240 263
240 266
240 269
241 197
241 217
241 226
241 233
241 237
241 258
241 259
241 263
242 214
242 225
242 227
242 232
242 234
242 249
242 255
242 268
242 270
243 211
243 219
243 238
243 265
244 206
244 229
244 231
244 236
244 239
244 256
244 267
244 271
244 274
245 202
245 215
245 235
245 236
245 239
245 260
245 271
245 273
245 276
246 221
246 223
246 253
246 261
246 265
247 207
247 226
247 228
247 234
247 254
247 257
247 281
247 284
248 216
248 218
248 220
248 222
248 240
248 252
248 266
248 269
248 282
249 208
249 214
249 227
249 232
249 234
249 242
249 254
249 270
250 212
250 224
250 230
250 251
250 262
250 264
250 279
251 209
251 212
251 220
251 230
251 250
251 252
251 262
251 278
251 279
251 280
252 218
252 220
252 248
252 251
252 262
252 278
252 280
252 282
253 213
253 223
253 229
253 231
253 246
253 256
253 261
253 267
253 272
254 228
254 232
254 234
254 247
254 249
254 270
254 281
254 283
255 210
255 225
255 227
255 235
255 242
255 260
255 268
255 276
255 277
256 213
256 229
256 231
256 236
256 244
256 253
256 267
256 272
256 274
257 226
257 228
257 247
257 258
257 281
257 284
257 288
258 217
258 226
258 241
258 257
258 259
258 288
258 289
259 233
259 237
259 241
259 258
259 263
259 275
259 285
259 289
260 235
260 239
260 245
260 255
260 271
260 273
260 276
260 277
261 221
261 223
261 246
261 253
261 272
262 230
262 250
262 251
262 252
262 278
262 279
262 280
263 233
263 237
263 240
263 241
263 259
263 266
263 269
263 275
263 285
263 291
264 224
264 250
264 279
264 286
265 243
265 246
265 293
266 240
266 248
266 263
266 269
266 275
266 282
266 291
266 292
267 229
267 231
267 236
267 244
267 253
267 256
267 272
267 274
268 242
268 255
268 270
268 276
268 277
269 237
269 240
269 248
269 263
269 266
269 275
269 282
269 291
269 292
270 232
270 242
270 249
270 254
270 268
270 283
270 287
271 239
271 244
271 245
271 260
271 273
271 274
271 276
272 253
272 256
272 261
272 267
272 299
273 239
273 245
273 260
273 271
273 274
273 276
273 277
273 304
274 236
274 239
274 244
274 256
274 267
274 271
274 273
274 303
275 237
275 259
275 263
275 266
275 269
275 285
275 291
276 235
276 245
276 255
276 260
276 268
276 271
276 273
276 277
276 304
277 255
277 260
277 268
277 273
277 276
278 251
278 252
278 262
278 279
278 280
278 297
278 298
278 301
279 250
279 251
279 262
279 264
279 278
279 286
279 297
279 301
280 251
280 252
280 262
280 278
280 282
280 294
280 297
280 298
281 247
281 254
281 257
281 283
281 284
281 288
282 248
282 252
282 266
282 269
282 280
282 291
282 292
282 294
282 298
283 254
283 270
283 281
283 284
283 287
284 247
284 257
284 281
284 283
284 288
284 289
284 313
285 259
285 263
285 275
285 289
285 291
286 264
286 279
286 296
286 301
286 306
287 270
287 283
288 257
288 258
288 281
288 284
288 289
288 317
289 258
289 259
289 284
289 285
289 288
290 293
290 305
291 263
291 266
291 269
291 275
291 282
291 285
291 292
291 320
292 266
292 269
292 282
292 291
292 294
292 320
293 265
293 290
293 295
293 305
293 312
294 280
294 282
294 292
294 298
295 293
295 299
295 300
295 312
295 318
296 286
296 301
296 306
296 309
297 278
297 279
297 280
297 298
297 301
297 309
298 278
298 280
298 282
298 294
298 297
299 272
299 295
299 300
299 302
299 312
299 314
299 318
299 327
300 295
300 299
300 312
300 314
300 318
300 327
301 278
301 279
301 286
301 296
301 297
301 306
301 309
301 335
302 299
302 303
302 307
302 314
302 316
302 324
303 274
303 302
303 307
303 316
303 319
303 324
304 273
304 276
304 308
304 311
304 319
304 323
304 325
305 290
305 293
305 326
305 337
305 343
306 286
306 296
306 301
306 309
306 335
306 346
307 302
307 303
307 311
307 316
307 319
307 324
307 350
308 304
308 310
308 321
308 325
308 329
309 296
309 297
309 301
309 306
309 335
309 338
309 346
310 308
310 321
310 322
310 329
311 304
311 307
311 319
311 323
311 325
311 348
311 352
312 293
312 295
312 299
312 300
312 318
312 340
312 343
313 284
313 315
313 317
313 333
313 336
313 345
314 299
314 300
314 302
314 316
314 318
314 327
314 344
314 347
315 313
315 322
315 333
315 342
315 355
316 302
316 303
316 307
316 314
316 324
316 327
316 344
316 356
317 288
317 313
317 328
317 336
317 339
317 345
318 295
318 299
318 300
318 312
318 314
318 327
318 340
318 347
318 354
319 303
319 304
319 307
319 311
319 323
319 324
319 348
319 350
319 352
320 291
320 292
320 330
320 331
320 332
320 341
321 308
321 310
321 322
321 329
321 342
322 310
322 315
322 321
322 342
322 359
323 304
323 311
323 319
323 325
323 348
323 351
323 352
323 353
324 302
324 303
324 307
324 316
324 319
324 348
324 350
324 356
324 366
325 304
325 308
325 311
325 323
325 329
325 351
325 352
325 353
325 358
326 305
326 337
326 343
326 360
327 299
327 300
327 314
327 316
327 318
327 340
327 344
327 347
327 354
327 362
328 317
328 330
328 331
328 339
328 357
328 364
329 308
329 310
329 321
329 325
329 351
329 353
329 358
330 320
330 328
330 331
330 341
330 357
331 320
331 328
331 330
331 341
331 357
332 320
332 334
332 341
332 349
332 363
332 367
333 313
333 315
333 336
333 342
333 345
333 355
333 372
334 332
334 338
334 349
334 367
334 369
335 301
335 306
335 309
335 338
335 346
335 376
336 313
336 317
336 333
336 339
336 345
336 368
336 372
336 374
337 305
337 326
337 343
337 360
337 361
337 375
338 309
338 334
338 335
338 346
338 371
339 317
339 328
339 336
339 345
339 364
339 368
340 312
340 318
340 327
340 343
340 347
340 354
340 361
340 379
341 320
341 330
341 331
341 332
341 349
341 363
342 315
342 321
342 322
342 333
342 355
342 359
342 365
342 382
343 305
343 312
343 326
343 337
343 340
343 354
343 360
343 361
343 375
343 380
344 314
344 316
344 327
344 347
344 356
344 362
345 313
345 317
345 333
345 336
345 339
345 355
345 368
345 372
345 374
346 306
346 309
346 335
346 338
346 371
346 376
347 314
347 318
347 327
347 340
347 344
347 354
347 362
347 379
347 383
348 311
348 319
348 323
348 324
348 350
348 351
348 352
348 356
348 366
348 370
348 388
349 332
349 334
349 341
349 363
349 367
349 369
349 381
350 307
350 319
350 324
350 348
350 352
350 356
350 366
350 370
350 386
351 323
351 325
351 329
351 348
351 352
351 353
351 358
351 370
351 373
351 385
352 311
352 319
352 323
352 325
352 348
352 350
352 351
352 353
352 366
352 370
352 385
353 323
353 325
353 329
353 351
353 352
353 358
353 370
353 373
353 385
353 389
354 318
354 327
354 340
354 343
354 347
354 361
354 379
354 380
354 383
354 390
355 315
355 333
355 342
355 345
355 359
355 365
355 372
355 382
356 316
356 324
356 344
356 348
356 350
356 362
356 366
356 384
357 328
357 330
357 331
357 364
357 377
357 378
358 325
358 329
358 351
358 353
358 365
358 373
358 387
358 389
359 322
359 342
359 355
359 365
359 382
359 392
360 326
360 337
360 343
360 361
360 375
360 380
361 337
361 340
361 343
361 354
361 360
361 375
361 379
361 380
362 327
362 344
362 347
362 356
362 383
362 384
362 391
363 332
363 341
363 349
363 367
363 377
363 393
363 404
364 328
364 339
364 357
364 368
364 378
364 396
364 397
364 399
365 342
365 355
365 358
365 359
365 382
365 387
365 392
366 324
366 348
366 350
366 352
366 356
366 370
366 384
366 386
366 388
367 332
367 334
367 349
367 363
367 369
367 381
367 393
368 336
368 339
368 345
368 364
368 372
368 374
368 396
368 397
369 334
369 349
369 367
369 371
369 381
369 393
369 395
370 348
370 350
370 351
370 352
370 353
370 366
370 373
370 385
370 386
370 388
370 406
371 338
371 346
371 369
371 376
371 381
371 395
372 333
372 336
372 345
372 355
372 368
372 374
372 382
372 394
372 400
373 351
373 353
373 358
373 370
373 385
373 387
373 389
373 406
373 407
373 409
374 336
374 345
374 368
374 372
374 394
374 397
374 400
375 337
375 343
375 360
375 361
375 380
375 403
376 335
376 346
376 371
376 402
377 357
377 363
377 378
377 398
377 399
377 404
378 357
378 364
378 377
378 396
378 398
378 399
379 340
379 347
379 354
379 361
379 380
379 383
379 390
379 401
379 408
379 414
380 343
380 354
380 360
380 361
380 375
380 379
380 390
380 403
380 411
381 349
381 367
381 369
381 371
381 395
382 342
382 355
382 359
382 365
382 372
382 392
382 394
382 400
382 405
383 347
383 354
383 362
383 379
383 390
383 391
383 401
383 408
384 356
384 362
384 366
384 386
384 391
384 410
384 413
385 351
385 352
385 353
385 370
385 373
385 388
385 389
385 406
385 407
385 409
385 415
386 350
386 366
386 370
386 384
386 388
386 410
386 413
386 415
387 358
387 365
387 373
387 389
387 392
387 407
387 409
388 348
388 366
388 370
388 385
388 386
388 406
388 413
388 415
389 353
389 358
389 373
389 385
389 387
389 406
389 407
389 409
390 354
390 379
390 380
390 383
390 391
390 401
390 408
390 414
391 362
391 383
391 384
391 390
391 401
391 410
391 420
392 359
392 365
392 382
392 387
392 405
393 363
393 367
393 369
393 404
393 412
393 419
394 372
394 374
394 382
394 400
394 405
394 417
394 418
395 369
395 371
395 381
395 416
396 364
396 368
396 378
396 397
396 399
396 417
397 364
397 368
397 374
397 396
397 399
397 417
398 377
398 378
398 399
398 404
398 419
399 364
399 377
399 378
399 396
399 397
399 398
400 372
400 374
400 382
400 394
400 405
400 417
400 418
401 379
401 383
401 390
401 391
401 408
401 414
401 420
402 376
402 416
403 375
403 380
403 411
404 363
404 377
404 393
404 398
404 412
404 419
405 382
405 392
405 394
405 400
405 418
406 370
406 373
406 385
406 388
406 389
406 407
406 409
406 415
407 373
407 385
407 387
407 389
407 406
407 409
408 379
408 383
408 390
408 401
408 411
408 414
409 373
409 385
409 387
409 389
409 406
409 407
410 384
410 386
410 391
410 413
410 415
410 420
411 380
411 403
411 408
411 414
412 393
412 404
412 419
413 384
413 386
413 388
413 410
413 415
414 379
414 390
414 401
414 408
414 411
415 385
415 386
415 388
415 406
415 410
415 413
416 395
416 402
417 394
417 396
417 397
417 400
418 394
418 400
418 405
419 393
419 398
419 404
419 412
420 391
420 401
420 410
