1 9
1 11
1 20
1 26
1 32
2 10
2 14
3 5
3 10
3 27
3 31
4 7
4 18
5 3
5 17
5 27
5 31
6 9
6 20
6 25
6 28
6 39
7 4
7 18
7 19
7 22
8 12
8 14
8 33
8 34
9 1
9 6
9 20
9 25
9 28
9 32
10 2
10 3
10 31
10 38
11 1
11 13
11 20
11 21
11 26
11 32
12 8
12 16
12 34
13 11
13 15
13 21
13 26
13 30
14 2
14 8
14 33
14 36
15 13
15 21
15 30
16 12
16 23
16 29
16 41
17 5
17 25
17 27
17 40
18 4
18 7
18 22
19 7
19 22
19 35
19 42
20 1
20 6
20 9
20 11
20 25
20 26
20 28
20 32
20 39
20 47
21 11
21 13
21 15
21 26
21 30
21 45
22 7
22 18
22 19
22 35
22 42
23 16
23 24
23 29
23 37
23 50
24 23
24 37
24 50
24 51
25 6
25 9
25 17
25 20
25 28
25 39
25 44
26 1
26 11
26 13
26 20
26 21
26 32
26 47
26 55
27 3
27 5
27 17
27 31
27 40
27 43
27 54
28 6
28 9
28 20
28 25
28 32
28 39
28 44
28 47
28 60
29 16
29 23
29 34
29 41
29 56
30 13
30 15
30 21
30 45
30 62
31 3
31 5
31 10
31 27
31 38
31 40
31 43
31 61
32 1
32 9
32 11
32 20
32 26
32 28
32 39
32 47
32 55
33 8
33 14
33 36
33 49
33 58
34 8
34 12
34 29
34 41
34 49
34 52
35 19
35 22
35 42
35 46
35 59
36 14
36 33
36 38
36 53
36 58
37 23
37 24
37 50
37 51
37 56
37 67
38 10
38 31
38 36
38 43
38 53
38 58
38 61
39 6
39 20
39 25
39 28
39 32
39 44
39 47
39 60
40 17
40 27
40 31
40 43
40 54
40 63
41 16
41 29
41 34
41 56
42 19
42 22
42 35
42 46
42 59
42 70
43 27
43 31
43 38
43 40
43 53
43 54
43 61
44 25
44 28
44 39
44 60
44 63
45 21
45 30
45 62
45 65
46 35
46 42
46 59
46 78
47 20
47 26
47 28
47 32
47 39
47 55
47 60
47 69
48 57
48 74
49 33
49 34
49 52
49 58
49 66
50 23
50 24
50 37
50 51
50 56
50 67
50 68
50 72
51 24
51 37
51 50
51 57
51 67
51 68
51 81
52 34
52 49
52 66
52 75
53 36
53 38
53 43
53 58
53 61
53 71
53 77
54 27
54 40
54 43
54 61
54 63
54 73
54 79
55 26
55 32
55 47
55 64
55 82
56 29
56 37
56 41
56 50
56 67
56 72
56 75
56 85
57 48
57 51
57 68
57 76
58 33
58 36
58 38
58 49
58 53
58 71
58 77
58 89
59 35
59 42
59 46
59 70
59 78
60 28
60 39
60 44
60 47
60 63
60 69
60 91
61 31
61 38
61 43
61 53
61 54
61 73
61 77
61 80
62 30
62 45
62 64
62 65
62 86
62 92
63 40
63 44
63 54
63 60
63 73
63 79
64 55
64 62
64 82
64 86
65 45
65 62
65 86
65 92
66 49
66 52
66 71
66 88
67 37
67 50
67 51
67 56
67 68
67 72
67 81
67 85
68 50
68 51
68 57
68 67
68 76
68 81
69 47
69 60
69 84
69 91
70 42
70 59
70 78
70 83
70 93
71 53
71 58
71 66
71 77
71 89
71 95
72 50
72 56
72 67
72 75
72 85
72 102
73 54
73 61
73 63
73 79
73 80
73 99
73 104
74 48
74 76
74 83
74 87
74 96
75 52
75 56
75 72
75 85
75 90
76 57
76 68
76 74
76 81
76 87
76 98
77 53
77 58
77 61
77 71
77 80
77 89
77 95
78 46
78 59
78 70
78 93
78 97
79 54
79 63
79 73
79 94
79 99
79 113
80 61
80 73
80 77
80 104
80 106
81 51
81 67
81 68
81 76
81 87
81 98
81 101
82 55
82 64
82 84
82 86
82 100
82 110
83 70
83 74
83 96
83 103
83 109
84 69
84 82
84 91
84 100
84 110
84 114
85 56
85 67
85 72
85 75
85 102
85 105
86 62
86 64
86 65
86 82
86 92
86 117
86 118
87 74
87 76
87 81
87 96
87 98
87 107
88 66
88 89
88 90
88 111
88 115
89 58
89 71
89 77
89 88
89 95
89 115
90 75
90 88
90 111
90 120
91 60
91 69
91 84
91 94
91 100
91 112
91 114
92 62
92 65
92 86
92 117
93 70
93 78
93 97
93 103
93 108
94 79
94 91
94 99
94 112
94 113
94 116
95 71
95 77
95 89
95 106
95 115
95 122
96 74
96 83
96 87
96 103
96 107
96 109
97 78
97 93
97 108
98 76
98 81
98 87
98 101
98 107
98 121
99 73
99 79
99 94
99 104
99 113
99 116
99 125
100 82
100 84
100 91
100 110
100 114
101 81
101 98
101 105
101 121
102 72
102 85
102 105
103 83
103 93
103 96
103 108
103 109
103 130
104 73
104 80
104 99
104 106
104 113
104 119
104 129
105 85
105 101
105 102
106 80
106 95
106 104
106 119
106 129
106 135
107 87
107 96
107 98
107 109
107 121
107 123
107 136
108 93
108 97
108 103
108 127
108 131
109 83
109 96
109 103
109 107
109 123
109 130
110 82
110 84
110 100
110 114
110 118
110 132
111 88
111 90
111 115
111 126
111 128
111 134
112 91
112 94
112 113
112 114
112 116
112 124
113 79
113 94
113 99
113 104
113 112
113 116
113 124
113 125
114 84
114 91
114 100
114 110
114 112
114 124
114 132
114 142
115 88
115 89
115 95
115 111
115 122
115 126
115 128
116 94
116 99
116 112
116 113
116 124
116 125
117 86
117 92
117 118
117 133
117 140
118 86
118 110
118 117
118 133
118 140
119 104
119 106
119 129
120 90
120 134
120 141
121 98
121 101
121 107
121 137
121 138
122 95
122 115
122 128
122 135
122 144
123 107
123 109
123 136
123 157
124 112
124 113
124 114
124 116
124 125
124 142
124 148
124 150
125 99
125 113
125 116
125 124
125 147
125 148
126 111
126 115
126 128
126 134
126 151
127 108
127 130
127 131
127 139
127 146
128 111
128 115
128 122
128 126
128 144
128 151
129 104
129 106
129 119
129 135
129 149
129 153
130 103
130 109
130 127
130 139
130 146
130 156
131 108
131 127
131 139
131 146
131 162
132 110
132 114
132 142
132 143
132 152
132 154
133 117
133 118
133 140
133 143
133 165
134 111
134 120
134 126
134 141
134 159
134 160
135 106
135 122
135 129
135 144
135 149
135 153
135 168
136 107
136 123
136 138
136 157
137 121
137 138
137 145
137 158
137 166
138 121
138 136
138 137
138 155
138 158
139 127
139 130
139 131
139 146
139 156
139 162
140 117
140 118
140 133
140 161
141 120
141 134
141 145
141 160
142 114
142 124
142 132
142 143
142 150
142 152
142 154
142 170
143 132
143 133
143 142
143 152
143 154
143 164
143 165
144 122
144 128
144 135
144 149
144 151
144 168
144 172
145 137
145 141
145 158
145 166
146 127
146 130
146 131
146 139
146 156
146 162
147 125
147 148
147 167
148 124
148 125
148 147
148 150
149 129
149 135
149 144
149 153
149 163
149 168
149 176
150 124
150 142
150 148
150 154
150 170
150 180
151 126
151 128
151 144
151 159
151 171
151 172
152 132
152 142
152 143
152 154
152 164
152 170
153 129
153 135
153 149
153 163
153 167
153 168
153 181
154 132
154 142
154 143
154 150
154 152
154 164
154 170
155 138
155 157
155 158
155 175
156 130
156 139
156 146
156 157
156 169
156 174
157 123
157 136
157 155
157 156
157 169
157 175
157 184
158 137
158 138
158 145
158 155
158 166
158 175
159 134
159 151
159 160
159 171
159 173
160 134
160 141
160 159
160 173
160 177
161 140
161 165
161 186
162 131
162 139
162 146
162 174
162 178
162 183
163 149
163 153
163 167
163 168
163 181
163 182
163 189
164 143
164 152
164 154
164 165
164 170
164 179
164 188
165 133
165 143
165 161
165 164
165 179
165 186
166 137
166 145
166 158
166 185
167 147
167 153
167 163
167 181
167 189
168 135
168 144
168 149
168 153
168 163
168 172
168 176
168 181
168 182
168 194
169 156
169 157
169 174
169 184
170 142
170 150
170 152
170 154
170 164
170 180
170 188
170 195
171 151
171 159
171 172
171 187
171 192
172 144
172 151
172 168
172 171
172 176
172 187
172 192
173 159
173 160
173 177
173 196
174 156
174 162
174 169
174 178
174 183
174 197
175 155
175 157
175 158
175 184
175 190
175 191
176 149
176 168
176 172
176 182
176 192
176 194
177 160
177 173
177 185
177 196
177 201
178 162
178 174
178 183
178 200
178 204
179 164
179 165
179 186
179 188
179 193
179 208
180 150
180 170
180 195
180 203
181 153
181 163
181 167
181 168
181 182
181 189
181 194
181 198
182 163
182 168
182 176
182 181
182 194
182 198
183 162
183 174
183 178
183 197
183 200
183 204
184 157
184 169
184 175
184 190
184 199
184 206
185 166
185 177
185 201
185 205
186 161
186 165
186 179
186 193
186 208
186 211
187 171
187 172
187 192
187 196
187 202
188 164
188 170
188 179
188 193
188 195
188 208
188 212
189 163
189 167
189 181
189 198
189 210
190 175
190 184
190 191
190 206
191 175
191 190
191 205
192 171
192 172
192 176
192 187
192 194
192 202
192 217
193 179
193 186
193 188
193 195
193 208
193 211
193 212
194 168
194 176
194 181
194 182
194 192
194 198
194 214
195 170
195 180
195 188
195 193
195 203
195 212
195 215
196 173
196 177
196 187
196 201
196 202
196 209
197 174
197 183
197 199
197 200
197 204
197 213
198 181
198 182
198 189
198 194
198 210
198 214
198 226
199 184
199 197
199 206
199 213
199 218
200 178
200 183
200 197
200 204
200 213
200 225
200 228
201 177
201 185
201 196
201 205
201 209
201 220
201 222
202 187
202 192
202 196
202 209
203 180
203 195
203 207
203 212
203 215
204 178
204 183
204 197
204 200
204 225
204 228
205 185
205 191
205 201
205 220
205 223
206 184
206 190
206 199
206 218
206 219
206 231
207 203
207 210
207 216
208 179
208 186
208 188
208 193
208 211
208 212
208 221
209 196
209 201
209 202
209 222
209 232
210 189
210 198
210 207
210 216
210 224
210 233
211 186
211 193
211 208
211 221
212 188
212 193
212 195
212 203
212 208
212 215
212 221
212 236
213 197
213 199
213 200
213 218
213 225
213 227
213 230
214 194
214 198
214 217
214 226
214 243
215 195
215 203
215 212
215 234
215 236
216 207
216 210
216 233
216 234
216 247
217 192
217 214
217 226
217 229
217 243
217 248
218 199
218 206
218 213
218 227
218 231
218 244
219 206
219 223
219 231
219 245
220 201
220 205
220 222
220 223
220 240
220 242
220 246
221 208
221 211
221 212
221 239
221 241
221 252
222 201
222 209
222 220
222 240
222 246
222 253
223 205
223 219
223 220
223 240
223 242
223 245
224 210
224 226
224 233
224 235
224 255
225 200
225 204
225 213
225 228
225 230
225 237
225 250
226 198
226 214
226 217
226 224
226 235
226 243
227 213
227 218
227 230
227 244
227 250
228 200
228 204
228 225
228 230
228 237
228 250
228 262
229 217
229 232
229 248
229 261
230 213
230 225
230 227
230 228
230 237
230 244
230 250
231 206
231 218
231 219
231 244
231 249
231 263
232 209
232 229
232 253
233 210
233 216
233 224
233 235
233 247
233 255
233 259
233 260
234 215
234 216
234 236
234 247
234 251
234 257
235 224
235 226
235 233
235 255
235 260
236 212
236 215
236 234
236 251
236 252
236 257
236 267
237 225
237 228
237 230
237 250
237 262
237 266
238 241
238 254
239 221
239 241
239 252
240 220
240 222
240 223
240 242
240 246
240 264
241 221
241 238
241 239
241 252
241 254
242 220
242 223
242 240
242 245
242 256
242 264
242 272
243 214
243 217
243 226
243 248
243 258
243 261
244 218
244 227
244 230
244 231
244 250
244 263
245 219
245 223
245 242
245 256
246 220
246 222
246 240
246 253
246 264
246 275
247 216
247 233
247 234
247 257
247 259
247 260
248 217
248 229
248 243
248 258
248 261
248 269
248 273
249 231
249 263
249 268
249 276
250 225
250 227
250 228
250 230
250 237
250 244
250 262
250 266
251 234
251 236
251 252
251 257
251 267
251 277
252 221
252 236
252 239
252 241
252 251
252 271
253 222
253 232
253 246
253 264
253 265
253 275
253 278
254 238
254 241
255 224
255 233
255 235
255 258
255 260
255 270
255 274
256 242
256 245
256 272
256 280
257 234
257 236
257 247
257 251
257 259
257 267
257 277
257 279
258 243
258 248
258 255
258 261
258 270
258 281
259 233
259 247
259 257
259 260
259 274
259 279
260 233
260 235
260 247
260 255
260 259
260 270
260 274
260 279
260 288
261 229
261 243
261 248
261 258
261 269
261 273
261 281
261 287
262 228
262 237
262 250
262 266
263 231
263 244
263 249
263 268
263 276
263 283
264 240
264 242
264 246
264 253
264 272
264 275
264 285
264 291
265 253
265 269
265 275
265 278
266 237
266 250
266 262
267 236
267 251
267 257
267 277
267 296
268 249
268 263
268 276
268 282
269 248
269 261
269 265
269 273
269 278
269 287
270 255
270 258
270 260
270 274
270 289
270 300
271 252
271 284
271 292
271 298
272 242
272 256
272 264
272 275
272 280
272 285
272 291
273 248
273 261
273 269
273 281
273 287
273 294
273 303
274 255
274 259
274 260
274 270
274 279
274 288
274 289
275 246
275 253
275 264
275 265
275 272
275 278
275 285
275 291
276 249
276 263
276 268
276 282
276 283
276 299
277 251
277 257
277 267
277 279
277 295
277 296
278 253
278 265
278 269
278 275
278 291
278 307
279 257
279 259
279 260
279 274
279 277
279 288
279 295
279 305
280 256
280 272
280 282
280 304
281 258
281 261
281 273
281 287
281 294
281 302
281 303
282 268
282 276
282 280
282 299
282 309
283 263
283 276
283 293
283 299
283 306
284 271
284 290
284 298
284 316
285 264
285 272
285 275
285 291
285 304
285 310
286 290
286 301
287 261
287 269
287 273
287 281
287 294
287 303
287 311
288 260
288 274
288 279
288 289
288 295
288 305
288 322
289 270
289 274
289 288
289 300
289 302
289 305
289 315
290 284
290 286
290 298
290 301
290 316
291 264
291 272
291 275
291 278
291 285
291 307
291 310
292 271
292 296
292 298
292 313
292 318
293 283
293 306
293 308
293 312
294 273
294 281
294 287
294 302
294 303
294 311
294 321
295 277
295 279
295 288
295 296
295 305
295 323
295 325
296 267
296 277
296 292
296 295
296 323
296 325
297 308
297 319
298 271
298 284
298 290
298 292
298 313
298 316
298 318
299 276
299 282
299 283
299 306
299 309
299 326
299 327
300 270
300 289
300 302
300 315
300 320
301 286
301 290
301 316
301 329
301 330
302 281
302 289
302 294
302 300
302 315
302 320
302 321
302 341
303 273
303 281
303 287
303 294
303 311
303 314
303 321
303 333
304 280
304 285
304 310
304 317
304 324
304 332
304 334
305 279
305 288
305 289
305 295
305 315
305 322
305 323
305 335
305 343
306 283
306 293
306 299
306 312
306 327
306 342
307 278
307 291
307 310
307 314
307 336
308 293
308 297
308 312
308 319
308 337
309 282
309 299
309 317
309 326
309 334
309 340
310 285
310 291
310 304
310 307
310 324
310 332
310 336
311 287
311 294
311 303
311 314
311 321
311 333
311 339
312 293
312 306
312 308
312 337
312 345
313 292
313 298
313 316
313 318
313 328
313 331
314 303
314 307
314 311
314 339
315 289
315 300
315 302
315 305
315 320
315 322
315 335
315 341
315 343
316 284
316 290
316 298
316 301
316 313
316 318
316 329
316 338
317 304
317 309
317 324
317 334
317 340
318 292
318 298
318 313
318 316
318 328
318 331
318 338
319 297
319 308
319 337
320 300
320 302
320 315
320 321
320 341
321 294
321 302
321 303
321 311
321 320
321 333
321 341
321 347
322 288
322 305
322 315
322 323
322 335
322 343
322 344
322 352
323 295
323 296
323 305
323 322
323 325
323 344
323 354
324 304
324 310
324 317
324 332
324 334
324 351
325 295
325 296
325 323
325 328
325 344
325 354
326 299
326 309
326 327
326 340
326 342
327 299
327 306
327 326
327 340
327 342
327 346
327 355
328 313
328 318
328 325
328 331
328 349
329 301
329 316
329 330
329 338
329 348
329 350
330 301
330 329
330 348
331 313
331 318
331 328
331 338
331 349
332 304
332 310
332 324
332 336
332 351
332 358
333 303
333 311
333 321
333 339
333 347
333 356
333 359
334 304
334 309
334 317
334 324
334 340
334 351
334 357
335 305
335 315
335 322
335 341
335 343
335 352
336 307
336 310
336 332
336 358
337 308
337 312
337 319
337 345
338 316
338 318
338 329
338 331
338 348
338 350
339 311
339 314
339 333
339 356
339 359
340 309
340 317
340 326
340 327
340 334
340 355
340 357
341 302
341 315
341 320
341 321
341 335
341 347
341 353
342 306
342 326
342 327
342 345
342 346
342 355
343 305
343 315
343 322
343 335
343 344
343 352
344 322
344 323
344 325
344 343
344 354
345 312
345 337
345 342
345 346
346 327
346 342
346 345
346 355
347 321
347 333
347 341
347 353
347 359
348 329
348 330
348 338
348 350
349 328
349 331
350 329
350 338
350 348
351 324
351 332
351 334
351 357
351 358
352 322
352 335
352 343
353 341
353 347
354 323
354 325
354 344
355 327
355 340
355 342
355 346
356 333
356 339
356 359
357 334
357 340
357 351
358 332
358 336
358 351
359 333
359 339
359 347
359 356
