1 2
1 3
1 5
1 14
1 20
1 30
1 33
1 37
1 39
1 46
2 1
2 6
2 10
2 14
2 29
2 33
2 39
3 1
3 5
3 11
3 13
3 14
3 20
3 27
3 30
3 37
3 49
4 15
4 17
4 19
4 21
4 32
4 34
4 48
5 1
5 3
5 11
5 14
5 20
5 27
5 30
5 37
5 39
5 46
6 2
6 9
6 10
6 25
6 29
6 35
6 42
6 51
7 15
7 18
7 19
7 26
7 36
7 47
7 50
8 9
8 12
8 22
8 23
8 28
8 38
8 43
8 45
9 6
9 8
9 22
9 23
9 25
9 35
9 38
9 42
9 43
10 2
10 6
10 25
10 29
10 33
10 35
10 39
10 58
11 3
11 5
11 13
11 20
11 27
11 37
11 44
11 49
11 57
12 8
12 16
12 22
12 24
12 28
12 41
12 43
12 45
13 3
13 11
13 20
13 27
13 44
13 49
14 1
14 2
14 3
14 5
14 20
14 30
14 33
14 37
14 39
14 46
14 56
15 4
15 7
15 17
15 19
15 21
15 26
15 32
15 48
15 60
16 12
16 18
16 24
16 31
16 36
16 40
16 41
16 55
17 4
17 15
17 21
17 32
17 34
17 48
17 53
17 54
18 7
18 16
18 31
18 36
18 40
18 47
18 52
19 4
19 7
19 15
19 26
19 32
19 47
19 48
19 50
19 60
20 1
20 3
20 5
20 11
20 13
20 14
20 27
20 30
20 37
20 44
20 46
20 49
20 57
20 61
21 4
21 15
21 17
21 32
21 34
21 53
21 54
22 8
22 9
22 12
22 23
22 24
22 28
22 38
22 43
22 45
22 63
22 69
23 8
23 9
23 22
23 25
23 35
23 38
23 42
23 43
23 51
23 63
24 12
24 16
24 22
24 28
24 31
24 40
24 41
24 43
24 45
24 55
24 62
24 64
25 6
25 9
25 10
25 23
25 35
25 38
25 42
25 51
25 63
25 68
25 72
26 7
26 15
26 19
26 32
26 36
26 47
26 48
26 50
26 60
26 70
26 77
27 3
27 5
27 11
27 13
27 20
27 37
27 44
27 49
27 57
27 61
27 71
27 76
28 8
28 12
28 22
28 24
28 31
28 41
28 43
28 45
28 62
28 64
29 2
29 6
29 10
29 33
29 35
29 39
29 51
29 56
29 58
29 59
29 67
29 74
30 1
30 3
30 5
30 14
30 20
30 33
30 37
30 39
30 46
30 56
30 61
30 65
30 81
31 16
31 18
31 24
31 28
31 36
31 40
31 41
31 45
31 52
31 55
31 62
31 66
31 73
32 4
32 15
32 17
32 19
32 21
32 26
32 34
32 48
32 50
32 54
32 60
32 77
33 1
33 2
33 10
33 14
33 29
33 30
33 39
33 46
33 56
33 58
33 59
33 65
33 67
33 74
33 83
34 4
34 17
34 21
34 32
34 48
34 53
34 54
34 80
35 6
35 9
35 10
35 23
35 25
35 29
35 38
35 42
35 51
35 58
35 68
35 72
35 82
36 7
36 16
36 18
36 26
36 31
36 40
36 47
36 50
36 52
36 55
36 66
36 70
36 75
37 1
37 3
37 5
37 11
37 14
37 20
37 27
37 30
37 39
37 46
37 49
37 56
37 57
37 61
37 65
37 71
37 79
37 81
38 8
38 9
38 22
38 23
38 25
38 35
38 42
38 43
38 51
38 63
38 69
38 72
38 84
39 1
39 2
39 5
39 10
39 14
39 29
39 30
39 33
39 37
39 46
39 56
39 58
39 59
39 61
39 65
39 67
39 83
40 16
40 18
40 24
40 31
40 36
40 41
40 52
40 55
40 62
40 66
40 73
40 75
41 12
41 16
41 24
41 28
41 31
41 40
41 45
41 55
41 62
41 64
41 73
41 78
41 85
42 6
42 9
42 23
42 25
42 35
42 38
42 51
42 63
42 68
42 72
42 82
42 84
42 86
43 8
43 9
43 12
43 22
43 23
43 24
43 28
43 38
43 45
43 63
43 64
43 69
43 84
43 90
44 11
44 13
44 20
44 27
44 49
44 57
44 71
44 76
45 8
45 12
45 22
45 24
45 28
45 31
45 41
45 43
45 55
45 62
45 64
45 69
45 78
45 85
46 1
46 5
46 14
46 20
46 30
46 33
46 37
46 39
46 56
46 57
46 59
46 61
46 65
46 67
46 79
46 81
46 87
47 7
47 18
47 19
47 26
47 36
47 50
47 52
47 70
47 75
47 77
47 88
47 89
48 4
48 15
48 17
48 19
48 26
48 32
48 34
48 50
48 53
48 54
48 60
48 77
48 80
48 92
48 95
49 3
49 11
49 13
49 20
49 27
49 37
49 44
49 57
49 61
49 71
49 76
49 79
50 7
50 19
50 26
50 32
50 36
50 47
50 48
50 52
50 60
50 70
50 75
50 77
50 88
50 89
50 92
51 6
51 23
51 25
51 29
51 35
51 38
51 42
51 58
51 63
51 68
51 72
51 74
51 82
51 86
52 18
52 31
52 36
52 40
52 47
52 50
52 55
52 66
52 70
52 75
52 88
52 103
53 17
53 21
53 34
53 48
53 54
53 80
53 104
54 17
54 21
54 32
54 34
54 48
54 53
54 60
54 80
54 95
54 104
55 16
55 24
55 31
55 36
55 40
55 41
55 45
55 52
55 62
55 64
55 66
55 73
55 75
55 78
55 94
55 96
56 14
56 29
56 30
56 33
56 37
56 39
56 46
56 58
56 59
56 61
56 65
56 67
56 74
56 81
56 83
56 87
56 91
56 102
57 11
57 20
57 27
57 37
57 44
57 46
57 49
57 61
57 71
57 76
57 79
57 81
57 99
57 105
57 106
58 10
58 29
58 33
58 35
58 39
58 51
58 56
58 59
58 67
58 68
58 74
58 82
58 83
58 91
58 98
59 29
59 33
59 39
59 46
59 56
59 58
59 65
59 67
59 74
59 83
59 91
59 98
60 15
60 19
60 26
60 32
60 48
60 50
60 54
60 70
60 77
60 89
60 92
60 95
61 20
61 27
61 30
61 37
61 39
61 46
61 49
61 56
61 57
61 65
61 71
61 76
61 79
61 81
61 87
61 99
61 100
61 105
61 110
62 24
62 28
62 31
62 40
62 41
62 45
62 55
62 64
62 66
62 73
62 78
62 85
62 93
62 94
62 97
63 22
63 23
63 25
63 38
63 42
63 43
63 51
63 68
63 69
63 72
63 84
63 86
63 90
63 101
63 108
64 24
64 28
64 41
64 43
64 45
64 55
64 62
64 69
64 73
64 78
64 85
64 90
64 93
64 94
64 97
65 30
65 33
65 37
65 39
65 46
65 56
65 59
65 61
65 67
65 79
65 81
65 83
65 87
65 91
65 99
65 100
65 102
65 110
65 115
66 31
66 36
66 40
66 52
66 55
66 62
66 73
66 75
66 88
66 96
66 103
66 113
67 29
67 33
67 39
67 46
67 56
67 58
67 59
67 65
67 74
67 81
67 83
67 87
67 91
67 98
67 102
67 118
68 25
68 35
68 42
68 51
68 58
68 63
68 72
68 74
68 82
68 84
68 86
68 98
68 107
68 108
68 123
69 22
69 38
69 43
69 45
69 63
69 64
69 78
69 84
69 85
69 90
69 93
69 97
69 101
70 26
70 36
70 47
70 50
70 52
70 60
70 75
70 77
70 88
70 89
70 92
70 109
70 111
71 27
71 37
71 44
71 49
71 57
71 61
71 76
71 79
71 81
71 99
71 100
71 105
71 106
71 110
71 121
72 25
72 35
72 38
72 42
72 51
72 63
72 68
72 74
72 82
72 84
72 86
72 101
72 107
72 108
72 123
72 124
73 31
73 40
73 41
73 55
73 62
73 64
73 66
73 78
73 85
73 94
73 96
73 97
73 103
73 113
73 119
73 122
74 29
74 33
74 51
74 56
74 58
74 59
74 67
74 68
74 72
74 82
74 83
74 91
74 98
74 107
74 117
74 118
75 36
75 40
75 47
75 50
75 52
75 55
75 66
75 70
75 88
75 89
75 96
75 103
75 109
75 113
76 27
76 44
76 49
76 57
76 61
76 71
76 79
76 81
76 99
76 105
76 106
76 121
77 26
77 32
77 47
77 48
77 50
77 60
77 70
77 88
77 89
77 92
77 95
77 111
77 128
78 41
78 45
78 55
78 62
78 64
78 69
78 73
78 85
78 90
78 93
78 94
78 96
78 97
78 119
78 120
78 122
78 126
79 37
79 46
79 49
79 57
79 61
79 65
79 71
79 76
79 81
79 87
79 99
79 100
79 102
79 105
79 106
79 110
79 115
79 121
80 34
80 48
80 53
80 54
80 95
80 104
80 112
80 114
80 116
80 132
81 30
81 37
81 46
81 56
81 57
81 61
81 65
81 67
81 71
81 76
81 79
81 83
81 87
81 91
81 99
81 100
81 102
81 105
81 110
81 115
82 35
82 42
82 51
82 58
82 68
82 72
82 74
82 84
82 86
82 98
82 107
82 108
82 117
82 123
82 124
83 33
83 39
83 56
83 58
83 59
83 65
83 67
83 74
83 81
83 87
83 91
83 98
83 100
83 102
83 115
83 117
83 118
83 130
84 38
84 42
84 43
84 63
84 68
84 69
84 72
84 82
84 86
84 90
84 93
84 101
84 107
84 108
84 124
84 125
84 127
85 41
85 45
85 62
85 64
85 69
85 73
85 78
85 90
85 93
85 94
85 97
85 119
85 120
85 122
85 126
86 42
86 51
86 63
86 68
86 72
86 82
86 84
86 101
86 107
86 108
86 123
86 124
86 127
86 140
87 46
87 56
87 61
87 65
87 67
87 79
87 81
87 83
87 91
87 99
87 100
87 102
87 105
87 110
87 115
87 118
87 130
87 136
88 47
88 50
88 52
88 66
88 70
88 75
88 77
88 89
88 96
88 103
88 109
88 111
88 113
88 131
88 133
89 47
89 50
89 60
89 70
89 75
89 77
89 88
89 92
89 103
89 109
89 111
89 128
89 131
90 43
90 63
90 64
90 69
90 78
90 84
90 85
90 93
90 94
90 97
90 101
90 120
90 125
90 126
90 127
90 138
91 56
91 58
91 59
91 65
91 67
91 74
91 81
91 83
91 87
91 98
91 100
91 102
91 110
91 115
91 117
91 118
91 130
91 136
92 48
92 50
92 60
92 70
92 77
92 89
92 95
92 111
92 112
92 116
92 128
93 62
93 64
93 69
93 78
93 84
93 85
93 90
93 94
93 97
93 101
93 119
93 120
93 125
93 126
93 138
94 55
94 62
94 64
94 73
94 78
94 85
94 90
94 93
94 96
94 97
94 113
94 119
94 120
94 122
94 126
94 141
95 48
95 54
95 60
95 77
95 80
95 92
95 104
95 111
95 112
95 114
95 116
95 132
96 55
96 66
96 73
96 75
96 78
96 88
96 94
96 103
96 109
96 113
96 119
96 122
96 133
96 141
96 147
97 62
97 64
97 69
97 73
97 78
97 85
97 90
97 93
97 94
97 119
97 120
97 122
97 125
97 126
97 138
97 148
98 58
98 59
98 67
98 68
98 74
98 82
98 83
98 91
98 102
98 107
98 117
98 118
98 123
98 130
98 134
98 139
98 143
99 57
99 61
99 65
99 71
99 76
99 79
99 81
99 87
99 100
99 102
99 105
99 106
99 110
99 115
99 121
99 135
99 136
99 137
99 150
99 151
100 61
100 65
100 71
100 79
100 81
100 83
100 87
100 91
100 99
100 102
100 105
100 110
100 115
100 121
100 130
100 135
100 136
100 144
100 151
101 63
101 69
101 72
101 84
101 86
101 90
101 93
101 107
101 108
101 124
101 125
101 127
101 138
101 149
102 56
102 65
102 67
102 79
102 81
102 83
102 87
102 91
102 98
102 99
102 100
102 105
102 110
102 115
102 118
102 130
102 136
102 144
102 151
103 52
103 66
103 73
103 75
103 88
103 89
103 96
103 109
103 113
103 122
103 131
103 133
103 146
103 147
104 53
104 54
104 80
104 95
104 112
104 114
104 116
104 132
104 142
104 152
105 57
105 61
105 71
105 76
105 79
105 81
105 87
105 99
105 100
105 102
105 106
105 110
105 115
105 121
105 129
105 135
105 136
105 137
105 150
105 151
106 57
106 71
106 76
106 79
106 99
106 105
106 110
106 121
106 129
106 135
106 137
106 150
107 68
107 72
107 74
107 82
107 84
107 86
107 98
107 101
107 108
107 117
107 123
107 124
107 127
107 134
107 139
107 140
107 149
107 155
108 63
108 68
108 72
108 82
108 84
108 86
108 101
108 107
108 123
108 124
108 127
108 139
108 140
108 149
109 70
109 75
109 88
109 89
109 96
109 103
109 111
109 113
109 128
109 131
109 133
109 146
110 61
110 65
110 71
110 79
110 81
110 87
110 91
110 99
110 100
110 102
110 105
110 106
110 115
110 121
110 135
110 136
110 137
110 144
110 150
110 151
110 158
111 70
111 77
111 88
111 89
111 92
111 95
111 109
111 112
111 128
111 131
111 145
111 146
111 157
112 80
112 92
112 95
112 104
112 111
112 114
112 116
112 128
112 132
112 145
112 152
112 153
112 160
113 66
113 73
113 75
113 88
113 94
113 96
113 103
113 109
113 119
113 122
113 131
113 133
113 141
113 147
114 80
114 95
114 104
114 112
114 116
114 132
114 142
114 152
115 65
115 79
115 81
115 83
115 87
115 91
115 99
115 100
115 102
115 105
115 110
115 117
115 118
115 130
115 135
115 136
115 143
115 144
115 151
115 154
115 158
115 159
116 80
116 92
116 95
116 104
116 112
116 114
116 132
116 142
116 152
116 153
116 160
117 74
117 82
117 83
117 91
117 98
117 107
117 115
117 118
117 123
117 130
117 134
117 139
117 140
117 143
117 154
117 166
117 167
118 67
118 74
118 83
118 87
118 91
118 98
118 102
118 115
118 117
118 123
118 130
118 134
118 136
118 139
118 143
118 144
118 154
118 166
118 167
119 73
119 78
119 85
119 93
119 94
119 96
119 97
119 113
119 120
119 122
119 126
119 138
119 141
119 148
119 156
119 162
120 78
120 85
120 90
120 93
120 94
120 97
120 119
120 122
120 125
120 126
120 138
120 141
120 148
120 162
120 163
121 71
121 76
121 79
121 99
121 100
121 105
121 106
121 110
121 129
121 135
121 136
121 137
121 150
121 151
121 161
122 73
122 78
122 85
122 94
122 96
122 97
122 103
122 113
122 119
122 120
122 126
122 133
122 141
122 147
122 148
122 156
123 68
123 72
123 82
123 86
123 98
123 107
123 108
123 117
123 118
123 124
123 134
123 139
123 140
123 149
123 155
123 165
124 72
124 82
124 84
124 86
124 101
124 107
124 108
124 123
124 125
124 127
124 139
124 140
124 149
124 155
124 164
124 165
124 170
125 84
125 90
125 93
125 97
125 101
125 120
125 124
125 126
125 127
125 138
125 148
125 149
125 162
125 163
125 164
126 78
126 85
126 90
126 93
126 94
126 97
126 119
126 120
126 122
126 125
126 138
126 141
126 148
126 156
126 162
126 163
126 174
127 84
127 86
127 90
127 101
127 107
127 108
127 124
127 125
127 138
127 140
127 149
127 163
127 164
127 165
127 170
128 77
128 89
128 92
128 109
128 111
128 112
128 131
128 145
128 146
128 153
128 157
129 105
129 106
129 121
129 135
129 137
129 150
129 161
130 83
130 87
130 91
130 98
130 100
130 102
130 115
130 117
130 118
130 134
130 136
130 139
130 143
130 144
130 154
130 159
130 166
130 167
130 172
131 88
131 89
131 103
131 109
131 111
131 113
131 128
131 133
131 145
131 146
131 147
131 168
132 80
132 95
132 104
132 112
132 114
132 116
132 142
132 152
132 153
132 160
132 171
132 175
133 88
133 96
133 103
133 109
133 113
133 122
133 131
133 141
133 146
133 147
133 168
133 169
133 179
134 98
134 107
134 117
134 118
134 123
134 130
134 139
134 140
134 143
134 154
134 155
134 166
134 167
134 172
134 176
134 184
135 99
135 100
135 105
135 106
135 110
135 115
135 121
135 129
135 136
135 137
135 144
135 150
135 151
135 158
135 159
135 161
135 186
136 87
136 91
136 99
136 100
136 102
136 105
136 110
136 115
136 118
136 121
136 130
136 135
136 143
136 144
136 150
136 151
136 154
136 158
136 159
136 180
136 182
137 99
137 105
137 106
137 110
137 121
137 129
137 135
137 150
137 151
137 158
137 161
137 185
138 90
138 93
138 97
138 101
138 119
138 120
138 125
138 126
138 127
138 148
138 162
138 163
138 164
138 170
138 174
138 188
139 98
139 107
139 108
139 117
139 118
139 123
139 124
139 130
139 134
139 140
139 143
139 149
139 154
139 155
139 165
139 166
139 167
139 173
139 176
140 86
140 107
140 108
140 117
140 123
140 124
140 127
140 134
140 139
140 149
140 155
140 165
140 166
140 170
140 173
140 183
141 94
141 96
141 113
141 119
141 120
141 122
141 126
141 133
141 147
141 148
141 156
141 162
141 169
141 174
141 187
142 104
142 114
142 116
142 132
142 152
142 160
142 171
142 175
142 192
143 98
143 115
143 117
143 118
143 130
143 134
143 136
143 139
143 144
143 154
143 159
143 166
143 167
143 172
143 176
143 180
143 184
143 196
144 100
144 102
144 110
144 115
144 118
144 130
144 135
144 136
144 143
144 150
144 151
144 154
144 158
144 159
144 167
144 172
144 180
144 182
145 111
145 112
145 128
145 131
145 146
145 153
145 157
145 160
145 168
145 177
145 189
145 197
146 103
146 109
146 111
146 128
146 131
146 133
146 145
146 147
146 157
146 168
146 179
146 191
147 96
147 103
147 113
147 122
147 131
147 133
147 141
147 146
147 156
147 168
147 169
147 179
147 187
147 190
148 97
148 119
148 120
148 122
148 125
148 126
148 138
148 141
148 156
148 162
148 163
148 164
148 174
148 188
149 101
149 107
149 108
149 123
149 124
149 125
149 127
149 139
149 140
149 155
149 164
149 165
149 170
149 173
149 181
149 183
149 194
150 99
150 105
150 106
150 110
150 121
150 129
150 135
150 136
150 137
150 144
150 151
150 158
150 159
150 161
150 182
150 185
150 186
151 99
151 100
151 102
151 105
151 110
151 115
151 121
151 135
151 136
151 137
151 144
151 150
151 154
151 158
151 159
151 161
151 180
151 182
151 186
151 195
152 104
152 112
152 114
152 116
152 132
152 142
152 153
152 160
152 171
152 175
152 177
152 178
152 192
152 202
153 112
153 116
153 128
153 132
153 145
153 152
153 157
153 160
153 171
153 177
153 178
153 189
153 204
154 115
154 117
154 118
154 130
154 134
154 136
154 139
154 143
154 144
154 151
154 158
154 159
154 166
154 167
154 172
154 176
154 180
154 182
154 184
154 196
154 199
155 107
155 123
155 124
155 134
155 139
155 140
155 149
155 165
155 166
155 167
155 170
155 173
155 176
155 183
155 194
155 203
156 119
156 122
156 126
156 141
156 147
156 148
156 162
156 169
156 174
156 187
156 190
156 198
156 200
157 111
157 128
157 145
157 146
157 153
157 160
157 168
157 177
157 189
157 191
157 197
157 204
158 110
158 115
158 135
158 136
158 137
158 144
158 150
158 151
158 154
158 159
158 161
158 180
158 182
158 185
158 186
158 195
158 199
158 205
159 115
159 130
159 135
159 136
159 143
159 144
159 150
159 151
159 154
159 158
159 167
159 172
159 180
159 182
159 184
159 186
159 195
159 196
159 199
160 112
160 116
160 132
160 142
160 145
160 152
160 153
160 157
160 171
160 175
160 177
160 178
160 189
160 192
160 204
160 208
161 121
161 129
161 135
161 137
161 150
161 151
161 158
161 185
161 186
161 205
161 206
161 210
162 119
162 120
162 125
162 126
162 138
162 141
162 148
162 156
162 163
162 164
162 174
162 187
162 188
162 198
162 201
163 120
163 125
163 126
163 127
163 138
163 148
163 162
163 164
163 170
163 174
163 181
163 188
163 193
163 201
164 124
164 125
164 127
164 138
164 148
164 149
164 162
164 163
164 165
164 170
164 174
164 181
164 183
164 188
164 193
164 213
165 123
165 124
165 127
165 139
165 140
165 149
165 155
165 164
165 170
165 173
165 181
165 183
165 193
165 194
165 209
165 213
166 117
166 118
166 130
166 134
166 139
166 140
166 143
166 154
166 155
166 167
166 172
166 173
166 176
166 184
166 194
166 196
166 203
166 211
166 214
167 117
167 118
167 130
167 134
167 139
167 143
167 144
167 154
167 155
167 159
167 166
167 172
167 176
167 180
167 184
167 196
167 199
167 203
167 211
167 214
168 131
168 133
168 145
168 146
168 147
168 157
168 169
168 179
168 189
168 190
168 191
168 197
168 207
168 217
169 133
169 141
169 147
169 156
169 168
169 179
169 187
169 190
169 198
169 200
169 207
170 124
170 127
170 138
170 140
170 149
170 155
170 163
170 164
170 165
170 173
170 181
170 183
170 188
170 193
170 194
170 209
170 213
171 132
171 142
171 152
171 153
171 160
171 175
171 177
171 178
171 192
171 202
171 208
172 130
172 134
172 143
172 144
172 154
172 159
172 166
172 167
172 176
172 180
172 182
172 184
172 196
172 199
172 203
172 211
172 214
173 139
173 140
173 149
173 155
173 165
173 166
173 170
173 176
173 181
173 183
173 194
173 203
173 209
173 213
173 221
173 232
174 126
174 138
174 141
174 148
174 156
174 162
174 163
174 164
174 187
174 188
174 193
174 198
174 200
174 201
174 218
174 222
175 132
175 142
175 152
175 160
175 171
175 178
175 192
175 202
175 208
175 225
175 228
176 134
176 139
176 143
176 154
176 155
176 166
176 167
176 172
176 173
176 184
176 194
176 196
176 203
176 211
176 214
176 227
177 145
177 152
177 153
177 157
177 160
177 171
177 178
177 189
177 192
177 197
177 204
177 208
177 212
177 216
178 152
178 153
178 160
178 171
178 175
178 177
178 189
178 192
178 202
178 204
178 208
178 216
178 228
179 133
179 146
179 147
179 168
179 169
179 190
179 191
179 207
179 217
179 219
179 224
180 136
180 143
180 144
180 151
180 154
180 158
180 159
180 167
180 172
180 182
180 184
180 186
180 195
180 196
180 199
180 205
180 211
180 220
180 229
180 230
181 149
181 163
181 164
181 165
181 170
181 173
181 183
181 188
181 193
181 194
181 209
181 213
181 221
181 231
181 233
182 136
182 144
182 150
182 151
182 154
182 158
182 159
182 172
182 180
182 185
182 186
182 195
182 196
182 199
182 205
182 206
182 220
182 223
182 230
183 140
183 149
183 155
183 164
183 165
183 170
183 173
183 181
183 193
183 194
183 209
183 213
183 221
183 232
183 233
184 134
184 143
184 154
184 159
184 166
184 167
184 172
184 176
184 180
184 196
184 199
184 203
184 211
184 214
184 227
184 229
185 137
185 150
185 158
185 161
185 182
185 186
185 195
185 205
185 206
185 210
185 215
185 223
186 135
186 150
186 151
186 158
186 159
186 161
186 180
186 182
186 185
186 195
186 199
186 205
186 206
186 210
186 215
186 220
186 223
187 141
187 147
187 156
187 162
187 169
187 174
187 190
187 198
187 200
187 201
187 207
187 218
187 226
188 138
188 148
188 162
188 163
188 164
188 170
188 174
188 181
188 193
188 201
188 213
188 218
188 222
188 231
189 145
189 153
189 157
189 160
189 168
189 177
189 178
189 191
189 197
189 204
189 212
189 219
189 237
190 147
190 156
190 168
190 169
190 179
190 187
190 191
190 198
190 200
190 207
190 217
190 224
190 226
190 235
191 146
191 157
191 168
191 179
191 189
191 190
191 197
191 207
191 212
191 217
191 219
191 224
191 234
192 142
192 152
192 160
192 171
192 175
192 177
192 178
192 202
192 204
192 208
192 216
192 225
192 228
192 246
193 163
193 164
193 165
193 170
193 174
193 181
193 183
193 188
193 201
193 209
193 213
193 222
193 231
193 233
193 245
194 149
194 155
194 165
194 166
194 170
194 173
194 176
194 181
194 183
194 203
194 209
194 213
194 214
194 221
194 227
194 232
194 233
194 238
195 151
195 158
195 159
195 180
195 182
195 185
195 186
195 196
195 199
195 205
195 206
195 215
195 220
195 223
195 230
195 239
195 242
196 143
196 154
196 159
196 166
196 167
196 172
196 176
196 180
196 182
196 184
196 195
196 199
196 203
196 211
196 214
196 227
196 229
196 230
196 240
197 145
197 157
197 168
197 177
197 189
197 191
197 204
197 212
197 217
197 219
197 237
198 156
198 162
198 169
198 174
198 187
198 190
198 200
198 201
198 207
198 218
198 222
198 226
198 243
198 248
199 154
199 158
199 159
199 167
199 172
199 180
199 182
199 184
199 186
199 195
199 196
199 205
199 211
199 214
199 220
199 223
199 229
199 230
199 242
200 156
200 169
200 174
200 187
200 190
200 198
200 201
200 207
200 218
200 224
200 226
200 235
200 243
200 248
201 162
201 163
201 174
201 187
201 188
201 193
201 198
201 200
201 218
201 222
201 226
201 231
201 243
201 250
202 152
202 171
202 175
202 178
202 192
202 208
202 216
202 225
202 228
202 246
203 155
203 166
203 167
203 172
203 173
203 176
203 184
203 194
203 196
203 209
203 211
203 214
203 221
203 227
203 229
203 232
203 240
203 247
204 153
204 157
204 160
204 177
204 178
204 189
204 192
204 197
204 208
204 212
204 216
204 237
204 244
204 254
205 158
205 161
205 180
205 182
205 185
205 186
205 195
205 199
205 206
205 210
205 215
205 220
205 223
205 239
205 241
205 242
206 161
206 182
206 185
206 186
206 195
206 205
206 210
206 215
206 220
206 223
206 236
206 239
206 241
206 251
207 168
207 169
207 179
207 187
207 190
207 191
207 198
207 200
207 217
207 219
207 224
207 226
207 234
207 235
207 256
208 160
208 171
208 175
208 177
208 178
208 192
208 202
208 204
208 212
208 216
208 225
208 228
208 244
208 246
209 165
209 170
209 173
209 181
209 183
209 193
209 194
209 203
209 213
209 221
209 227
209 231
209 232
209 233
209 238
209 247
209 249
209 259
210 161
210 185
210 186
210 205
210 206
210 215
210 223
210 236
210 241
210 251
211 166
211 167
211 172
211 176
211 180
211 184
211 196
211 199
211 203
211 214
211 220
211 227
211 229
211 230
211 240
211 252
212 177
212 189
212 191
212 197
212 204
212 208
212 216
212 219
212 237
212 244
212 254
212 255
212 257
213 164
213 165
213 170
213 173
213 181
213 183
213 188
213 193
213 194
213 209
213 221
213 222
213 231
213 232
213 233
213 238
213 245
213 249
213 259
213 266
214 166
214 167
214 172
214 176
214 184
214 194
214 196
214 199
214 203
214 211
214 221
214 227
214 229
214 230
214 232
214 240
214 247
214 252
215 185
215 186
215 195
215 205
215 206
215 210
215 220
215 223
215 236
215 239
215 241
215 251
215 263
216 177
216 178
216 192
216 202
216 204
216 208
216 212
216 225
216 228
216 244
216 246
216 254
216 271
217 168
217 179
217 190
217 191
217 197
217 207
217 219
217 224
217 234
217 235
217 237
217 253
217 255
217 256
217 268
218 174
218 187
218 188
218 198
218 200
218 201
218 222
218 226
218 231
218 243
218 245
218 248
218 250
218 258
218 262
219 179
219 189
219 191
219 197
219 207
219 212
219 217
219 224
219 234
219 237
219 253
219 255
219 256
219 257
219 268
219 270
220 180
220 182
220 186
220 195
220 199
220 205
220 206
220 211
220 215
220 223
220 229
220 230
220 239
220 241
220 242
220 261
220 267
221 173
221 181
221 183
221 194
221 203
221 209
221 213
221 214
221 227
221 232
221 233
221 238
221 247
221 249
221 259
221 264
221 266
222 174
222 188
222 193
222 198
222 201
222 213
222 218
222 231
222 233
222 243
222 245
222 249
222 250
222 258
222 260
222 262
223 182
223 185
223 186
223 195
223 199
223 205
223 206
223 210
223 215
223 220
223 230
223 236
223 239
223 241
223 242
223 251
223 261
223 263
223 267
224 179
224 190
224 191
224 200
224 207
224 217
224 219
224 226
224 234
224 235
224 248
224 253
224 256
224 272
225 175
225 192
225 202
225 208
225 216
225 228
225 246
225 265
225 271
226 187
226 190
226 198
226 200
226 201
226 207
226 218
226 224
226 235
226 243
226 248
226 256
226 258
226 275
227 176
227 184
227 194
227 196
227 203
227 209
227 211
227 214
227 221
227 229
227 232
227 238
227 240
227 247
227 252
227 264
228 175
228 178
228 192
228 202
228 208
228 216
228 225
228 244
228 246
228 265
228 271
228 278
229 180
229 184
229 196
229 199
229 203
229 211
229 214
229 220
229 227
229 230
229 240
229 242
229 252
229 269
229 273
230 180
230 182
230 195
230 196
230 199
230 211
230 214
230 220
230 223
230 229
230 239
230 240
230 242
230 252
230 261
230 269
230 273
231 181
231 188
231 193
231 201
231 209
231 213
231 218
231 222
231 233
231 238
231 245
231 249
231 250
231 260
231 262
231 266
232 173
232 183
232 194
232 203
232 209
232 213
232 214
232 221
232 227
232 233
232 238
232 240
232 247
232 249
232 259
232 264
233 181
233 183
233 193
233 194
233 209
233 213
233 221
233 222
233 231
233 232
233 238
233 245
233 247
233 249
233 259
233 260
233 266
234 191
234 207
234 217
234 219
234 224
234 235
234 237
234 253
234 255
234 256
234 257
234 268
234 270
234 272
235 190
235 200
235 207
235 217
235 224
235 226
235 234
235 248
235 253
235 256
235 268
235 272
235 275
236 206
236 210
236 215
236 223
236 239
236 241
236 251
236 263
236 274
236 280
236 284
237 189
237 197
237 204
237 212
237 217
237 219
237 234
237 244
237 253
237 254
237 255
237 257
237 268
237 270
237 279
238 194
238 209
238 213
238 221
238 227
238 231
238 232
238 233
238 245
238 247
238 249
238 259
238 264
238 266
239 195
239 205
239 206
239 215
239 220
239 223
239 230
239 236
239 241
239 242
239 251
239 261
239 263
239 267
239 280
240 196
240 203
240 211
240 214
240 227
240 229
240 230
240 232
240 247
240 252
240 264
240 269
240 273
240 276
241 205
241 206
241 210
241 215
241 220
241 223
241 236
241 239
241 242
241 251
241 263
241 267
241 274
241 280
242 195
242 199
242 205
242 220
242 223
242 229
242 230
242 239
242 241
242 252
242 261
242 263
242 267
242 269
242 282
242 289
243 198
243 200
243 201
243 218
243 222
243 226
243 248
243 250
243 258
243 262
243 275
243 281
243 283
244 204
244 208
244 212
244 216
244 228
244 237
244 246
244 254
244 257
244 271
244 277
244 279
245 193
245 213
245 218
245 222
245 231
245 233
245 238
245 249
245 250
245 259
245 260
245 262
245 266
245 281
245 287
246 192
246 202
246 208
246 216
246 225
246 228
246 244
246 254
246 265
246 271
246 277
246 278
247 203
247 209
247 214
247 221
247 227
247 232
247 233
247 238
247 240
247 249
247 252
247 259
247 264
247 266
247 276
247 290
248 198
248 200
248 218
248 224
248 226
248 235
248 243
248 250
248 256
248 258
248 262
248 275
248 283
248 286
249 209
249 213
249 221
249 222
249 231
249 232
249 233
249 238
249 245
249 247
249 250
249 259
249 260
249 264
249 266
249 287
249 292
249 297
250 201
250 218
250 222
250 231
250 243
250 245
250 248
250 249
250 258
250 260
250 262
250 281
250 283
250 287
251 206
251 210
251 215
251 223
251 236
251 239
251 241
251 263
251 267
251 274
251 280
251 284
251 301
252 211
252 214
252 227
252 229
252 230
252 240
252 242
252 247
252 261
252 264
252 269
252 273
252 276
252 282
252 294
252 296
253 217
253 219
253 224
253 234
253 235
253 237
253 255
253 256
253 257
253 268
253 270
253 272
253 285
253 288
254 204
254 212
254 216
254 237
254 244
254 246
254 255
254 257
254 271
254 277
254 279
254 291
254 293
254 303
255 212
255 217
255 219
255 234
255 237
255 253
255 254
255 256
255 257
255 268
255 270
255 272
255 279
255 285
255 293
256 207
256 217
256 219
256 224
256 226
256 234
256 235
256 248
256 253
256 255
256 268
256 270
256 272
256 275
256 286
256 288
256 305
257 212
257 219
257 234
257 237
257 244
257 253
257 254
257 255
257 268
257 270
257 277
257 279
257 285
257 293
257 304
258 218
258 222
258 226
258 243
258 248
258 250
258 262
258 275
258 281
258 283
258 286
258 306
259 209
259 213
259 221
259 232
259 233
259 238
259 245
259 247
259 249
259 260
259 264
259 266
259 276
259 290
259 292
259 297
259 299
259 310
260 222
260 231
260 233
260 245
260 249
260 250
260 259
260 262
260 266
260 281
260 287
260 297
261 220
261 223
261 230
261 239
261 242
261 252
261 263
261 267
261 269
261 273
261 280
261 282
261 289
261 294
261 295
261 298
261 300
262 218
262 222
262 231
262 243
262 245
262 248
262 250
262 258
262 260
262 281
262 283
262 287
262 306
262 309
263 215
263 223
263 236
263 239
263 241
263 242
263 251
263 261
263 267
263 274
263 280
263 284
263 295
263 298
263 301
264 221
264 227
264 232
264 238
264 240
264 247
264 249
264 252
264 259
264 266
264 273
264 276
264 290
264 292
264 296
264 299
264 316
265 225
265 228
265 246
265 271
265 277
265 278
265 291
265 302
266 213
266 221
266 231
266 233
266 238
266 245
266 247
266 249
266 259
266 260
266 264
266 287
266 290
266 292
266 297
266 310
267 220
267 223
267 239
267 241
267 242
267 251
267 261
267 263
267 269
267 274
267 280
267 282
267 284
267 289
267 295
267 298
267 300
267 315
268 217
268 219
268 234
268 235
268 237
268 253
268 255
268 256
268 257
268 270
268 272
268 279
268 285
268 288
268 304
268 305
268 307
268 308
269 229
269 230
269 240
269 242
269 252
269 261
269 267
269 273
269 276
269 282
269 289
269 294
269 296
269 300
269 317
270 219
270 234
270 237
270 253
270 255
270 256
270 257
270 268
270 272
270 279
270 285
270 288
270 293
270 304
270 305
270 307
270 308
271 216
271 225
271 228
271 244
271 246
271 254
271 265
271 277
271 278
271 291
271 302
271 303
271 311
272 224
272 234
272 235
272 253
272 255
272 256
272 268
272 270
272 275
272 285
272 286
272 288
272 305
272 308
273 229
273 230
273 240
273 252
273 261
273 264
273 269
273 276
273 282
273 289
273 294
273 296
273 299
273 313
273 317
274 236
274 241
274 251
274 263
274 267
274 280
274 284
274 295
274 298
274 301
274 322
275 226
275 235
275 243
275 248
275 256
275 258
275 272
275 283
275 286
275 288
275 305
275 306
275 312
275 320
276 240
276 247
276 252
276 259
276 264
276 269
276 273
276 290
276 294
276 296
276 299
276 313
276 316
277 244
277 246
277 254
277 257
277 265
277 271
277 278
277 279
277 291
277 293
277 303
277 304
277 311
277 314
277 318
278 228
278 246
278 265
278 271
278 277
278 291
278 302
278 303
278 311
278 323
279 237
279 244
279 254
279 255
279 257
279 268
279 270
279 277
279 285
279 291
279 293
279 303
279 304
279 307
279 314
279 318
279 325
280 236
280 239
280 241
280 251
280 261
280 263
280 267
280 274
280 284
280 289
280 295
280 298
280 300
280 301
280 315
280 322
281 243
281 245
281 250
281 258
281 260
281 262
281 283
281 287
281 297
281 306
281 309
281 321
281 326
281 327
282 242
282 252
282 261
282 267
282 269
282 273
282 289
282 294
282 296
282 298
282 300
282 315
282 317
282 324
282 329
283 243
283 248
283 250
283 258
283 262
283 275
283 281
283 286
283 306
283 309
283 312
283 320
283 326
283 327
284 236
284 251
284 263
284 267
284 274
284 280
284 295
284 298
284 301
284 322
284 328
285 253
285 255
285 257
285 268
285 270
285 272
285 279
285 288
285 293
285 304
285 305
285 307
285 308
285 314
285 325
286 248
286 256
286 258
286 272
286 275
286 283
286 288
286 305
286 306
286 312
286 320
286 327
286 334
287 245
287 249
287 250
287 260
287 262
287 266
287 281
287 292
287 297
287 309
287 310
287 319
287 321
287 330
288 253
288 256
288 268
288 270
288 272
288 275
288 285
288 286
288 305
288 307
288 308
288 312
288 320
288 337
289 242
289 261
289 267
289 269
289 273
289 280
289 282
289 294
289 295
289 298
289 300
289 315
289 317
289 324
289 329
290 247
290 259
290 264
290 266
290 276
290 292
290 296
290 299
290 310
290 313
290 316
290 319
290 332
291 254
291 265
291 271
291 277
291 278
291 279
291 293
291 302
291 303
291 311
291 314
291 318
291 323
291 336
292 249
292 259
292 264
292 266
292 287
292 290
292 297
292 299
292 310
292 316
292 319
292 330
292 332
293 254
293 255
293 257
293 270
293 277
293 279
293 285
293 291
293 303
293 304
293 307
293 311
293 314
293 318
293 325
293 331
294 252
294 261
294 269
294 273
294 276
294 282
294 289
294 296
294 300
294 313
294 317
294 324
294 329
294 333
294 340
295 261
295 263
295 267
295 274
295 280
295 284
295 289
295 298
295 300
295 301
295 315
295 322
295 328
295 338
295 343
296 252
296 264
296 269
296 273
296 276
296 282
296 290
296 294
296 299
296 313
296 316
296 317
296 329
296 333
296 335
297 249
297 259
297 260
297 266
297 281
297 287
297 292
297 309
297 310
297 319
297 321
297 330
297 344
298 261
298 263
298 267
298 274
298 280
298 282
298 284
298 289
298 295
298 300
298 301
298 315
298 317
298 322
298 324
298 338
298 343
298 345
299 259
299 264
299 273
299 276
299 290
299 292
299 296
299 310
299 313
299 316
299 319
299 332
299 333
299 335
300 261
300 267
300 269
300 280
300 282
300 289
300 294
300 295
300 298
300 315
300 317
300 322
300 324
300 329
300 340
300 345
300 347
301 251
301 263
301 274
301 280
301 284
301 295
301 298
301 315
301 322
301 328
301 338
302 265
302 271
302 278
302 291
302 303
302 311
302 318
302 323
302 336
303 254
303 271
303 277
303 278
303 279
303 291
303 293
303 302
303 304
303 311
303 314
303 318
303 323
303 331
304 257
304 268
304 270
304 277
304 279
304 285
304 293
304 303
304 307
304 308
304 314
304 318
304 325
304 331
304 341
305 256
305 268
305 270
305 272
305 275
305 285
305 286
305 288
305 307
305 308
305 312
305 320
305 325
305 337
305 339
305 342
305 346
306 258
306 262
306 275
306 281
306 283
306 286
306 309
306 312
306 320
306 326
306 327
306 334
306 348
307 268
307 270
307 279
307 285
307 288
307 293
307 304
307 305
307 308
307 314
307 325
307 339
307 341
307 346
308 268
308 270
308 272
308 285
308 288
308 304
308 305
308 307
308 325
308 337
308 339
308 341
308 346
309 262
309 281
309 283
309 287
309 297
309 306
309 312
309 321
309 326
309 327
309 330
309 348
310 259
310 266
310 287
310 290
310 292
310 297
310 299
310 316
310 319
310 321
310 330
310 332
310 344
310 352
310 353
311 271
311 277
311 278
311 291
311 293
311 302
311 303
311 314
311 318
311 323
311 331
311 336
311 349
312 275
312 283
312 286
312 288
312 305
312 306
312 309
312 320
312 326
312 327
312 334
312 337
312 342
312 354
312 355
313 273
313 276
313 290
313 294
313 296
313 299
313 316
313 317
313 329
313 332
313 333
313 335
313 350
313 351
314 277
314 279
314 285
314 291
314 293
314 303
314 304
314 307
314 311
314 318
314 325
314 331
314 341
314 360
315 267
315 280
315 282
315 289
315 295
315 298
315 300
315 301
315 317
315 322
315 324
315 328
315 338
315 340
315 343
315 345
315 347
315 359
316 264
316 276
316 290
316 292
316 296
316 299
316 310
316 313
316 319
316 332
316 333
316 335
316 350
316 353
317 269
317 273
317 282
317 289
317 294
317 296
317 298
317 300
317 313
317 315
317 324
317 329
317 333
317 340
317 345
317 347
317 351
318 277
318 279
318 291
318 293
318 302
318 303
318 304
318 311
318 314
318 323
318 331
318 336
318 349
318 360
318 361
319 287
319 290
319 292
319 297
319 299
319 310
319 316
319 321
319 330
319 332
319 344
319 352
319 353
320 275
320 283
320 286
320 288
320 305
320 306
320 312
320 327
320 334
320 337
320 342
320 346
320 354
320 355
321 281
321 287
321 297
321 309
321 310
321 319
321 326
321 327
321 330
321 344
321 348
322 274
322 280
322 284
322 295
322 298
322 300
322 301
322 315
322 328
322 338
322 343
322 345
322 358
322 364
323 278
323 291
323 302
323 303
323 311
323 318
323 336
323 349
323 356
324 282
324 289
324 294
324 298
324 300
324 315
324 317
324 329
324 333
324 340
324 343
324 345
324 347
324 351
324 359
324 371
325 279
325 285
325 293
325 304
325 305
325 307
325 308
325 314
325 331
325 339
325 341
325 346
325 357
325 362
326 281
326 283
326 306
326 309
326 312
326 321
326 327
326 330
326 334
326 348
326 354
326 365
327 281
327 283
327 286
327 306
327 309
327 312
327 320
327 321
327 326
327 334
327 348
327 354
327 365
328 284
328 295
328 301
328 315
328 322
328 338
328 343
328 358
328 366
329 282
329 289
329 294
329 296
329 300
329 313
329 317
329 324
329 333
329 335
329 340
329 347
329 351
329 369
330 287
330 292
330 297
330 309
330 310
330 319
330 321
330 326
330 344
330 348
330 352
330 368
330 373
331 293
331 303
331 304
331 311
331 314
331 318
331 325
331 341
331 349
331 357
331 360
331 361
331 377
332 290
332 292
332 299
332 310
332 313
332 316
332 319
332 333
332 335
332 350
332 352
332 353
332 367
332 372
332 375
332 380
333 294
333 296
333 299
333 313
333 316
333 317
333 324
333 329
333 332
333 335
333 340
333 350
333 351
333 367
333 369
333 375
334 286
334 306
334 312
334 320
334 326
334 327
334 337
334 342
334 348
334 354
334 355
334 365
334 370
334 378
335 296
335 299
335 313
335 316
335 329
335 332
335 333
335 350
335 351
335 353
335 367
335 369
335 375
336 291
336 302
336 311
336 318
336 323
336 349
336 356
336 361
336 382
336 385
337 288
337 305
337 308
337 312
337 320
337 334
337 339
337 342
337 346
337 355
337 362
337 363
337 370
337 378
338 295
338 298
338 301
338 315
338 322
338 328
338 343
338 345
338 347
338 358
338 359
338 364
338 366
338 376
339 305
339 307
339 308
339 325
339 337
339 341
339 342
339 346
339 357
339 362
339 363
339 381
340 294
340 300
340 315
340 317
340 324
340 329
340 333
340 343
340 345
340 347
340 351
340 359
340 369
340 371
340 379
340 384
341 304
341 307
341 308
341 314
341 325
341 331
341 339
341 346
341 357
341 360
341 362
341 363
341 381
342 305
342 312
342 320
342 334
342 337
342 339
342 346
342 354
342 355
342 363
342 370
342 378
342 387
343 295
343 298
343 315
343 322
343 324
343 328
343 338
343 340
343 345
343 347
343 358
343 359
343 364
343 366
343 371
343 376
343 379
344 297
344 310
344 319
344 321
344 330
344 352
344 353
344 368
344 372
344 373
344 374
345 298
345 300
345 315
345 317
345 322
345 324
345 338
345 340
345 343
345 347
345 358
345 359
345 364
345 371
345 376
345 379
346 305
346 307
346 308
346 320
346 325
346 337
346 339
346 341
346 342
346 355
346 357
346 362
346 363
346 378
346 387
347 300
347 315
347 317
347 324
347 329
347 338
347 340
347 343
347 345
347 351
347 359
347 364
347 369
347 371
347 379
347 384
348 306
348 309
348 321
348 326
348 327
348 330
348 334
348 354
348 365
348 368
348 370
348 374
348 383
349 311
349 318
349 323
349 331
349 336
349 356
349 360
349 361
349 377
349 382
349 385
350 313
350 316
350 332
350 333
350 335
350 351
350 352
350 353
350 367
350 369
350 375
350 380
351 313
351 317
351 324
351 329
351 333
351 335
351 340
351 347
351 350
351 367
351 369
351 371
351 375
351 384
351 386
352 310
352 319
352 330
352 332
352 344
352 350
352 353
352 368
352 372
352 373
352 380
353 310
353 316
353 319
353 332
353 335
353 344
353 350
353 352
353 367
353 372
353 373
353 375
353 380
354 312
354 320
354 326
354 327
354 334
354 342
354 348
354 355
354 365
354 370
354 378
354 383
355 312
355 320
355 334
355 337
355 342
355 346
355 354
355 363
355 370
355 378
355 387
356 323
356 336
356 349
356 361
356 382
356 385
357 325
357 331
357 339
357 341
357 346
357 360
357 362
357 363
357 377
357 381
358 322
358 328
358 338
358 343
358 345
358 359
358 364
358 366
358 376
358 379
359 315
359 324
359 338
359 340
359 343
359 345
359 347
359 358
359 364
359 371
359 376
359 379
359 384
360 314
360 318
360 331
360 341
360 349
360 357
360 361
360 362
360 377
360 381
360 382
361 318
361 331
361 336
361 349
361 356
361 360
361 377
361 382
361 385
362 325
362 337
362 339
362 341
362 346
362 357
362 360
362 363
362 381
362 387
363 337
363 339
363 341
363 342
363 346
363 355
363 357
363 362
363 378
363 381
363 387
364 322
364 338
364 343
364 345
364 347
364 358
364 359
364 366
364 371
364 376
364 379
365 326
365 327
365 334
365 348
365 354
365 368
365 370
365 374
365 383
366 328
366 338
366 343
366 358
366 364
366 376
367 332
367 333
367 335
367 350
367 351
367 353
367 369
367 375
367 380
367 384
367 386
368 330
368 344
368 348
368 352
368 365
368 372
368 373
368 374
368 383
369 329
369 333
369 335
369 340
369 347
369 350
369 351
369 367
369 371
369 375
369 379
369 384
369 386
370 334
370 337
370 342
370 348
370 354
370 355
370 365
370 378
370 383
370 387
371 324
371 340
371 343
371 345
371 347
371 351
371 359
371 364
371 369
371 379
371 384
371 386
372 332
372 344
372 352
372 353
372 368
372 373
372 374
372 380
373 330
373 344
373 352
373 353
373 368
373 372
373 374
373 380
374 344
374 348
374 365
374 368
374 372
374 373
374 383
375 332
375 333
375 335
375 350
375 351
375 353
375 367
375 369
375 380
375 386
376 338
376 343
376 345
376 358
376 359
376 364
376 366
376 379
377 331
377 349
377 357
377 360
377 361
377 381
377 382
378 334
378 337
378 342
378 346
378 354
378 355
378 363
378 370
378 387
379 340
379 343
379 345
379 347
379 358
379 359
379 364
379 369
379 371
379 376
379 384
380 332
380 350
380 352
380 353
380 367
380 372
380 373
380 375
381 339
381 341
381 357
381 360
381 362
381 363
381 377
381 387
382 336
382 349
382 356
382 360
382 361
382 377
382 385
383 348
383 354
383 365
383 368
383 370
383 374
384 340
384 347
384 351
384 359
384 367
384 369
384 371
384 379
384 386
385 336
385 349
385 356
385 361
385 382
386 351
386 367
386 369
386 371
386 375
386 384
387 342
387 346
387 355
387 362
387 363
387 370
387 378
387 381
