1 9
1 14
1 23
1 38
2 19
2 22
2 33
3 10
3 13
3 26
3 27
3 35
4 16
5 6
5 15
5 17
5 24
5 29
5 32
5 40
6 5
6 15
6 21
6 29
6 45
7 8
7 12
7 25
7 34
8 7
8 28
9 1
9 30
9 37
9 38
10 3
10 18
10 26
10 27
10 43
11 18
11 20
11 36
12 7
12 14
12 25
12 31
12 34
12 39
12 46
13 3
13 24
13 27
13 35
13 53
14 1
14 12
14 23
14 31
14 34
14 38
14 39
15 5
15 6
15 17
15 29
15 32
15 40
15 45
16 4
16 28
16 42
16 44
16 54
17 5
17 15
17 24
17 29
17 32
17 40
17 51
17 52
18 10
18 11
18 20
18 26
18 36
18 49
18 57
19 2
19 20
19 41
20 11
20 18
20 19
20 36
20 41
20 60
21 6
21 29
21 56
22 2
22 33
22 47
22 48
23 1
23 14
23 31
23 38
23 39
23 55
24 5
24 13
24 17
24 32
24 35
24 51
24 52
25 7
25 12
25 34
25 39
25 46
25 50
26 3
26 10
26 18
26 27
26 43
26 49
26 57
26 58
27 3
27 10
27 13
27 26
27 35
27 43
27 53
27 58
27 64
28 8
28 16
28 42
28 54
28 62
29 5
29 6
29 15
29 17
29 21
29 32
29 40
29 45
30 9
30 37
30 59
30 72
31 12
31 14
31 23
31 34
31 38
31 39
31 61
32 5
32 15
32 17
32 24
32 29
32 40
32 51
32 52
32 66
33 2
33 22
33 47
33 48
34 7
34 12
34 14
34 25
34 31
34 39
34 46
34 50
34 61
35 3
35 13
35 24
35 27
35 51
35 53
35 58
35 64
36 11
36 18
36 20
36 49
36 60
36 63
36 74
37 9
37 30
37 38
37 55
37 59
37 72
38 1
38 9
38 14
38 23
38 31
38 37
38 55
38 68
39 12
39 14
39 23
39 25
39 31
39 34
39 46
39 61
39 75
40 5
40 15
40 17
40 29
40 32
40 45
40 51
40 52
40 66
40 77
41 19
41 20
41 48
41 60
41 65
42 16
42 28
42 44
42 54
42 62
42 69
43 10
43 26
43 27
43 49
43 53
43 57
43 58
43 64
43 67
43 70
44 16
44 42
44 47
44 54
44 69
45 6
45 15
45 29
45 40
45 52
45 56
45 66
45 77
45 83
46 12
46 25
46 34
46 39
46 50
46 78
46 79
47 22
47 33
47 44
47 48
47 69
47 73
47 85
48 22
48 33
48 41
48 47
48 73
49 18
49 26
49 36
49 43
49 57
49 60
49 63
49 70
49 74
49 81
50 25
50 34
50 46
50 62
50 79
51 17
51 24
51 32
51 35
51 40
51 52
51 66
51 76
51 80
51 90
52 17
52 24
52 32
52 40
52 45
52 51
52 66
52 77
52 80
53 13
53 27
53 35
53 43
53 58
53 64
53 67
53 76
53 82
53 89
54 16
54 28
54 42
54 44
54 62
54 69
54 91
55 23
55 37
55 38
55 59
55 68
55 86
56 21
56 45
56 71
56 83
56 93
57 18
57 26
57 43
57 49
57 58
57 63
57 67
57 70
57 81
58 26
58 27
58 35
58 43
58 53
58 57
58 64
58 67
58 82
58 89
59 30
59 37
59 55
59 72
59 86
60 20
60 36
60 41
60 49
60 63
60 65
60 70
60 74
60 81
60 88
61 31
61 34
61 39
61 68
61 75
61 78
61 96
62 28
62 42
62 50
62 54
62 84
62 87
63 36
63 49
63 57
63 60
63 65
63 70
63 74
63 81
64 27
64 35
64 43
64 53
64 58
64 67
64 76
64 82
64 89
65 41
65 60
65 63
65 74
65 88
65 92
66 32
66 40
66 45
66 51
66 52
66 77
66 80
66 83
66 90
66 99
67 43
67 53
67 57
67 58
67 64
67 76
67 82
67 89
68 38
68 55
68 61
68 75
68 86
68 94
69 42
69 44
69 47
69 54
69 91
69 100
70 43
70 49
70 57
70 60
70 63
70 74
70 81
70 95
70 102
71 56
71 83
71 93
72 30
72 37
72 59
72 86
72 98
73 47
73 48
73 85
73 92
73 97
73 104
74 36
74 49
74 60
74 63
74 65
74 70
74 81
74 88
74 109
75 39
75 61
75 68
75 78
75 94
75 96
76 51
76 53
76 64
76 67
76 80
76 82
76 89
76 90
76 107
76 114
77 40
77 45
77 52
77 66
77 83
77 90
77 99
77 101
77 105
78 46
78 61
78 75
78 79
78 96
78 103
79 46
79 50
79 78
79 87
79 103
80 51
80 52
80 66
80 76
80 82
80 90
80 99
80 107
80 110
81 49
81 57
81 60
81 63
81 70
81 74
81 95
81 102
81 109
82 53
82 58
82 64
82 67
82 76
82 80
82 89
82 107
82 114
83 45
83 56
83 66
83 71
83 77
83 93
83 101
83 105
84 62
84 87
84 91
84 108
84 112
85 47
85 73
85 97
85 104
86 55
86 59
86 68
86 72
86 94
86 98
86 111
86 120
87 62
87 79
87 84
87 108
87 125
88 60
88 65
88 74
88 92
88 117
89 53
89 58
89 64
89 67
89 76
89 82
89 95
89 106
89 107
89 114
89 115
89 124
90 51
90 66
90 76
90 77
90 80
90 99
90 107
90 110
91 54
91 69
91 84
91 100
91 112
91 122
92 65
92 73
92 88
92 97
92 117
92 118
93 56
93 71
93 83
93 101
94 68
94 75
94 86
94 96
94 111
94 113
94 116
95 70
95 81
95 89
95 102
95 106
95 109
95 115
96 61
96 75
96 78
96 94
96 103
96 113
96 116
96 126
97 73
97 85
97 92
97 104
97 117
97 118
98 72
98 86
98 119
98 120
99 66
99 77
99 80
99 90
99 105
99 110
99 128
99 135
99 136
100 69
100 91
100 122
101 77
101 83
101 93
101 105
101 123
101 128
101 131
102 70
102 81
102 95
102 106
102 109
102 115
102 134
103 78
103 79
103 96
103 116
103 121
103 126
103 142
104 73
104 85
104 97
104 118
104 133
104 137
105 77
105 83
105 99
105 101
105 110
105 123
105 128
105 135
106 89
106 95
106 102
106 114
106 115
106 124
106 130
106 134
107 76
107 80
107 82
107 89
107 90
107 110
107 114
107 127
107 130
108 84
108 87
108 112
108 121
108 125
108 129
108 143
109 74
109 81
109 95
109 102
109 115
109 132
110 80
110 90
110 99
110 105
110 107
110 127
110 135
110 136
111 86
111 94
111 113
111 120
111 138
112 84
112 91
112 108
112 125
112 129
112 146
113 94
113 96
113 111
113 116
113 138
113 144
114 76
114 82
114 89
114 106
114 107
114 124
114 127
114 130
115 89
115 95
115 102
115 106
115 109
115 124
115 134
116 94
116 96
116 103
116 113
116 126
116 144
116 152
117 88
117 92
117 97
117 118
117 132
117 137
117 139
117 147
117 156
118 92
118 97
118 104
118 117
118 133
118 137
118 139
119 98
119 120
119 148
119 149
120 86
120 98
120 111
120 119
120 138
120 148
120 149
121 103
121 108
121 125
121 126
121 141
121 142
122 91
122 100
122 129
122 145
123 101
123 105
123 128
123 131
123 135
123 140
123 151
123 159
124 89
124 106
124 114
124 115
124 130
124 134
124 153
125 87
125 108
125 112
125 121
125 129
125 141
125 143
125 146
125 164
126 96
126 103
126 116
126 121
126 142
126 152
126 161
127 107
127 110
127 114
127 130
127 136
127 155
127 157
128 99
128 101
128 105
128 123
128 135
128 136
128 151
128 158
128 159
129 108
129 112
129 122
129 125
129 143
129 146
130 106
130 107
130 114
130 124
130 127
130 153
130 157
130 162
131 101
131 123
131 140
131 151
132 109
132 117
132 139
132 147
132 150
132 154
133 104
133 118
133 137
133 167
134 102
134 106
134 115
134 124
134 150
134 153
134 168
135 99
135 105
135 110
135 123
135 128
135 136
135 155
135 158
135 159
136 99
136 110
136 127
136 128
136 135
136 155
136 157
136 158
136 174
137 104
137 117
137 118
137 133
137 139
137 156
137 167
138 111
138 113
138 120
138 144
138 148
138 160
138 165
139 117
139 118
139 132
139 137
139 147
139 154
139 156
139 177
140 123
140 131
140 151
141 121
141 125
141 142
141 143
141 163
141 164
142 103
142 121
142 126
142 141
142 152
142 161
142 163
143 108
143 125
143 129
143 141
143 146
143 164
143 171
144 113
144 116
144 138
144 152
144 160
144 161
145 122
145 166
145 176
146 112
146 125
146 129
146 143
146 171
147 117
147 132
147 139
147 154
147 156
147 170
147 177
147 178
148 119
148 120
148 138
148 149
148 165
148 169
149 119
149 120
149 148
149 165
149 169
150 132
150 134
150 153
150 154
150 168
150 170
150 173
151 123
151 128
151 131
151 140
151 158
151 159
151 175
151 181
152 116
152 126
152 142
152 144
152 160
152 161
152 163
152 191
153 124
153 130
153 134
153 150
153 162
153 168
153 172
154 132
154 139
154 147
154 150
154 156
154 170
154 173
154 178
154 192
155 127
155 135
155 136
155 157
155 158
155 159
155 174
155 179
155 180
156 117
156 137
156 139
156 147
156 154
156 167
156 177
156 178
156 195
157 127
157 130
157 136
157 155
157 162
157 174
157 180
157 183
158 128
158 135
158 136
158 151
158 155
158 159
158 174
158 175
158 179
159 123
159 128
159 135
159 151
159 155
159 158
159 175
159 179
159 181
159 198
160 138
160 144
160 152
160 161
160 165
160 184
161 126
161 142
161 144
161 152
161 160
161 163
161 191
161 196
162 130
162 153
162 157
162 172
162 180
162 183
162 194
162 204
163 141
163 142
163 152
163 161
163 164
163 182
163 185
163 190
163 196
164 125
164 141
164 143
164 163
164 171
164 182
164 185
164 190
165 138
165 148
165 149
165 160
165 169
165 184
165 186
165 199
166 145
166 176
166 206
167 133
167 137
167 156
167 177
167 187
167 200
168 134
168 150
168 153
168 172
168 173
168 194
168 197
168 202
169 148
169 149
169 165
169 186
169 193
170 147
170 150
170 154
170 173
170 177
170 178
170 192
170 197
170 208
171 143
171 146
171 164
171 185
171 188
171 205
172 153
172 162
172 168
172 173
172 183
172 194
172 202
172 204
173 150
173 154
173 168
173 170
173 172
173 192
173 194
173 197
173 202
174 136
174 155
174 157
174 158
174 179
174 180
174 198
174 209
175 151
175 158
175 159
175 179
175 181
175 198
175 201
175 203
176 145
176 166
176 188
176 206
177 139
177 147
177 156
177 167
177 170
177 178
177 195
177 200
178 147
178 154
178 156
178 170
178 177
178 192
178 195
178 208
179 155
179 158
179 159
179 174
179 175
179 198
179 203
179 209
180 155
180 157
180 162
180 174
180 183
180 204
180 209
180 211
181 151
181 159
181 175
181 189
181 201
181 203
181 207
181 218
182 163
182 164
182 185
182 190
182 196
182 205
182 212
182 216
183 157
183 162
183 172
183 180
183 194
183 204
183 211
183 220
184 160
184 165
184 186
184 191
184 199
184 210
185 163
185 164
185 171
185 182
185 190
185 205
185 212
186 165
186 169
186 184
186 193
186 199
186 215
186 219
187 167
187 200
187 214
188 171
188 176
188 205
188 206
188 213
188 217
189 181
189 201
189 207
190 163
190 164
190 182
190 185
190 191
190 196
190 212
190 216
191 152
191 161
191 184
191 190
191 196
191 210
191 221
192 154
192 170
192 173
192 178
192 195
192 197
192 208
192 225
193 169
193 186
193 199
193 215
193 219
194 162
194 168
194 172
194 173
194 183
194 202
194 204
194 220
194 224
195 156
195 177
195 178
195 192
195 200
195 222
195 227
196 161
196 163
196 182
196 190
196 191
196 212
196 216
196 221
197 168
197 170
197 173
197 192
197 202
197 208
197 225
197 232
198 159
198 174
198 175
198 179
198 203
198 209
198 228
198 229
199 165
199 184
199 186
199 193
199 215
199 219
199 223
200 167
200 177
200 187
200 195
200 214
200 222
200 227
201 175
201 181
201 189
201 203
201 207
201 218
201 235
202 168
202 172
202 173
202 194
202 197
202 224
202 232
203 175
203 179
203 181
203 198
203 201
203 218
203 229
203 235
204 162
204 172
204 180
204 183
204 194
204 211
204 220
204 224
204 233
204 239
205 171
205 182
205 185
205 188
205 212
205 213
205 217
205 236
206 166
206 176
206 188
206 213
206 226
206 231
206 234
207 181
207 189
207 201
207 218
208 170
208 178
208 192
208 197
208 225
208 232
209 174
209 179
209 180
209 198
209 211
209 228
209 233
209 237
209 242
210 184
210 191
210 221
210 223
210 230
211 180
211 183
211 204
211 209
211 220
211 233
212 182
212 185
212 190
212 196
212 205
212 216
212 240
213 188
213 205
213 206
213 217
213 231
213 234
213 236
214 187
214 200
214 226
214 227
214 241
215 186
215 193
215 199
215 219
215 238
216 182
216 190
216 196
216 212
216 221
216 240
216 246
216 247
217 188
217 205
217 213
217 231
217 236
217 248
218 181
218 201
218 203
218 207
218 229
218 235
218 245
218 252
219 186
219 193
219 199
219 215
219 223
219 238
220 183
220 194
220 204
220 211
220 224
220 233
220 239
220 255
220 259
221 191
221 196
221 210
221 216
221 230
221 246
221 247
221 249
222 195
222 200
222 225
222 227
222 243
222 250
222 253
223 199
223 210
223 219
223 230
223 249
223 257
224 194
224 202
224 204
224 220
224 232
224 239
224 254
224 255
225 192
225 197
225 208
225 222
225 232
225 243
225 253
225 260
226 206
226 214
226 234
226 241
226 251
227 195
227 200
227 214
227 222
227 241
227 243
227 250
227 263
228 198
228 209
228 229
228 233
228 237
228 242
228 244
229 198
229 203
229 218
229 228
229 235
229 237
229 244
229 252
229 256
230 210
230 221
230 223
230 249
230 257
231 206
231 213
231 217
231 234
231 236
231 251
232 197
232 202
232 208
232 224
232 225
232 254
232 260
233 204
233 209
233 211
233 220
233 228
233 239
233 242
233 259
234 206
234 213
234 226
234 231
234 251
235 201
235 203
235 218
235 229
235 244
235 245
235 252
235 256
235 275
236 205
236 213
236 217
236 231
236 240
236 248
236 268
236 270
237 209
237 228
237 229
237 242
237 244
237 256
237 267
237 269
238 215
238 219
238 261
239 204
239 220
239 224
239 233
239 254
239 255
239 259
239 266
240 212
240 216
240 236
240 247
240 248
240 258
240 276
241 214
241 226
241 227
241 250
241 262
241 263
242 209
242 228
242 233
242 237
242 244
242 259
242 267
242 269
243 222
243 225
243 227
243 250
243 253
243 263
243 277
244 228
244 229
244 235
244 237
244 242
244 252
244 256
244 269
245 218
245 235
245 252
245 275
245 283
246 216
246 221
246 247
246 249
246 264
246 271
246 276
247 216
247 221
247 240
247 246
247 258
247 264
247 276
248 217
248 236
248 240
248 258
248 268
248 270
249 221
249 223
249 230
249 246
249 257
249 271
249 273
249 279
250 222
250 227
250 241
250 243
250 253
250 262
250 263
251 226
251 231
251 234
251 268
251 272
252 218
252 229
252 235
252 244
252 245
252 256
252 269
252 275
252 287
253 222
253 225
253 243
253 250
253 260
253 277
253 280
254 224
254 232
254 239
254 255
254 260
254 266
254 278
254 281
254 284
254 290
255 220
255 224
255 239
255 254
255 259
255 266
255 274
255 281
256 229
256 235
256 237
256 244
256 252
256 269
256 275
256 287
257 223
257 230
257 249
257 265
257 273
257 279
257 285
258 240
258 247
258 248
258 264
258 270
258 276
258 282
259 220
259 233
259 239
259 242
259 255
259 266
259 267
259 274
259 289
259 296
260 225
260 232
260 253
260 254
260 277
260 278
260 280
260 290
261 238
261 265
261 286
262 241
262 250
262 263
262 292
262 298
263 227
263 241
263 243
263 250
263 262
263 292
263 298
264 246
264 247
264 258
264 271
264 276
264 295
264 297
265 257
265 261
265 279
265 285
265 286
266 239
266 254
266 255
266 259
266 274
266 281
266 284
267 237
267 242
267 259
267 269
267 288
267 289
267 294
268 236
268 248
268 251
268 270
268 293
268 304
269 237
269 242
269 244
269 252
269 256
269 267
269 287
269 288
269 294
270 236
270 248
270 258
270 268
270 282
270 291
270 293
271 246
271 249
271 264
271 273
271 276
271 295
271 297
271 299
272 251
272 300
273 249
273 257
273 271
273 279
273 285
273 299
273 305
274 255
274 259
274 266
274 281
274 289
274 296
274 306
275 235
275 245
275 252
275 256
275 283
275 287
275 302
276 240
276 246
276 247
276 258
276 264
276 271
276 282
276 295
276 297
276 301
277 243
277 253
277 260
277 278
277 280
277 298
277 308
278 254
278 260
278 277
278 280
278 284
278 290
278 309
279 249
279 257
279 265
279 273
279 285
279 299
279 305
280 253
280 260
280 277
280 278
280 290
280 308
280 309
281 254
281 255
281 266
281 274
281 284
281 290
281 296
281 303
282 258
282 270
282 276
282 291
282 297
282 301
282 315
283 245
283 275
283 302
284 254
284 266
284 278
284 281
284 290
284 303
284 322
285 257
285 265
285 273
285 279
285 286
285 305
285 318
286 261
286 265
286 285
286 318
286 324
287 252
287 256
287 269
287 275
287 294
287 302
287 312
287 321
288 267
288 269
288 289
288 294
288 306
288 307
288 312
288 326
289 259
289 267
289 274
289 288
289 296
289 306
289 307
289 320
289 329
290 254
290 260
290 278
290 280
290 281
290 284
290 303
290 309
290 322
291 270
291 282
291 293
291 301
291 304
291 313
291 323
292 262
292 263
292 298
292 310
292 311
292 328
293 268
293 270
293 291
293 304
293 313
293 323
293 325
294 267
294 269
294 287
294 288
294 302
294 307
294 312
294 321
294 326
295 264
295 271
295 276
295 297
295 299
295 315
295 317
295 333
296 259
296 274
296 281
296 289
296 306
296 320
296 329
297 264
297 271
297 276
297 282
297 295
297 301
297 315
297 317
297 334
298 262
298 263
298 277
298 292
298 310
298 311
299 271
299 273
299 279
299 295
299 305
299 317
299 319
300 272
300 304
300 314
300 316
300 325
301 276
301 282
301 291
301 297
301 313
301 315
301 334
301 337
302 275
302 283
302 287
302 294
302 321
302 335
303 281
303 284
303 290
303 322
303 338
304 268
304 291
304 293
304 300
304 313
304 314
304 316
304 323
304 325
305 273
305 279
305 285
305 299
305 319
305 327
306 274
306 288
306 289
306 296
306 307
306 320
306 329
307 288
307 289
307 294
307 306
307 312
307 326
307 346
308 277
308 280
308 309
308 311
308 330
308 331
309 278
309 280
309 290
309 308
309 322
309 330
309 331
309 338
310 292
310 298
310 311
310 328
310 345
311 292
311 298
311 308
311 310
311 328
311 330
311 341
311 345
312 287
312 288
312 294
312 307
312 321
312 326
312 339
313 291
313 293
313 301
313 304
313 323
313 325
313 332
313 337
313 349
313 351
314 300
314 304
314 316
314 323
314 325
314 340
314 344
315 282
315 295
315 297
315 301
315 317
315 333
315 334
315 337
316 300
316 304
316 314
316 325
316 340
316 344
317 295
317 297
317 299
317 315
317 319
317 333
317 334
318 285
318 286
318 324
318 327
318 342
318 343
319 299
319 305
319 317
319 327
319 333
319 348
320 289
320 296
320 306
320 329
320 336
320 352
321 287
321 294
321 302
321 312
321 326
321 335
321 339
322 284
322 290
322 303
322 309
322 331
322 336
322 338
322 347
323 291
323 293
323 304
323 313
323 314
323 325
323 332
323 349
323 351
323 354
324 286
324 318
324 342
324 343
325 293
325 300
325 304
325 313
325 314
325 316
325 323
325 332
325 344
325 349
325 354
326 288
326 294
326 307
326 312
326 321
326 329
326 346
326 361
327 305
327 318
327 319
327 342
327 348
328 292
328 310
328 311
328 340
328 341
328 345
328 363
329 289
329 296
329 306
329 320
329 326
329 336
329 346
329 352
329 365
330 308
330 309
330 311
330 331
330 341
330 355
330 356
331 308
331 309
331 322
331 330
331 338
331 356
331 357
332 313
332 323
332 325
332 337
332 349
332 351
332 366
333 295
333 315
333 317
333 319
333 334
333 348
333 359
333 360
333 370
334 297
334 301
334 315
334 317
334 333
334 337
334 359
334 360
334 371
335 302
335 321
335 339
335 350
335 362
335 369
336 320
336 322
336 329
336 347
336 352
336 353
336 375
337 301
337 313
337 315
337 332
337 334
337 351
337 360
337 366
337 371
338 303
338 309
338 322
338 331
338 347
338 357
338 364
339 312
339 321
339 335
339 369
340 314
340 316
340 328
340 344
340 358
341 311
341 328
341 330
341 345
341 355
341 356
341 373
342 318
342 324
342 327
342 343
342 372
343 318
343 324
343 342
344 314
344 316
344 325
344 340
344 354
344 358
345 310
345 311
345 328
345 341
345 355
345 363
345 373
346 307
346 326
346 329
346 352
346 361
346 365
346 367
347 322
347 336
347 338
347 353
347 357
347 364
347 379
348 319
348 327
348 333
348 368
348 370
348 383
349 313
349 323
349 325
349 332
349 351
349 354
349 366
349 374
349 377
350 335
350 362
350 369
351 313
351 323
351 332
351 337
351 349
351 354
351 366
351 374
351 377
352 320
352 329
352 336
352 346
352 353
352 365
352 367
352 375
353 336
353 347
353 352
353 364
353 375
353 391
354 323
354 325
354 344
354 349
354 351
354 358
354 374
354 377
354 386
355 330
355 341
355 345
355 356
355 373
355 381
356 330
356 331
356 341
356 355
356 357
356 381
356 382
357 331
357 338
357 347
357 356
357 364
357 379
357 382
357 392
358 340
358 344
358 354
358 374
359 333
359 334
359 360
359 370
359 371
359 385
359 390
360 333
360 334
360 337
360 359
360 370
360 371
360 378
360 385
361 326
361 346
361 365
361 367
361 376
361 384
361 388
362 335
362 350
362 369
362 376
363 328
363 345
363 373
363 387
363 393
364 338
364 347
364 353
364 357
364 375
364 379
364 392
365 329
365 346
365 352
365 361
365 367
365 375
365 398
366 332
366 337
366 349
366 351
366 371
366 374
366 377
366 378
366 394
367 346
367 352
367 361
367 365
367 388
368 348
368 370
368 372
368 383
368 389
369 335
369 339
369 350
369 362
369 376
369 384
369 397
369 399
370 333
370 348
370 359
370 360
370 368
370 383
370 390
371 334
371 337
371 359
371 360
371 366
371 378
371 385
371 400
372 342
372 368
372 380
372 389
372 404
373 341
373 345
373 355
373 363
373 381
373 387
373 393
374 349
374 351
374 354
374 358
374 366
374 377
374 386
374 403
375 336
375 352
375 353
375 364
375 365
375 379
375 391
375 410
376 361
376 362
376 369
376 384
376 396
376 397
376 399
377 349
377 351
377 354
377 366
377 374
377 378
377 386
377 394
377 403
377 413
378 360
378 366
378 371
378 377
378 385
378 394
378 400
378 411
379 347
379 357
379 364
379 375
379 382
379 391
379 392
379 414
380 372
380 389
380 404
380 406
380 420
381 355
381 356
381 373
381 382
381 387
381 401
381 402
382 356
382 357
382 379
382 381
382 392
382 402
382 412
383 348
383 368
383 370
383 389
383 390
383 405
384 361
384 369
384 376
384 388
384 396
384 397
384 399
384 419
384 425
385 359
385 360
385 371
385 378
385 390
385 400
385 407
385 411
386 354
386 374
386 377
386 394
386 395
386 403
386 409
386 413
387 363
387 373
387 381
387 393
387 401
387 402
387 418
387 421
388 361
388 367
388 384
388 396
388 397
388 398
388 422
388 425
389 368
389 372
389 380
389 383
389 404
389 405
389 426
390 359
390 370
390 383
390 385
390 405
390 407
390 411
391 353
391 375
391 379
391 398
391 410
391 417
392 357
392 364
392 379
392 382
392 412
392 414
392 424
392 431
393 363
393 373
393 387
393 401
393 418
393 428
394 366
394 377
394 378
394 386
394 400
394 403
394 413
395 386
395 409
395 416
395 437
396 376
396 384
396 388
396 397
396 399
396 419
396 422
396 423
396 425
397 369
397 376
397 384
397 388
397 396
397 399
397 415
397 419
397 423
397 425
398 365
398 388
398 391
398 410
398 417
398 422
398 433
399 369
399 376
399 384
399 396
399 397
399 408
399 415
399 419
399 423
399 427
400 371
400 378
400 385
400 394
400 411
400 413
400 434
400 435
401 381
401 387
401 393
401 402
401 418
401 421
401 438
402 381
402 382
402 387
402 401
402 412
402 421
402 429
402 443
403 374
403 377
403 386
403 394
403 409
403 413
403 430
404 372
404 380
404 389
404 405
404 420
404 426
405 383
405 389
405 390
405 404
405 407
405 436
406 380
406 420
406 440
407 385
407 390
407 405
407 411
407 434
407 447
408 399
408 415
408 423
408 427
408 449
409 386
409 395
409 403
409 413
409 416
409 430
409 437
409 446
410 375
410 391
410 398
410 417
410 424
410 441
410 442
411 378
411 385
411 390
411 400
411 407
411 434
411 435
412 382
412 392
412 402
412 414
412 429
412 431
412 443
413 377
413 386
413 394
413 400
413 403
413 409
413 430
413 439
413 446
414 379
414 392
414 412
414 424
414 429
414 431
414 442
415 397
415 399
415 408
415 419
415 423
415 427
415 449
416 395
416 409
416 430
416 437
416 450
417 391
417 398
417 410
417 422
417 433
417 441
417 448
418 387
418 393
418 401
418 421
418 428
418 438
418 445
419 384
419 396
419 397
419 399
419 415
419 423
419 425
419 432
419 444
420 380
420 404
420 406
420 426
420 440
421 387
421 401
421 402
421 418
421 438
421 443
421 445
421 456
422 388
422 396
422 398
422 417
422 425
422 432
422 433
422 448
422 451
423 396
423 397
423 399
423 408
423 415
423 419
423 425
423 427
423 444
423 465
424 392
424 410
424 414
424 431
424 441
424 442
424 452
425 384
425 388
425 396
425 397
425 419
425 422
425 423
425 432
425 444
425 451
425 460
425 463
426 389
426 404
426 420
426 436
426 440
426 458
427 399
427 408
427 415
427 423
427 449
428 393
428 418
428 445
428 453
429 402
429 412
429 414
429 431
429 443
429 461
430 403
430 409
430 413
430 416
430 437
430 446
430 450
430 455
430 464
431 392
431 412
431 414
431 424
431 429
431 442
431 452
431 461
432 419
432 422
432 425
432 433
432 444
432 451
432 460
433 398
433 417
433 422
433 432
433 441
433 448
433 451
434 400
434 407
434 411
434 435
434 447
434 457
434 462
435 400
435 411
435 434
435 439
435 457
436 405
436 426
436 447
436 458
436 459
437 395
437 409
437 416
437 430
437 450
438 401
438 418
438 421
438 443
438 445
438 456
439 413
439 435
439 446
439 455
439 457
439 464
440 406
440 420
440 426
440 458
441 410
441 417
441 424
441 433
441 442
441 448
441 454
442 410
442 414
442 424
442 431
442 441
442 452
442 454
443 402
443 412
443 421
443 429
443 438
443 456
443 461
444 419
444 423
444 425
444 432
444 451
444 460
444 463
444 465
445 418
445 421
445 428
445 438
445 453
445 456
446 409
446 413
446 430
446 439
446 450
446 455
446 464
447 407
447 434
447 436
447 459
447 462
448 417
448 422
448 433
448 441
448 451
448 454
449 408
449 415
449 427
449 465
450 416
450 430
450 437
450 446
450 453
451 422
451 425
451 432
451 433
451 444
451 448
451 460
451 463
452 424
452 431
452 442
452 454
452 461
453 428
453 445
453 450
454 441
454 442
454 448
454 452
455 430
455 439
455 446
455 464
456 421
456 438
456 443
456 445
457 434
457 435
457 439
457 462
458 426
458 436
458 440
458 459
459 436
459 447
459 458
460 425
460 432
460 444
460 451
460 463
460 465
461 429
461 431
461 443
461 452
462 434
462 447
462 457
463 425
463 444
463 451
463 460
463 465
464 430
464 439
464 446
464 455
465 423
465 444
465 449
465 460
465 463
