1 9
1 18
1 23
1 28
2 8
2 20
2 22
3 11
3 16
3 26
3 39
4 27
4 31
4 37
5 14
5 17
5 24
6 10
6 30
7 13
7 29
7 31
7 35
8 2
8 13
8 22
8 29
9 1
9 19
9 23
9 28
10 6
10 14
10 30
11 3
11 21
11 26
11 39
12 16
12 25
12 38
12 44
13 7
13 8
13 29
13 43
14 5
14 10
14 24
15 21
15 32
15 36
16 3
16 12
16 26
16 44
17 5
17 18
17 24
17 33
18 1
18 17
18 23
18 33
19 9
19 28
19 34
20 2
20 22
20 25
20 40
20 41
21 11
21 15
21 26
21 32
21 39
21 49
22 2
22 8
22 20
22 40
22 41
22 45
23 1
23 9
23 18
23 28
23 33
24 5
24 14
24 17
24 50
25 12
25 20
25 38
25 40
25 42
26 3
26 11
26 16
26 21
26 32
26 39
26 48
27 4
27 31
27 34
27 37
28 1
28 9
28 19
28 23
29 7
29 8
29 13
29 35
29 43
29 45
30 6
30 10
30 46
30 47
31 4
31 7
31 27
31 35
31 37
32 15
32 21
32 26
32 36
32 39
32 49
32 51
33 17
33 18
33 23
33 57
33 58
34 19
34 27
34 37
35 7
35 29
35 31
35 43
36 15
36 32
36 51
36 59
37 4
37 27
37 31
37 34
38 12
38 25
38 42
38 44
38 53
39 3
39 11
39 21
39 26
39 32
39 48
39 49
39 54
39 55
40 20
40 22
40 25
40 41
40 42
40 63
41 20
41 22
41 40
41 45
42 25
42 38
42 40
42 53
42 63
43 13
43 29
43 35
43 45
44 12
44 16
44 38
44 48
44 53
44 66
45 22
45 29
45 41
45 43
45 68
46 30
46 47
47 30
47 46
47 52
48 26
48 39
48 44
48 54
48 55
48 66
49 21
49 32
49 39
49 51
49 54
49 59
50 24
50 52
50 58
50 62
50 65
51 32
51 36
51 49
51 59
52 47
52 50
52 62
52 65
52 78
53 38
53 42
53 44
53 66
54 39
54 48
54 49
54 55
55 39
55 48
55 54
55 66
56 61
56 64
56 73
56 76
57 33
57 58
57 60
57 61
57 80
58 33
58 50
58 57
58 60
58 65
59 36
59 49
59 51
60 57
60 58
60 61
60 64
60 76
60 80
61 56
61 57
61 60
61 64
61 76
61 80
62 50
62 52
62 65
62 78
62 84
63 40
63 42
63 82
63 83
64 56
64 60
64 61
64 73
64 76
65 50
65 52
65 58
65 62
65 78
65 87
66 44
66 48
66 53
66 55
66 81
67 72
67 73
67 74
68 45
68 70
68 71
69 74
69 75
69 102
70 68
70 71
70 82
70 89
71 68
71 70
71 75
71 103
72 67
72 74
72 98
72 100
73 56
73 64
73 67
73 76
73 91
73 96
73 98
74 67
74 69
74 72
74 75
74 100
74 102
75 69
75 71
75 74
75 102
75 106
76 56
76 60
76 61
76 64
76 73
76 80
76 91
76 109
77 78
77 79
77 95
77 97
77 114
78 52
78 62
78 65
78 77
78 79
78 84
78 87
78 95
78 107
78 110
79 77
79 78
79 84
79 95
79 97
79 110
79 114
80 57
80 60
80 61
80 76
80 86
80 104
80 111
80 116
81 66
81 85
81 88
81 94
81 101
81 105
82 63
82 70
82 83
82 89
83 63
83 82
83 85
83 99
84 62
84 78
84 79
84 87
84 107
84 110
85 81
85 83
85 99
85 101
85 120
86 80
86 104
86 111
86 116
87 65
87 78
87 84
87 107
87 110
87 112
88 81
88 93
88 94
88 105
88 108
88 126
89 70
89 82
89 103
89 121
89 122
90 92
90 93
90 127
91 73
91 76
91 96
91 98
91 109
91 113
91 125
92 90
92 93
92 108
92 129
93 88
93 90
93 92
93 108
93 128
93 129
94 81
94 88
94 101
94 105
94 126
95 77
95 78
95 79
95 97
95 110
95 114
96 73
96 91
96 98
96 109
96 113
96 119
97 77
97 79
97 95
97 114
97 130
98 72
98 73
98 91
98 96
98 100
98 113
98 118
98 119
99 83
99 85
99 101
99 120
99 124
100 72
100 74
100 98
100 102
100 118
100 119
100 134
101 81
101 85
101 94
101 99
101 105
101 120
101 126
101 135
102 69
102 74
102 75
102 100
102 106
102 118
102 123
102 134
103 71
103 89
103 115
103 117
103 122
103 138
104 80
104 86
104 111
104 112
104 116
105 81
105 88
105 94
105 101
105 108
105 126
105 131
106 75
106 102
106 115
106 123
107 78
107 84
107 87
107 110
107 112
107 136
107 137
108 88
108 92
108 93
108 105
108 128
108 129
108 131
109 76
109 91
109 96
109 111
109 113
109 125
109 132
109 133
110 78
110 79
110 84
110 87
110 95
110 107
110 114
110 136
111 80
111 86
111 104
111 109
111 116
111 125
111 133
112 87
112 104
112 107
112 137
112 140
113 91
113 96
113 98
113 109
113 119
113 125
113 132
114 77
114 79
114 95
114 97
114 110
114 130
114 136
115 103
115 106
115 117
115 122
115 123
115 138
115 144
116 80
116 86
116 104
116 111
116 133
116 141
117 103
117 115
117 122
117 138
117 144
118 98
118 100
118 102
118 119
118 134
118 139
119 96
119 98
119 100
119 113
119 118
119 132
119 139
119 149
120 85
120 99
120 101
120 135
120 142
120 148
120 155
121 89
121 122
121 124
121 138
121 150
122 89
122 103
122 115
122 117
122 121
122 138
122 150
123 102
123 106
123 115
123 134
123 144
123 145
124 99
124 121
124 142
124 150
124 154
125 91
125 109
125 111
125 113
125 132
125 133
125 156
125 158
126 88
126 94
126 101
126 105
126 131
126 135
126 143
127 90
127 128
127 129
127 147
127 152
127 162
128 93
128 108
128 127
128 129
128 131
128 151
128 152
129 92
129 93
129 108
129 127
129 128
129 151
129 152
129 162
130 97
130 114
130 153
130 163
131 105
131 108
131 126
131 128
131 143
131 151
131 170
132 109
132 113
132 119
132 125
132 149
132 158
132 161
132 164
133 109
133 111
133 116
133 125
133 156
133 158
134 100
134 102
134 118
134 123
134 139
134 145
134 165
135 101
135 120
135 126
135 143
135 148
135 167
136 107
136 110
136 114
136 137
136 146
136 153
136 157
136 163
136 178
137 107
137 112
137 136
137 140
137 141
137 146
137 157
137 159
138 103
138 115
138 117
138 121
138 122
138 144
138 150
138 168
138 169
138 174
139 118
139 119
139 134
139 164
139 165
139 166
140 112
140 137
140 141
140 146
140 157
140 159
140 160
141 116
141 137
141 140
141 156
141 159
141 160
141 175
142 120
142 124
142 148
142 154
142 155
142 171
142 172
142 181
143 126
143 131
143 135
143 151
143 170
143 177
143 189
144 115
144 117
144 123
144 138
144 145
144 169
144 173
144 174
145 123
145 134
145 144
145 165
145 173
145 176
146 136
146 137
146 140
146 157
146 159
146 186
147 127
147 162
148 120
148 135
148 142
148 155
148 167
148 183
149 119
149 132
149 161
149 164
149 166
149 180
149 185
150 121
150 122
150 124
150 138
150 154
150 168
150 171
150 172
150 188
151 128
151 129
151 131
151 143
151 152
151 162
151 170
151 182
151 189
152 127
152 128
152 129
152 151
152 162
152 182
152 187
153 130
153 136
153 163
153 178
153 179
154 124
154 142
154 150
154 155
154 171
154 172
154 181
154 194
155 120
155 142
155 148
155 154
155 167
155 171
155 181
155 183
156 125
156 133
156 141
156 158
156 160
156 175
156 190
157 136
157 137
157 140
157 146
157 159
157 186
157 192
158 125
158 132
158 133
158 156
158 161
158 180
158 190
158 198
159 137
159 140
159 141
159 146
159 157
159 160
159 191
159 192
160 140
160 141
160 156
160 159
160 175
160 191
161 132
161 149
161 158
161 164
161 180
161 185
161 195
161 198
161 200
162 127
162 129
162 147
162 151
162 152
162 182
162 187
162 193
162 205
163 130
163 136
163 153
163 178
163 179
163 207
164 132
164 139
164 149
164 161
164 166
164 180
164 185
164 197
164 200
165 134
165 139
165 145
165 166
165 176
165 196
166 139
166 149
166 164
166 165
166 185
166 196
166 197
166 200
167 135
167 148
167 155
167 177
167 181
167 183
167 199
168 138
168 150
168 169
168 171
168 172
168 184
168 188
168 206
169 138
169 144
169 168
169 174
169 184
169 188
169 204
169 206
170 131
170 143
170 151
170 177
170 189
170 202
170 203
171 142
171 150
171 154
171 155
171 168
171 172
171 181
171 194
171 210
171 211
172 142
172 150
172 154
172 168
172 171
172 184
172 188
172 194
172 210
172 211
173 144
173 145
173 174
173 176
173 204
173 212
174 138
174 144
174 169
174 173
174 184
174 204
174 206
175 141
175 156
175 160
175 190
175 191
176 145
176 165
176 173
176 196
176 212
177 143
177 167
177 170
177 183
177 189
177 199
177 202
177 203
178 136
178 153
178 163
178 179
178 186
178 207
178 209
178 219
179 153
179 163
179 178
179 201
179 207
179 209
180 149
180 158
180 161
180 164
180 185
180 195
180 198
180 200
180 217
181 142
181 154
181 155
181 167
181 171
181 183
181 194
181 199
181 210
181 221
181 223
182 151
182 152
182 162
182 187
182 189
182 193
182 205
182 208
182 220
182 225
183 148
183 155
183 167
183 177
183 181
183 194
183 199
183 203
183 221
184 168
184 169
184 172
184 174
184 188
184 204
184 206
184 214
184 222
185 149
185 161
185 164
185 166
185 180
185 195
185 197
185 198
185 200
185 217
185 234
186 146
186 157
186 178
186 192
186 209
186 213
186 224
187 152
187 162
187 182
187 193
187 205
187 227
188 150
188 168
188 169
188 172
188 184
188 206
188 211
188 214
189 143
189 151
189 170
189 177
189 182
189 202
189 203
189 208
189 220
189 235
190 156
190 158
190 175
190 191
190 198
190 215
190 231
191 159
191 160
191 175
191 190
191 192
191 215
192 157
192 159
192 186
192 191
192 213
192 215
192 224
192 226
193 162
193 182
193 187
193 205
193 227
193 232
194 154
194 171
194 172
194 181
194 183
194 210
194 211
194 221
194 223
194 229
195 161
195 180
195 185
195 198
195 200
195 217
195 237
196 165
196 166
196 176
196 197
196 216
196 233
197 164
197 166
197 185
197 196
197 200
197 216
197 234
198 158
198 161
198 180
198 185
198 190
198 195
198 200
198 217
198 231
199 167
199 177
199 181
199 183
199 202
199 203
199 221
199 228
200 161
200 164
200 166
200 180
200 185
200 195
200 197
200 198
200 217
200 234
200 237
201 179
201 207
201 230
202 170
202 177
202 189
202 199
202 203
202 208
202 220
202 228
202 235
203 170
203 177
203 183
203 189
203 199
203 202
203 228
203 235
204 169
204 173
204 174
204 184
204 206
204 212
204 218
204 222
204 238
205 162
205 182
205 187
205 193
205 208
205 220
205 225
205 227
206 168
206 169
206 174
206 184
206 188
206 204
206 214
206 222
206 240
207 163
207 178
207 179
207 201
207 209
207 219
207 230
207 236
208 182
208 189
208 202
208 205
208 220
208 225
208 235
209 178
209 179
209 186
209 207
209 213
209 219
209 224
209 230
209 236
209 242
210 171
210 172
210 181
210 194
210 211
210 214
210 223
210 229
211 171
211 172
211 188
211 194
211 210
211 214
211 223
211 229
211 254
212 173
212 176
212 204
212 218
212 233
212 238
212 247
212 249
213 186
213 192
213 209
213 219
213 224
213 226
213 239
213 241
213 242
214 184
214 188
214 206
214 210
214 211
214 222
214 229
214 240
214 254
215 190
215 191
215 192
215 226
215 239
215 243
216 196
216 197
216 233
216 234
216 244
216 247
216 255
217 180
217 185
217 195
217 198
217 200
217 234
217 237
217 245
217 250
217 259
218 204
218 212
218 222
218 233
218 238
218 249
219 178
219 207
219 209
219 213
219 224
219 230
219 236
219 242
220 182
220 189
220 202
220 205
220 208
220 225
220 235
220 256
220 257
221 181
221 183
221 194
221 199
221 223
221 228
221 251
221 252
222 184
222 204
222 206
222 214
222 218
222 238
222 240
222 248
223 181
223 194
223 210
223 211
223 221
223 229
223 251
223 252
223 260
224 186
224 192
224 209
224 213
224 219
224 226
224 236
224 239
224 241
224 242
225 182
225 205
225 208
225 220
225 227
225 257
225 266
226 192
226 213
226 215
226 224
226 239
226 241
226 242
226 243
226 268
227 187
227 193
227 205
227 225
227 232
227 257
227 258
227 265
228 199
228 202
228 203
228 221
228 235
228 251
228 253
228 262
229 194
229 210
229 211
229 214
229 223
229 254
229 260
229 269
230 201
230 207
230 209
230 219
230 236
230 267
231 190
231 198
231 245
231 246
232 193
232 227
232 258
232 265
233 196
233 212
233 216
233 218
233 238
233 247
233 249
233 255
233 270
233 271
234 185
234 197
234 200
234 216
234 217
234 237
234 244
234 250
234 259
234 263
235 189
235 202
235 203
235 208
235 220
235 228
235 253
235 256
235 261
236 207
236 209
236 219
236 224
236 230
236 242
236 267
236 272
237 195
237 200
237 217
237 234
237 245
237 250
237 259
238 204
238 212
238 218
238 222
238 233
238 247
238 248
238 249
238 270
238 275
239 213
239 215
239 224
239 226
239 241
239 242
239 243
239 268
240 206
240 214
240 222
240 248
240 254
240 264
240 274
240 275
241 213
241 224
241 226
241 239
241 242
241 243
241 268
241 272
242 209
242 213
242 219
242 224
242 226
242 236
242 239
242 241
242 267
242 268
242 272
243 215
243 226
243 239
243 241
243 268
243 285
244 216
244 234
244 247
244 250
244 255
244 263
244 271
244 291
245 217
245 231
245 237
245 246
245 250
245 259
245 290
245 292
246 231
246 245
246 278
246 281
247 212
247 216
247 233
247 238
247 244
247 249
247 255
247 270
247 271
248 222
248 238
248 240
248 264
248 274
248 275
249 212
249 218
249 233
249 238
249 247
249 255
249 270
249 271
250 217
250 234
250 237
250 244
250 245
250 259
250 263
250 289
251 221
251 223
251 228
251 252
251 253
251 262
251 279
251 284
252 221
252 223
252 251
252 260
252 273
252 279
252 280
253 228
253 235
253 251
253 256
253 261
253 262
253 282
253 284
253 287
254 211
254 214
254 229
254 240
254 260
254 264
254 269
254 273
254 274
255 216
255 233
255 244
255 247
255 249
255 263
255 270
255 271
255 291
255 295
256 220
256 235
256 253
256 257
256 261
256 266
256 282
256 283
257 220
257 225
257 227
257 256
257 265
257 266
257 283
257 286
257 288
258 227
258 232
258 265
258 277
258 286
259 217
259 234
259 237
259 245
259 250
259 289
259 290
259 292
260 223
260 229
260 252
260 254
260 269
260 273
260 280
261 235
261 253
261 256
261 262
261 266
261 282
261 283
261 287
262 228
262 251
262 253
262 261
262 279
262 282
262 284
262 287
263 234
263 244
263 250
263 255
263 271
263 289
263 291
263 295
264 240
264 248
264 254
264 269
264 274
264 303
264 304
265 227
265 232
265 257
265 258
265 266
265 277
265 286
265 288
266 225
266 256
266 257
266 261
266 265
266 282
266 283
266 286
266 288
267 230
267 236
267 242
267 272
267 293
267 294
268 226
268 239
268 241
268 242
268 243
268 272
268 285
268 296
268 297
269 229
269 254
269 260
269 264
269 273
269 274
269 303
269 304
270 233
270 238
270 247
270 249
270 255
270 271
270 275
270 299
270 307
271 233
271 244
271 247
271 249
271 255
271 263
271 270
271 291
271 295
272 236
272 241
272 242
272 267
272 268
272 294
272 297
273 252
273 254
273 260
273 269
273 280
273 319
274 240
274 248
274 254
274 264
274 269
274 275
274 298
274 303
274 304
275 238
275 240
275 248
275 270
275 274
275 298
275 299
276 293
276 313
277 258
277 265
277 286
277 314
278 246
278 281
278 292
278 301
278 302
278 305
278 306
279 251
279 252
279 262
279 280
279 284
279 309
279 321
280 252
280 260
280 273
280 279
280 309
280 319
280 328
281 246
281 278
281 292
281 301
281 305
281 306
281 308
282 253
282 256
282 261
282 262
282 266
282 283
282 287
282 311
282 312
283 256
283 257
283 261
283 266
283 282
283 286
283 288
283 311
283 316
284 251
284 253
284 262
284 279
284 287
284 309
284 321
284 323
285 243
285 268
285 296
285 297
285 301
285 302
286 257
286 258
286 265
286 266
286 277
286 283
286 288
286 314
286 315
287 253
287 261
287 262
287 282
287 284
287 312
287 323
288 257
288 265
288 266
288 283
288 286
288 315
288 316
289 250
289 259
289 263
289 290
289 291
289 295
289 300
289 310
290 245
290 259
290 289
290 292
290 300
290 305
290 308
290 320
291 244
291 255
291 263
291 271
291 289
291 295
291 300
291 310
291 318
292 245
292 259
292 278
292 281
292 290
292 305
292 306
292 308
292 320
293 267
293 276
293 294
293 313
293 331
293 333
294 267
294 272
294 293
294 296
294 297
294 324
294 326
294 333
295 255
295 263
295 271
295 289
295 291
295 307
295 310
295 318
295 322
296 268
296 285
296 294
296 297
296 302
296 324
296 327
296 334
297 268
297 272
297 285
297 294
297 296
297 324
297 326
298 274
298 275
298 299
298 303
298 325
298 330
299 270
299 275
299 298
299 307
299 322
299 325
299 330
299 342
300 289
300 290
300 291
300 308
300 310
300 320
300 343
301 278
301 281
301 285
301 302
301 305
301 306
301 327
301 337
301 348
302 278
302 285
302 296
302 301
302 306
302 327
302 334
303 264
303 269
303 274
303 298
303 304
303 317
303 330
304 264
304 269
304 274
304 303
304 317
304 319
304 336
305 278
305 281
305 290
305 292
305 301
305 306
305 308
305 337
305 340
306 278
306 281
306 292
306 301
306 302
306 305
306 308
306 327
306 337
306 340
306 348
307 270
307 295
307 299
307 318
307 322
307 325
307 342
307 352
308 281
308 290
308 292
308 300
308 305
308 306
308 320
308 337
308 340
309 279
309 280
309 284
309 319
309 321
309 328
309 329
309 356
310 289
310 291
310 295
310 300
310 318
310 320
310 343
310 346
311 282
311 283
311 312
311 316
311 332
311 335
311 338
311 341
311 354
312 282
312 287
312 311
312 323
312 332
312 335
312 341
312 354
313 276
313 293
313 331
313 333
313 339
313 350
314 277
314 286
314 315
314 344
315 286
315 288
315 314
315 316
315 335
315 338
315 344
315 353
316 283
316 288
316 311
316 315
316 332
316 335
316 338
316 353
317 303
317 304
317 319
317 328
317 336
318 291
318 295
318 307
318 310
318 322
318 345
318 346
319 273
319 280
319 304
319 309
319 317
319 328
319 329
319 336
319 355
320 290
320 292
320 300
320 308
320 310
320 343
321 279
321 284
321 309
321 323
321 328
321 329
321 356
321 362
321 364
322 295
322 299
322 307
322 318
322 325
322 342
322 345
322 352
322 373
323 284
323 287
323 312
323 321
323 332
323 341
323 361
323 362
323 364
324 294
324 296
324 297
324 326
324 333
324 334
324 347
324 349
324 351
324 360
325 298
325 299
325 307
325 322
325 330
325 342
325 352
325 359
325 368
326 294
326 297
326 324
326 331
326 333
326 347
326 349
326 351
327 296
327 301
327 302
327 306
327 334
327 337
327 348
327 360
327 376
328 280
328 309
328 317
328 319
328 321
328 329
328 336
328 355
328 356
329 309
329 319
329 321
329 328
329 355
329 356
329 364
329 380
330 298
330 299
330 303
330 325
330 357
330 358
330 359
331 293
331 313
331 326
331 333
331 339
331 350
331 351
331 371
332 311
332 312
332 316
332 323
332 335
332 341
332 354
332 361
332 367
333 293
333 294
333 313
333 324
333 326
333 331
333 339
333 349
333 350
333 351
333 371
334 296
334 302
334 324
334 327
334 347
334 360
334 376
335 311
335 312
335 315
335 316
335 332
335 338
335 353
335 354
335 367
335 374
335 388
336 304
336 317
336 319
336 328
336 355
336 357
336 375
337 301
337 305
337 306
337 308
337 327
337 340
337 348
337 363
337 366
338 311
338 315
338 316
338 335
338 344
338 353
338 354
338 367
338 372
338 374
339 313
339 331
339 333
339 350
339 371
339 381
340 305
340 306
340 308
340 337
340 348
340 363
340 366
340 370
341 311
341 312
341 323
341 332
341 354
341 361
341 362
341 364
341 384
342 299
342 307
342 322
342 325
342 352
342 359
342 368
342 373
342 391
342 393
343 300
343 310
343 320
343 346
343 370
343 377
343 379
344 314
344 315
344 338
344 353
344 369
344 372
344 374
345 318
345 322
345 346
345 352
345 365
345 373
345 378
346 310
346 318
346 343
346 345
346 365
346 377
346 378
347 324
347 326
347 334
347 349
347 351
347 360
347 383
348 301
348 306
348 327
348 337
348 340
348 363
348 366
348 376
349 324
349 326
349 333
349 347
349 351
349 360
349 383
349 390
349 392
350 313
350 331
350 333
350 339
350 351
350 371
350 381
350 390
351 324
351 326
351 331
351 333
351 347
351 349
351 350
351 371
351 390
351 392
352 307
352 322
352 325
352 342
352 345
352 368
352 373
352 378
352 391
352 393
353 315
353 316
353 335
353 338
353 344
353 354
353 367
353 372
353 374
353 388
354 311
354 312
354 332
354 335
354 338
354 341
354 353
354 361
354 367
354 388
354 389
355 319
355 328
355 329
355 336
355 356
355 375
355 380
355 396
355 397
356 309
356 321
356 328
356 329
356 355
356 362
356 364
356 380
356 382
356 396
356 397
357 330
357 336
357 358
357 359
357 375
357 385
357 386
357 387
358 330
358 357
358 359
358 368
358 385
358 386
358 387
358 394
359 325
359 330
359 342
359 357
359 358
359 368
359 385
359 386
359 394
360 324
360 327
360 334
360 347
360 349
360 376
360 383
361 323
361 332
361 341
361 354
361 362
361 364
361 367
361 382
361 384
361 389
361 405
361 408
362 321
362 323
362 341
362 356
362 361
362 364
362 382
362 384
362 403
362 405
363 337
363 340
363 348
363 366
363 370
363 379
363 395
363 400
364 321
364 323
364 329
364 341
364 356
364 361
364 362
364 380
364 382
364 384
364 397
364 403
364 405
365 345
365 346
365 377
365 378
365 399
365 411
365 414
366 337
366 340
366 348
366 363
366 376
366 400
366 401
367 332
367 335
367 338
367 353
367 354
367 361
367 374
367 388
367 389
367 407
368 325
368 342
368 352
368 358
368 359
368 373
368 386
368 391
368 393
368 394
368 409
369 344
369 372
369 374
369 398
369 406
370 340
370 343
370 363
370 379
370 395
370 400
370 402
370 412
371 331
371 333
371 339
371 350
371 351
371 381
371 390
371 392
371 404
371 418
372 338
372 344
372 353
372 369
372 374
372 398
372 406
372 410
373 322
373 342
373 345
373 352
373 368
373 378
373 391
373 393
373 416
373 417
374 335
374 338
374 344
374 353
374 367
374 369
374 372
374 388
374 398
374 407
374 410
375 336
375 355
375 357
375 385
375 387
375 396
375 413
375 423
376 327
376 334
376 348
376 360
376 366
376 383
376 401
376 415
376 422
377 343
377 346
377 365
377 378
377 379
377 399
377 402
377 412
378 345
378 346
378 352
378 365
378 373
378 377
378 391
378 399
378 411
378 414
378 416
379 343
379 363
379 370
379 377
379 395
379 399
379 402
379 412
380 329
380 355
380 356
380 364
380 382
380 396
380 397
380 421
381 339
381 350
381 371
381 390
381 404
381 418
381 429
382 356
382 361
382 362
382 364
382 380
382 384
382 397
382 403
382 405
382 421
383 347
383 349
383 360
383 376
383 392
383 415
383 426
384 341
384 361
384 362
384 364
384 382
384 389
384 403
384 405
384 408
384 428
385 357
385 358
385 359
385 375
385 386
385 387
385 394
385 420
385 423
385 424
386 357
386 358
386 359
386 368
386 385
386 393
386 394
386 409
386 420
386 424
387 357
387 358
387 375
387 385
387 396
387 413
387 423
387 424
388 335
388 353
388 354
388 367
388 374
388 389
388 407
388 408
388 410
388 430
389 354
389 361
389 367
389 384
389 388
389 405
389 407
389 408
389 428
389 430
390 349
390 350
390 351
390 371
390 381
390 392
390 404
390 418
390 419
390 425
391 342
391 352
391 368
391 373
391 378
391 393
391 409
391 411
391 416
391 417
391 435
392 349
392 351
392 371
392 383
392 390
392 419
392 425
392 426
393 342
393 352
393 368
393 373
393 386
393 391
393 394
393 409
393 416
393 417
393 420
393 435
394 358
394 359
394 368
394 385
394 386
394 393
394 409
394 417
394 420
394 424
395 363
395 370
395 379
395 400
395 402
395 412
395 440
395 444
396 355
396 356
396 375
396 380
396 387
396 397
396 413
396 421
396 423
396 432
396 434
397 355
397 356
397 364
397 380
397 382
397 396
397 403
397 421
397 432
397 439
398 369
398 372
398 374
398 406
398 410
398 431
399 365
399 377
399 378
399 379
399 402
399 411
399 412
399 414
399 436
399 443
399 447
400 363
400 366
400 370
400 395
400 401
400 412
400 427
400 437
400 440
401 366
401 376
401 400
401 422
401 427
401 433
401 437
402 370
402 377
402 379
402 395
402 399
402 412
402 444
402 447
403 362
403 364
403 382
403 384
403 397
403 405
403 408
403 421
403 428
403 438
403 439
404 371
404 381
404 390
404 418
404 419
404 429
405 361
405 362
405 364
405 382
405 384
405 389
405 403
405 408
405 428
405 430
405 438
406 369
406 372
406 398
406 410
406 431
406 452
407 367
407 374
407 388
407 389
407 408
407 410
407 430
407 431
407 441
407 442
408 361
408 384
408 388
408 389
408 403
408 405
408 407
408 428
408 430
409 368
409 386
409 391
409 393
409 394
409 416
409 417
409 420
409 435
409 446
410 372
410 374
410 388
410 398
410 406
410 407
410 431
410 441
410 442
411 365
411 378
411 391
411 399
411 414
411 416
411 435
411 436
411 443
411 445
412 370
412 377
412 379
412 395
412 399
412 400
412 402
412 440
412 444
412 447
413 375
413 387
413 396
413 423
413 424
413 432
413 434
413 449
414 365
414 378
414 399
414 411
414 416
414 436
414 443
414 445
415 376
415 383
415 422
415 426
415 433
415 448
415 456
416 373
416 378
416 391
416 393
416 409
416 411
416 414
416 417
416 435
416 443
416 445
417 373
417 391
417 393
417 394
417 409
417 416
417 420
417 435
417 446
418 371
418 381
418 390
418 404
418 419
418 425
418 429
418 451
418 453
419 390
419 392
419 404
419 418
419 425
419 426
419 429
419 451
419 453
420 385
420 386
420 393
420 394
420 409
420 417
420 424
420 446
420 450
421 380
421 382
421 396
421 397
421 403
421 432
421 438
421 439
421 454
421 459
422 376
422 401
422 415
422 427
422 433
422 448
422 456
422 458
423 375
423 385
423 387
423 396
423 413
423 424
423 434
423 449
423 450
423 460
424 385
424 386
424 387
424 394
424 413
424 420
424 423
424 450
425 390
425 392
425 418
425 419
425 426
425 451
425 453
425 462
426 383
426 392
426 415
426 419
426 425
426 448
426 451
426 457
426 462
427 400
427 401
427 422
427 433
427 437
427 440
428 384
428 389
428 403
428 405
428 408
428 430
428 438
428 442
428 455
428 468
429 381
429 404
429 418
429 419
429 453
430 388
430 389
430 405
430 407
430 408
430 428
430 441
430 442
430 464
430 468
431 398
431 406
431 407
431 410
431 441
431 442
431 452
431 461
431 463
431 466
432 396
432 397
432 413
432 421
432 434
432 439
432 449
432 454
432 459
432 471
433 401
433 415
433 422
433 427
433 437
433 456
433 458
433 473
434 396
434 413
434 423
434 432
434 449
434 454
434 460
434 471
435 391
435 393
435 409
435 411
435 416
435 417
435 443
435 445
435 446
435 467
435 472
436 399
436 411
436 414
436 443
436 445
436 447
436 465
436 469
436 470
437 400
437 401
437 427
437 433
437 440
437 444
437 474
437 480
438 403
438 405
438 421
438 428
438 439
438 455
438 459
438 468
439 397
439 403
439 421
439 432
439 438
439 454
439 455
439 459
439 481
439 484
440 395
440 400
440 412
440 427
440 437
440 444
440 480
441 407
441 410
441 430
441 431
441 442
441 461
441 463
441 464
441 466
441 486
442 407
442 410
442 428
442 430
442 431
442 441
442 463
442 464
442 466
442 486
443 399
443 411
443 414
443 416
443 435
443 436
443 445
443 447
443 465
443 470
443 477
444 395
444 402
444 412
444 437
444 440
444 447
444 469
444 476
445 411
445 414
445 416
445 435
445 436
445 443
445 465
445 472
445 477
446 409
446 417
446 420
446 435
446 467
446 483
447 399
447 402
447 412
447 436
447 443
447 444
447 469
447 470
447 476
448 415
448 422
448 426
448 456
448 457
448 458
448 462
448 475
448 478
449 413
449 423
449 432
449 434
449 454
449 460
449 471
450 420
450 423
450 424
450 460
450 482
450 485
451 418
451 419
451 425
451 426
451 453
451 462
451 479
452 406
452 431
452 461
452 463
453 418
453 419
453 425
453 429
453 451
453 462
453 479
454 421
454 432
454 434
454 439
454 449
454 459
454 460
454 471
454 481
455 428
455 438
455 439
455 459
455 468
455 484
456 415
456 422
456 433
456 448
456 457
456 458
456 473
456 475
456 478
457 426
457 448
457 456
457 462
457 475
457 478
457 479
458 422
458 433
458 448
458 456
458 473
458 474
458 478
459 421
459 432
459 438
459 439
459 454
459 455
459 481
459 484
460 423
460 434
460 449
460 450
460 454
460 471
460 482
461 431
461 441
461 452
461 463
461 466
462 425
462 426
462 448
462 451
462 453
462 457
462 475
462 479
463 431
463 441
463 442
463 452
463 461
463 464
463 466
463 486
464 430
464 441
464 442
464 463
464 466
464 468
464 486
465 436
465 443
465 445
465 470
465 472
465 477
466 431
466 441
466 442
466 461
466 463
466 464
466 486
467 435
467 446
467 472
467 477
467 483
468 428
468 430
468 438
468 455
468 464
468 484
469 436
469 444
469 447
469 470
469 476
470 436
470 443
470 447
470 465
470 469
470 476
471 432
471 434
471 449
471 454
471 460
471 481
471 482
472 435
472 445
472 465
472 467
472 477
473 433
473 456
473 458
473 474
473 478
473 480
474 437
474 458
474 473
474 480
475 448
475 456
475 457
475 462
475 478
475 479
476 444
476 447
476 469
476 470
476 480
477 443
477 445
477 465
477 467
477 472
478 448
478 456
478 457
478 458
478 473
478 475
479 451
479 453
479 457
479 462
479 475
480 437
480 440
480 473
480 474
480 476
481 439
481 454
481 459
481 471
481 484
482 450
482 460
482 471
482 485
483 446
483 467
483 485
484 439
484 455
484 459
484 468
484 481
485 450
485 482
485 483
486 441
486 442
486 463
486 464
486 466
