1 4
1 23
1 44
1 50
2 4
2 5
2 8
2 19
2 22
2 33
2 46
2 47
2 49
3 13
3 14
3 16
3 36
3 38
3 48
4 1
4 2
4 19
4 23
4 46
4 50
5 2
5 8
5 12
5 19
5 22
5 24
5 33
5 43
5 47
5 49
6 25
6 27
6 29
6 35
6 45
7 11
7 18
7 21
7 26
7 42
8 2
8 5
8 12
8 13
8 22
8 24
8 33
8 43
8 47
9 10
9 17
9 30
9 32
9 39
9 40
10 9
10 30
10 32
10 39
11 7
11 21
11 26
11 31
11 37
12 5
12 8
12 13
12 14
12 22
12 24
12 33
12 38
12 43
13 3
13 8
13 12
13 14
13 24
13 36
13 38
13 43
14 3
14 12
14 13
14 16
14 36
14 38
14 48
15 17
15 28
15 32
15 34
15 40
15 41
15 52
16 3
16 14
16 36
16 38
16 48
16 64
17 9
17 15
17 30
17 32
17 34
17 39
17 40
17 52
17 66
18 7
18 21
18 27
18 35
18 42
18 45
18 53
18 56
19 2
19 4
19 5
19 33
19 46
19 47
19 49
19 65
19 67
20 28
20 29
20 41
20 51
20 54
20 55
20 61
21 7
21 11
21 18
21 26
21 37
21 42
21 56
21 73
22 2
22 5
22 8
22 12
22 24
22 33
22 43
22 47
22 49
22 58
23 1
23 4
23 44
23 46
23 50
23 60
23 74
24 5
24 8
24 12
24 13
24 22
24 33
24 38
24 43
24 47
24 58
24 62
25 6
25 27
25 29
25 35
25 45
25 51
25 55
25 69
26 7
26 11
26 21
26 31
26 37
26 42
26 56
26 57
26 71
27 6
27 18
27 25
27 29
27 35
27 45
27 53
27 69
28 15
28 20
28 34
28 41
28 52
28 54
28 61
29 6
29 20
29 25
29 27
29 41
29 45
29 51
29 55
29 75
30 9
30 10
30 17
30 32
30 39
30 68
30 70
31 11
31 26
31 37
31 44
31 57
31 59
31 60
32 9
32 10
32 15
32 17
32 30
32 39
32 40
32 66
33 2
33 5
33 8
33 12
33 19
33 22
33 24
33 43
33 46
33 47
33 49
33 58
33 65
33 72
34 15
34 17
34 28
34 40
34 41
34 52
34 54
34 61
34 66
34 76
35 6
35 18
35 25
35 27
35 42
35 45
35 53
35 69
36 3
36 13
36 14
36 16
36 38
36 48
36 63
36 64
36 83
37 11
37 21
37 26
37 31
37 57
37 59
37 71
37 79
38 3
38 12
38 13
38 14
38 16
38 24
38 36
38 43
38 48
38 62
38 63
38 64
38 83
39 9
39 10
39 17
39 30
39 32
39 40
39 68
39 70
39 80
39 84
40 9
40 15
40 17
40 32
40 34
40 39
40 52
40 66
40 76
40 80
40 85
41 15
41 20
41 28
41 29
41 34
41 52
41 54
41 55
41 61
41 77
41 82
42 7
42 18
42 21
42 26
42 35
42 53
42 56
42 73
42 78
43 5
43 8
43 12
43 13
43 22
43 24
43 33
43 38
43 47
43 58
43 62
43 63
44 1
44 23
44 31
44 50
44 59
44 60
44 74
44 81
45 6
45 18
45 25
45 27
45 29
45 35
45 51
45 53
45 69
45 75
45 90
46 2
46 4
46 19
46 23
46 33
46 47
46 49
46 50
46 65
46 67
46 72
46 74
47 2
47 5
47 8
47 19
47 22
47 24
47 33
47 43
47 46
47 49
47 58
47 62
47 65
47 72
47 88
48 3
48 14
48 16
48 36
48 38
48 63
48 64
48 83
48 86
49 2
49 5
49 19
49 22
49 33
49 46
49 47
49 58
49 65
49 67
49 72
49 94
49 96
50 1
50 4
50 23
50 44
50 46
50 60
50 67
50 74
50 91
50 92
51 20
51 25
51 29
51 45
51 54
51 55
51 69
51 75
51 77
52 15
52 17
52 28
52 34
52 40
52 41
52 54
52 61
52 66
52 76
52 82
52 85
52 97
53 18
53 27
53 35
53 42
53 45
53 56
53 69
53 73
53 78
53 90
53 95
53 98
54 20
54 28
54 34
54 41
54 51
54 52
54 55
54 61
54 76
54 77
54 82
54 97
55 20
55 25
55 29
55 41
55 51
55 54
55 61
55 75
55 77
55 82
56 18
56 21
56 26
56 42
56 53
56 71
56 73
56 78
56 87
56 95
56 98
57 26
57 31
57 37
57 59
57 71
57 79
57 81
57 87
57 89
57 93
58 22
58 24
58 33
58 43
58 47
58 49
58 62
58 63
58 72
58 88
58 99
59 31
59 37
59 44
59 57
59 60
59 71
59 79
59 81
59 89
59 100
60 23
60 31
60 44
60 50
60 59
60 74
60 81
60 91
60 100
61 20
61 28
61 34
61 41
61 52
61 54
61 55
61 66
61 76
61 77
61 82
61 85
61 97
62 24
62 38
62 43
62 47
62 58
62 63
62 64
62 83
62 88
62 99
63 36
63 38
63 43
63 48
63 58
63 62
63 64
63 83
63 86
63 99
64 16
64 36
64 38
64 48
64 62
64 63
64 83
64 86
64 101
65 19
65 33
65 46
65 47
65 49
65 67
65 72
65 88
65 92
65 94
65 96
66 17
66 32
66 34
66 40
66 52
66 61
66 76
66 80
66 85
66 103
66 104
67 19
67 46
67 49
67 50
67 65
67 74
67 91
67 92
67 94
68 30
68 39
68 70
68 80
68 84
68 102
68 111
69 25
69 27
69 35
69 45
69 51
69 53
69 75
69 78
69 90
69 95
69 105
70 30
70 39
70 68
70 80
70 84
70 102
71 26
71 37
71 56
71 57
71 59
71 73
71 79
71 87
71 89
71 93
71 107
72 33
72 46
72 47
72 49
72 58
72 65
72 88
72 94
72 96
72 106
72 112
73 21
73 42
73 53
73 56
73 71
73 78
73 79
73 87
73 93
73 95
73 98
73 107
74 23
74 44
74 46
74 50
74 60
74 67
74 81
74 91
74 92
74 100
75 29
75 45
75 51
75 55
75 69
75 77
75 90
75 105
75 108
76 34
76 40
76 52
76 54
76 61
76 66
76 80
76 82
76 85
76 97
76 103
76 104
76 114
77 41
77 51
77 54
77 55
77 61
77 75
77 82
77 108
77 110
78 42
78 53
78 56
78 69
78 73
78 87
78 90
78 95
78 98
78 116
78 121
79 37
79 57
79 59
79 71
79 73
79 81
79 87
79 89
79 93
79 107
79 119
80 39
80 40
80 66
80 68
80 70
80 76
80 84
80 85
80 102
80 103
80 104
80 109
80 123
81 44
81 57
81 59
81 60
81 74
81 79
81 89
81 91
81 100
81 117
81 118
82 41
82 52
82 54
82 55
82 61
82 76
82 77
82 85
82 97
82 104
82 110
82 114
82 115
83 36
83 38
83 48
83 62
83 63
83 64
83 86
83 99
83 101
83 122
84 39
84 68
84 70
84 80
84 102
84 109
84 111
84 123
85 40
85 52
85 61
85 66
85 76
85 80
85 82
85 97
85 103
85 104
85 109
85 114
86 48
86 63
86 64
86 83
86 101
86 122
87 56
87 57
87 71
87 73
87 78
87 79
87 89
87 93
87 95
87 98
87 107
87 125
87 126
88 47
88 58
88 62
88 65
88 72
88 94
88 96
88 99
88 106
88 112
88 131
89 57
89 59
89 71
89 79
89 81
89 87
89 93
89 100
89 107
89 117
89 119
89 125
90 45
90 53
90 69
90 75
90 78
90 95
90 105
90 113
90 116
91 50
91 60
91 67
91 74
91 81
91 92
91 94
91 100
91 118
91 127
91 129
92 50
92 65
92 67
92 74
92 91
92 94
92 96
92 120
92 127
93 57
93 71
93 73
93 79
93 87
93 89
93 98
93 107
93 119
93 125
93 126
94 49
94 65
94 67
94 72
94 88
94 91
94 92
94 96
94 106
94 112
94 120
94 130
95 53
95 56
95 69
95 73
95 78
95 87
95 90
95 98
95 113
95 116
95 121
96 49
96 65
96 72
96 88
96 92
96 94
96 106
96 112
96 120
96 130
96 131
97 52
97 54
97 61
97 76
97 82
97 85
97 104
97 110
97 114
97 115
98 53
98 56
98 73
98 78
98 87
98 93
98 95
98 107
98 116
98 121
98 126
99 58
99 62
99 63
99 83
99 88
99 106
99 128
99 131
99 133
100 59
100 60
100 74
100 81
100 89
100 91
100 117
100 118
100 119
100 129
101 64
101 83
101 86
101 122
101 132
101 134
102 68
102 70
102 80
102 84
102 103
102 109
102 111
102 123
103 66
103 76
103 80
103 85
103 102
103 104
103 109
103 114
103 123
104 66
104 76
104 80
104 82
104 85
104 97
104 103
104 109
104 114
104 115
105 69
105 75
105 90
105 108
105 113
105 116
105 124
106 72
106 88
106 94
106 96
106 99
106 112
106 130
106 131
106 133
107 71
107 73
107 79
107 87
107 89
107 93
107 98
107 119
107 125
107 126
108 75
108 77
108 105
108 110
108 115
108 124
109 80
109 84
109 85
109 102
109 103
109 104
109 111
109 123
110 77
110 82
110 97
110 108
110 114
110 115
110 124
111 68
111 84
111 102
111 109
111 123
111 135
112 72
112 88
112 94
112 96
112 106
112 120
112 130
112 131
113 90
113 95
113 105
113 116
113 121
113 124
114 76
114 82
114 85
114 97
114 103
114 104
114 110
114 115
115 82
115 97
115 104
115 108
115 110
115 114
116 78
116 90
116 95
116 98
116 105
116 113
116 121
116 126
117 81
117 89
117 100
117 118
117 119
117 129
118 81
118 91
118 100
118 117
118 119
118 127
118 129
119 79
119 89
119 93
119 100
119 107
119 117
119 118
119 125
120 92
120 94
120 96
120 112
120 127
120 130
120 131
121 78
121 95
121 98
121 113
121 116
121 126
121 140
122 83
122 86
122 101
122 128
122 132
122 134
123 80
123 84
123 102
123 103
123 109
123 111
123 135
123 136
124 105
124 108
124 110
124 113
124 141
125 87
125 89
125 93
125 107
125 119
125 126
125 137
125 143
126 87
126 93
126 98
126 107
126 116
126 121
126 125
126 137
126 140
126 143
127 91
127 92
127 118
127 120
127 129
127 130
128 99
128 122
128 132
128 133
128 134
128 145
129 91
129 100
129 117
129 118
129 127
130 94
130 96
130 106
130 112
130 120
130 127
130 131
130 144
131 88
131 96
131 99
131 106
131 112
131 120
131 130
131 133
132 101
132 122
132 128
132 134
133 99
133 106
133 128
133 131
133 145
133 152
133 154
133 155
134 101
134 122
134 128
134 132
134 145
135 111
135 123
135 136
135 168
136 123
136 135
136 138
136 139
136 156
136 168
136 170
136 172
137 125
137 126
137 140
137 143
137 158
137 162
137 174
138 136
138 139
138 142
138 156
138 159
138 172
138 173
139 136
139 138
139 156
139 170
139 172
139 173
140 121
140 126
140 137
140 143
140 150
140 162
140 174
141 124
141 142
141 147
141 151
141 159
141 164
141 178
142 138
142 141
142 147
142 156
142 159
142 173
142 175
142 184
143 125
143 126
143 137
143 140
143 146
143 158
143 174
143 182
143 185
144 130
144 149
144 153
144 154
144 157
144 165
144 180
145 128
145 133
145 134
145 152
145 163
145 166
145 167
145 169
146 143
146 158
146 160
146 161
146 177
146 182
146 186
147 141
147 142
147 151
147 159
147 175
147 178
147 193
148 150
148 151
148 162
148 164
148 171
148 176
148 191
149 144
149 160
149 161
149 165
149 180
149 181
149 187
150 140
150 148
150 162
150 164
150 171
150 176
150 189
150 191
150 194
151 141
151 147
151 148
151 164
151 171
151 176
151 178
152 133
152 145
152 154
152 155
152 166
152 167
152 169
152 195
153 144
153 154
153 155
153 157
153 167
153 179
153 192
154 133
154 144
154 152
154 153
154 155
154 157
154 167
154 179
154 192
155 133
155 152
155 153
155 154
155 166
155 167
155 179
155 192
155 195
156 136
156 138
156 139
156 142
156 159
156 172
156 173
156 175
156 184
156 198
157 144
157 153
157 154
157 165
157 179
157 180
158 137
158 143
158 146
158 161
158 177
158 182
158 185
158 186
159 138
159 141
159 142
159 147
159 156
159 173
159 175
159 184
159 193
159 200
160 146
160 149
160 161
160 165
160 177
160 181
160 187
160 207
161 146
161 149
161 158
161 160
161 177
161 181
161 186
161 206
162 137
162 140
162 148
162 150
162 171
162 174
162 189
162 194
163 145
163 166
163 169
163 188
163 199
163 202
164 141
164 148
164 150
164 151
164 171
164 176
164 178
164 191
164 211
165 144
165 149
165 157
165 160
165 180
165 181
165 187
165 208
165 209
166 145
166 152
166 155
166 163
166 167
166 169
166 188
166 195
166 201
166 202
167 145
167 152
167 153
167 154
167 155
167 166
167 179
167 192
167 195
167 201
167 212
168 135
168 136
168 170
168 183
168 190
168 213
169 145
169 152
169 163
169 166
169 188
169 199
169 201
169 202
170 136
170 139
170 168
170 172
170 173
170 183
170 190
170 197
170 203
171 148
171 150
171 151
171 162
171 164
171 176
171 189
171 191
171 194
171 211
171 216
171 220
172 136
172 138
172 139
172 156
172 170
172 173
172 183
172 184
172 197
172 198
172 203
173 138
173 139
173 142
173 156
173 159
173 170
173 172
173 175
173 184
173 197
173 198
173 200
173 203
174 137
174 140
174 143
174 162
174 182
174 185
174 189
174 194
174 196
174 214
175 142
175 147
175 156
175 159
175 173
175 178
175 184
175 193
175 198
175 200
175 204
175 221
175 223
176 148
176 150
176 151
176 164
176 171
176 178
176 191
176 194
176 211
176 215
176 216
176 220
177 146
177 158
177 160
177 161
177 181
177 182
177 186
177 205
177 206
177 207
177 217
177 224
177 228
178 141
178 147
178 151
178 164
178 175
178 176
178 191
178 193
178 204
178 211
178 215
178 216
178 223
179 153
179 154
179 155
179 157
179 167
179 192
179 195
179 209
179 210
179 212
179 219
180 144
180 149
180 157
180 165
180 181
180 187
180 207
180 208
180 209
180 225
181 149
181 160
181 161
181 165
181 177
181 180
181 187
181 206
181 207
181 208
181 217
182 143
182 146
182 158
182 174
182 177
182 185
182 186
182 196
182 205
182 224
182 229
183 168
183 170
183 172
183 190
183 197
183 203
183 213
183 218
183 226
183 230
184 142
184 156
184 159
184 172
184 173
184 175
184 193
184 197
184 198
184 200
184 221
184 231
185 143
185 158
185 174
185 182
185 186
185 189
185 196
185 205
185 214
186 146
186 158
186 161
186 177
186 182
186 185
186 205
186 206
186 224
186 228
186 229
187 149
187 160
187 165
187 180
187 181
187 207
187 208
187 209
187 217
187 233
188 163
188 166
188 169
188 199
188 201
188 202
189 150
189 162
189 171
189 174
189 185
189 191
189 194
189 196
189 214
189 220
190 168
190 170
190 183
190 203
190 213
190 218
190 226
191 148
191 150
191 164
191 171
191 176
191 178
191 189
191 194
191 211
191 215
191 216
191 220
191 232
191 234
192 153
192 154
192 155
192 167
192 179
192 195
192 210
192 212
192 219
192 222
193 147
193 159
193 175
193 178
193 184
193 200
193 204
193 215
193 221
193 223
193 231
194 150
194 162
194 171
194 174
194 176
194 189
194 191
194 196
194 211
194 214
194 216
194 220
194 234
194 236
195 152
195 155
195 166
195 167
195 179
195 192
195 201
195 210
195 212
195 219
195 222
196 174
196 182
196 185
196 189
196 194
196 205
196 214
196 238
196 242
197 170
197 172
197 173
197 183
197 184
197 198
197 203
197 226
197 227
197 230
197 239
198 156
198 172
198 173
198 175
198 184
198 197
198 200
198 203
198 221
198 227
198 231
199 163
199 169
199 188
199 202
200 159
200 173
200 175
200 184
200 193
200 198
200 204
200 221
200 223
200 231
200 244
201 166
201 167
201 169
201 188
201 195
201 202
201 212
201 222
202 163
202 166
202 169
202 188
202 199
202 201
202 222
203 170
203 172
203 173
203 183
203 190
203 197
203 198
203 213
203 226
203 227
203 230
203 239
204 175
204 178
204 193
204 200
204 211
204 215
204 216
204 223
204 231
204 237
204 240
204 247
205 177
205 182
205 185
205 186
205 196
205 206
205 224
205 229
205 246
206 161
206 177
206 181
206 186
206 205
206 207
206 217
206 224
206 228
206 229
206 251
207 160
207 177
207 180
207 181
207 187
207 206
207 208
207 217
207 224
207 228
207 233
207 241
207 252
208 165
208 180
208 181
208 187
208 207
208 209
208 217
208 225
208 233
208 241
209 165
209 179
209 180
209 187
209 208
209 210
209 219
209 225
209 233
209 235
209 258
210 179
210 192
210 195
210 209
210 212
210 219
210 225
210 235
210 245
211 164
211 171
211 176
211 178
211 191
211 194
211 204
211 215
211 216
211 220
211 223
211 232
211 234
211 237
211 240
211 256
212 167
212 179
212 192
212 195
212 201
212 210
212 219
212 222
212 245
212 248
212 249
213 168
213 183
213 190
213 203
213 218
213 226
213 230
213 260
214 174
214 185
214 189
214 194
214 196
214 220
214 236
214 238
214 242
214 255
215 176
215 178
215 191
215 193
215 204
215 211
215 216
215 223
215 232
215 237
215 240
215 247
215 256
216 171
216 176
216 178
216 191
216 194
216 204
216 211
216 215
216 220
216 223
216 232
216 234
216 236
216 240
216 256
217 177
217 181
217 187
217 206
217 207
217 208
217 224
217 228
217 233
217 241
217 250
217 251
217 252
218 183
218 190
218 213
218 226
218 230
218 260
219 179
219 192
219 195
219 209
219 210
219 212
219 222
219 225
219 235
219 245
219 248
219 259
220 171
220 176
220 189
220 191
220 194
220 211
220 214
220 216
220 232
220 234
220 236
220 238
220 254
220 255
221 175
221 184
221 193
221 198
221 200
221 223
221 227
221 231
221 243
221 244
221 247
221 263
222 192
222 195
222 201
222 202
222 212
222 219
222 245
222 248
222 249
222 265
223 175
223 178
223 193
223 200
223 204
223 211
223 215
223 216
223 221
223 231
223 237
223 240
223 247
224 177
224 182
224 186
224 205
224 206
224 207
224 217
224 228
224 229
224 250
224 251
224 264
225 180
225 208
225 209
225 210
225 219
225 233
225 235
225 257
225 258
225 259
226 183
226 190
226 197
226 203
226 213
226 218
226 227
226 230
226 239
226 243
226 260
226 261
226 262
227 197
227 198
227 203
227 221
227 226
227 230
227 239
227 243
227 244
227 261
227 262
227 263
228 177
228 186
228 206
228 207
228 217
228 224
228 229
228 241
228 250
228 251
228 252
229 182
229 186
229 205
229 206
229 224
229 228
229 242
229 246
229 250
229 264
230 183
230 197
230 203
230 213
230 218
230 226
230 227
230 239
230 243
230 260
230 261
230 262
231 184
231 193
231 198
231 200
231 204
231 221
231 223
231 237
231 243
231 244
231 247
231 263
231 270
231 272
232 191
232 211
232 215
232 216
232 220
232 234
232 236
232 237
232 240
232 254
232 256
232 267
232 268
233 187
233 207
233 208
233 209
233 217
233 225
233 235
233 241
233 252
233 257
233 258
233 274
233 275
234 191
234 194
234 211
234 216
234 220
234 232
234 236
234 238
234 240
234 254
234 255
234 256
234 267
234 268
234 278
235 209
235 210
235 219
235 225
235 233
235 245
235 258
235 259
235 266
235 279
236 194
236 214
236 216
236 220
236 232
236 234
236 238
236 242
236 254
236 255
236 267
236 271
236 278
237 204
237 211
237 215
237 223
237 231
237 232
237 240
237 247
237 256
237 272
237 276
237 277
238 196
238 214
238 220
238 234
238 236
238 242
238 246
238 254
238 255
238 271
238 273
238 278
239 197
239 203
239 226
239 227
239 230
239 243
239 260
239 261
239 262
239 263
239 285
240 204
240 211
240 215
240 216
240 223
240 232
240 234
240 237
240 247
240 256
240 267
240 268
240 276
240 277
241 207
241 208
241 217
241 228
241 233
241 251
241 252
241 257
241 258
241 274
241 275
241 281
241 287
241 288
242 196
242 214
242 229
242 236
242 238
242 246
242 254
242 255
242 271
242 273
242 291
243 221
243 226
243 227
243 230
243 231
243 239
243 244
243 261
243 262
243 263
243 270
243 285
243 292
244 200
244 221
244 227
244 231
244 243
244 247
244 263
244 270
244 272
245 210
245 212
245 219
245 222
245 235
245 248
245 249
245 259
245 265
245 266
245 269
245 279
245 294
246 205
246 229
246 238
246 242
246 250
246 255
246 264
246 273
246 290
246 293
247 204
247 215
247 221
247 223
247 231
247 237
247 240
247 244
247 270
247 272
247 276
247 277
247 301
248 212
248 219
248 222
248 245
248 249
248 265
248 266
248 269
249 212
249 222
249 245
249 248
249 253
249 265
249 266
249 269
249 298
250 217
250 224
250 228
250 229
250 246
250 251
250 252
250 264
250 280
250 281
250 296
251 206
251 217
251 224
251 228
251 241
251 250
251 252
251 257
251 274
251 280
251 281
251 287
251 296
252 207
252 217
252 228
252 233
252 241
252 250
252 251
252 257
252 274
252 275
252 280
252 281
252 287
252 288
253 249
253 269
253 282
253 295
253 300
254 220
254 232
254 234
254 236
254 238
254 242
254 255
254 256
254 267
254 268
254 271
254 278
254 284
254 291
255 214
255 220
255 234
255 236
255 238
255 242
255 246
255 254
255 267
255 271
255 273
255 278
255 291
255 306
256 211
256 215
256 216
256 232
256 234
256 237
256 240
256 254
256 267
256 268
256 276
256 277
256 278
256 284
257 225
257 233
257 241
257 251
257 252
257 258
257 274
257 275
257 287
257 288
257 289
258 209
258 225
258 233
258 235
258 241
258 257
258 259
258 275
258 279
258 286
258 288
258 289
259 219
259 225
259 235
259 245
259 258
259 266
259 279
259 286
259 289
259 294
260 213
260 218
260 226
260 230
260 239
260 261
260 262
260 283
260 297
260 302
261 226
261 227
261 230
261 239
261 243
261 260
261 262
261 263
261 270
261 285
261 292
261 297
261 303
262 226
262 227
262 230
262 239
262 243
262 260
262 261
262 263
262 283
262 285
262 297
262 303
263 221
263 227
263 231
263 239
263 243
263 244
263 261
263 262
263 270
263 272
263 285
263 292
263 303
263 305
264 224
264 229
264 246
264 250
264 273
264 280
264 290
264 293
264 296
264 307
265 222
265 245
265 248
265 249
265 266
265 269
265 279
265 294
265 298
265 309
266 235
266 245
266 248
266 249
266 259
266 265
266 279
266 286
266 294
266 309
266 319
267 232
267 234
267 236
267 240
267 254
267 255
267 256
267 268
267 271
267 277
267 278
267 284
267 313
268 232
268 234
268 240
268 254
268 256
268 267
268 276
268 277
268 278
268 284
268 304
268 313
268 314
269 245
269 248
269 249
269 253
269 265
269 282
269 295
269 298
269 309
269 321
270 231
270 243
270 244
270 247
270 261
270 263
270 272
270 285
270 292
270 299
270 303
270 305
270 308
270 316
271 236
271 238
271 242
271 254
271 255
271 267
271 273
271 278
271 284
271 291
271 293
271 306
272 231
272 237
272 244
272 247
272 263
272 270
272 276
272 277
272 299
272 301
272 305
272 308
273 238
273 242
273 246
273 255
273 264
273 271
273 290
273 291
273 293
273 306
273 311
274 233
274 241
274 251
274 252
274 257
274 275
274 280
274 281
274 287
274 288
274 289
274 296
274 310
274 315
274 329
275 233
275 241
275 252
275 257
275 258
275 274
275 286
275 287
275 288
275 289
275 310
276 237
276 240
276 247
276 256
276 268
276 272
276 277
276 299
276 301
276 304
276 308
276 325
277 237
277 240
277 247
277 256
277 267
277 268
277 272
277 276
277 284
277 301
277 304
277 314
277 325
278 234
278 236
278 238
278 254
278 255
278 256
278 267
278 268
278 271
278 284
278 291
278 306
278 313
278 326
278 332
279 235
279 245
279 258
279 259
279 265
279 266
279 286
279 289
279 294
279 319
280 250
280 251
280 252
280 264
280 274
280 281
280 287
280 290
280 296
280 307
280 315
280 331
281 241
281 250
281 251
281 252
281 274
281 280
281 287
281 288
281 296
281 310
281 315
281 331
282 253
282 269
282 295
282 298
282 300
282 320
282 322
283 260
283 262
283 297
283 302
283 312
283 317
284 254
284 256
284 267
284 268
284 271
284 277
284 278
284 304
284 306
284 313
284 314
284 326
284 330
284 332
285 239
285 243
285 261
285 262
285 263
285 270
285 292
285 297
285 303
285 305
285 312
285 316
285 317
285 318
286 258
286 259
286 266
286 275
286 279
286 288
286 289
286 294
286 319
286 327
286 341
286 343
287 241
287 251
287 252
287 257
287 274
287 275
287 280
287 281
287 288
287 289
287 296
287 310
287 315
287 329
287 337
287 340
288 241
288 252
288 257
288 258
288 274
288 275
288 281
288 286
288 287
288 289
288 310
288 315
288 329
288 340
289 257
289 258
289 259
289 274
289 275
289 279
289 286
289 287
289 288
289 310
289 327
289 329
289 340
289 343
290 246
290 264
290 273
290 280
290 291
290 293
290 296
290 307
290 311
290 323
290 324
290 345
291 242
291 254
291 255
291 271
291 273
291 278
291 290
291 293
291 306
291 311
291 332
291 342
292 243
292 261
292 263
292 270
292 285
292 299
292 303
292 305
292 308
292 316
292 317
292 318
292 328
293 246
293 264
293 271
293 273
293 290
293 291
293 306
293 307
293 311
293 323
293 324
293 342
293 345
294 245
294 259
294 265
294 266
294 279
294 286
294 309
294 319
294 327
294 335
294 353
295 253
295 269
295 282
295 298
295 300
295 320
295 321
295 322
295 336
295 338
295 348
296 250
296 251
296 264
296 274
296 280
296 281
296 287
296 290
296 307
296 315
296 323
296 324
296 331
296 337
296 339
296 349
297 260
297 261
297 262
297 283
297 285
297 302
297 303
297 312
297 317
297 318
297 346
297 347
298 249
298 265
298 269
298 282
298 295
298 309
298 320
298 321
298 335
298 336
298 338
298 360
299 270
299 272
299 276
299 292
299 301
299 305
299 308
299 316
299 328
299 333
299 334
300 253
300 282
300 295
300 320
300 322
300 336
300 348
301 247
301 272
301 276
301 277
301 299
301 304
301 305
301 308
301 325
301 328
301 333
301 334
302 260
302 283
302 297
302 312
302 317
302 346
302 347
302 355
303 261
303 262
303 263
303 270
303 285
303 292
303 297
303 305
303 312
303 316
303 317
303 318
303 350
303 357
304 268
304 276
304 277
304 284
304 301
304 308
304 313
304 314
304 325
304 330
304 333
304 334
305 263
305 270
305 272
305 285
305 292
305 299
305 301
305 303
305 308
305 316
305 318
305 328
305 333
305 357
305 359
306 255
306 271
306 273
306 278
306 284
306 291
306 293
306 311
306 313
306 326
306 332
306 342
306 344
307 264
307 280
307 290
307 293
307 296
307 311
307 323
307 324
307 331
307 339
307 345
307 351
308 270
308 272
308 276
308 292
308 299
308 301
308 304
308 305
308 316
308 325
308 328
308 333
308 334
309 265
309 266
309 269
309 294
309 298
309 319
309 321
309 335
309 338
309 353
309 354
309 358
309 360
310 274
310 275
310 281
310 287
310 288
310 289
310 315
310 329
310 337
310 340
310 343
310 352
311 273
311 290
311 291
311 293
311 306
311 307
311 323
311 324
311 342
311 345
311 351
312 283
312 285
312 297
312 302
312 303
312 317
312 318
312 346
312 347
312 350
312 355
312 363
313 267
313 268
313 278
313 284
313 304
313 306
313 314
313 325
313 326
313 330
313 332
313 344
313 365
313 366
314 268
314 277
314 284
314 304
314 313
314 325
314 326
314 330
314 332
314 334
314 361
315 274
315 280
315 281
315 287
315 288
315 296
315 310
315 329
315 331
315 337
315 339
315 340
315 349
315 352
315 371
316 270
316 285
316 292
316 299
316 303
316 305
316 308
316 317
316 318
316 328
316 333
316 350
316 357
316 359
316 368
317 283
317 285
317 292
317 297
317 302
317 303
317 312
317 316
317 318
317 346
317 347
317 350
317 357
317 363
317 367
318 285
318 292
318 297
318 303
318 305
318 312
318 316
318 317
318 328
318 347
318 350
318 357
318 359
318 363
318 367
319 266
319 279
319 286
319 294
319 309
319 327
319 335
319 341
319 353
319 354
319 356
320 282
320 295
320 298
320 300
320 321
320 322
320 336
320 338
320 348
320 358
320 360
321 269
321 295
321 298
321 309
321 320
321 335
321 336
321 338
321 354
321 358
321 360
322 282
322 295
322 300
322 320
322 336
322 338
322 348
323 290
323 293
323 296
323 307
323 311
323 324
323 331
323 339
323 342
323 345
323 351
324 290
324 293
324 296
324 307
324 311
324 323
324 331
324 339
324 345
324 349
324 351
324 374
324 376
325 276
325 277
325 301
325 304
325 308
325 313
325 314
325 326
325 330
325 333
325 334
325 361
325 364
325 373
325 378
325 381
326 278
326 284
326 306
326 313
326 314
326 325
326 330
326 332
326 344
326 365
326 366
326 373
326 375
327 286
327 289
327 294
327 319
327 340
327 341
327 343
327 353
327 356
327 380
328 292
328 299
328 301
328 305
328 308
328 316
328 318
328 333
328 334
328 357
328 359
328 362
328 364
328 368
329 274
329 287
329 288
329 289
329 310
329 315
329 331
329 337
329 340
329 343
329 349
329 352
329 371
329 382
330 284
330 304
330 313
330 314
330 325
330 326
330 332
330 334
330 361
330 365
330 373
330 375
330 381
331 280
331 281
331 296
331 307
331 315
331 323
331 324
331 329
331 337
331 339
331 349
331 351
331 371
331 374
332 278
332 284
332 291
332 306
332 313
332 314
332 326
332 330
332 342
332 344
332 365
332 366
332 369
332 375
333 299
333 301
333 304
333 305
333 308
333 316
333 325
333 328
333 334
333 359
333 361
333 362
333 364
333 378
334 299
334 301
334 304
334 308
334 314
334 325
334 328
334 330
334 333
334 361
334 362
334 364
334 378
335 294
335 298
335 309
335 319
335 321
335 338
335 353
335 354
335 356
335 358
335 360
335 377
336 295
336 298
336 300
336 320
336 321
336 322
336 338
336 348
336 358
336 360
336 384
337 287
337 296
337 310
337 315
337 329
337 331
337 339
337 340
337 349
337 352
337 371
337 374
337 382
337 390
338 295
338 298
338 309
338 320
338 321
338 322
338 335
338 336
338 348
338 354
338 358
338 360
338 377
338 384
338 386
339 296
339 307
339 315
339 323
339 324
339 331
339 337
339 345
339 349
339 351
339 371
339 374
339 376
340 287
340 288
340 289
340 310
340 315
340 327
340 329
340 337
340 341
340 343
340 352
340 379
340 382
340 385
341 286
341 319
341 327
341 340
341 343
341 353
341 356
341 380
341 385
342 291
342 293
342 306
342 311
342 323
342 332
342 344
342 345
342 366
342 369
342 372
342 383
342 400
343 286
343 289
343 310
343 327
343 329
343 340
343 341
343 352
343 356
343 379
343 380
343 385
344 306
344 313
344 326
344 332
344 342
344 365
344 366
344 369
344 372
344 375
344 392
344 393
345 290
345 293
345 307
345 311
345 323
345 324
345 339
345 342
345 351
345 372
345 376
345 383
345 397
346 297
346 302
346 312
346 317
346 347
346 350
346 355
346 363
346 370
346 389
346 394
347 297
347 302
347 312
347 317
347 318
347 346
347 350
347 355
347 357
347 363
347 367
347 370
347 388
347 394
347 399
348 295
348 300
348 320
348 322
348 336
348 338
348 360
348 384
349 296
349 315
349 324
349 329
349 331
349 337
349 339
349 351
349 352
349 371
349 374
349 376
349 390
349 402
350 303
350 312
350 316
350 317
350 318
350 346
350 347
350 357
350 359
350 363
350 367
350 368
350 370
350 388
350 395
350 401
351 307
351 311
351 323
351 324
351 331
351 339
351 345
351 349
351 374
351 376
351 383
351 396
351 397
352 310
352 315
352 329
352 337
352 340
352 343
352 349
352 371
352 379
352 382
352 390
353 294
353 309
353 319
353 327
353 335
353 341
353 354
353 356
353 358
353 377
353 380
353 391
354 309
354 319
354 321
354 335
354 338
354 353
354 356
354 358
354 360
354 377
354 391
355 302
355 312
355 346
355 347
355 370
355 389
355 394
356 319
356 327
356 335
356 341
356 343
356 353
356 354
356 377
356 380
356 385
356 391
356 409
357 303
357 305
357 316
357 317
357 318
357 328
357 347
357 350
357 359
357 362
357 363
357 367
357 368
357 387
357 388
357 395
357 401
358 309
358 320
358 321
358 335
358 336
358 338
358 353
358 354
358 360
358 377
358 384
358 386
358 391
359 305
359 316
359 318
359 328
359 333
359 350
359 357
359 362
359 367
359 368
359 387
359 395
359 403
359 404
360 298
360 309
360 320
360 321
360 335
360 336
360 338
360 348
360 354
360 358
360 377
360 384
360 386
361 314
361 325
361 330
361 333
361 334
361 362
361 364
361 373
361 375
361 378
361 381
361 398
361 410
361 412
362 328
362 333
362 334
362 357
362 359
362 361
362 364
362 368
362 378
362 387
362 403
362 404
362 408
363 312
363 317
363 318
363 346
363 347
363 350
363 357
363 367
363 368
363 370
363 388
363 394
363 395
363 399
363 401
363 419
364 325
364 328
364 333
364 334
364 361
364 362
364 373
364 378
364 381
364 387
364 404
364 408
364 410
364 412
365 313
365 326
365 330
365 332
365 344
365 366
365 369
365 373
365 375
365 381
365 392
365 393
365 398
365 420
366 313
366 326
366 332
366 342
366 344
366 365
366 369
366 373
366 375
366 392
366 393
366 398
366 420
367 317
367 318
367 347
367 350
367 357
367 359
367 363
367 368
367 387
367 388
367 395
367 399
367 401
367 403
367 419
367 421
368 316
368 328
368 350
368 357
368 359
368 362
368 363
368 367
368 387
368 395
368 401
368 403
368 404
368 421
368 424
369 332
369 342
369 344
369 365
369 366
369 372
369 383
369 392
369 393
369 400
369 418
369 423
370 346
370 347
370 350
370 355
370 363
370 388
370 389
370 394
370 399
370 422
371 315
371 329
371 331
371 337
371 339
371 349
371 352
371 374
371 376
371 382
371 390
371 402
371 414
372 342
372 344
372 345
372 369
372 383
372 393
372 397
372 400
372 418
373 325
373 326
373 330
373 361
373 364
373 365
373 366
373 375
373 378
373 381
373 392
373 398
373 410
373 412
373 420
373 427
373 429
374 324
374 331
374 337
374 339
374 349
374 351
374 371
374 376
374 390
374 396
374 397
374 402
374 432
375 326
375 330
375 332
375 344
375 361
375 365
375 366
375 373
375 381
375 392
375 393
375 398
375 410
375 420
375 427
376 324
376 339
376 345
376 349
376 351
376 371
376 374
376 383
376 396
376 397
376 402
376 430
376 432
377 335
377 338
377 353
377 354
377 356
377 358
377 360
377 384
377 386
377 391
377 411
377 415
377 416
377 417
378 325
378 333
378 334
378 361
378 362
378 364
378 373
378 381
378 398
378 404
378 408
378 410
378 412
378 425
378 426
378 429
379 340
379 343
379 352
379 380
379 382
379 385
379 390
379 405
379 406
379 407
379 414
379 438
380 327
380 341
380 343
380 353
380 356
380 379
380 385
380 391
380 405
380 406
380 407
380 409
380 411
380 433
381 325
381 330
381 361
381 364
381 365
381 373
381 375
381 378
381 398
381 410
381 412
381 426
381 427
381 429
382 329
382 337
382 340
382 352
382 371
382 379
382 385
382 390
382 402
382 405
382 406
382 414
382 435
383 342
383 345
383 351
383 369
383 372
383 376
383 396
383 397
383 400
383 418
383 431
384 336
384 338
384 348
384 358
384 360
384 377
384 386
384 413
384 416
384 417
385 340
385 341
385 343
385 356
385 379
385 380
385 382
385 405
385 406
385 407
385 409
385 438
385 439
386 338
386 358
386 360
386 377
386 384
386 413
386 415
386 416
386 417
386 446
387 357
387 359
387 362
387 364
387 367
387 368
387 395
387 401
387 403
387 404
387 408
387 421
387 424
387 425
387 442
388 347
388 350
388 357
388 363
388 367
388 370
388 389
388 394
388 395
388 399
388 401
388 419
388 421
388 422
388 434
388 436
389 346
389 355
389 370
389 388
389 394
389 399
389 422
389 434
390 337
390 349
390 352
390 371
390 374
390 379
390 382
390 402
390 406
390 414
390 435
391 353
391 354
391 356
391 358
391 377
391 380
391 409
391 411
391 415
391 416
391 433
391 441
392 344
392 365
392 366
392 369
392 373
392 375
392 393
392 398
392 400
392 420
392 423
392 427
392 428
392 440
392 443
392 450
393 344
393 365
393 366
393 369
393 372
393 375
393 392
393 400
393 418
393 420
393 423
393 428
393 437
393 443
393 450
394 346
394 347
394 355
394 363
394 370
394 388
394 389
394 399
394 422
394 434
394 453
395 350
395 357
395 359
395 363
395 367
395 368
395 387
395 388
395 399
395 401
395 403
395 404
395 419
395 421
395 424
395 436
395 442
396 351
396 374
396 376
396 383
396 397
396 402
396 418
396 430
396 431
396 432
396 444
396 448
396 454
397 345
397 351
397 372
397 374
397 376
397 383
397 396
397 400
397 418
397 430
397 431
397 432
397 444
398 361
398 365
398 366
398 373
398 375
398 378
398 381
398 392
398 410
398 412
398 420
398 426
398 427
398 428
398 429
398 440
398 447
399 347
399 363
399 367
399 370
399 388
399 389
399 394
399 395
399 401
399 419
399 422
399 434
399 436
399 453
400 342
400 369
400 372
400 383
400 392
400 393
400 397
400 418
400 423
400 428
400 431
400 437
400 444
400 450
401 350
401 357
401 363
401 367
401 368
401 387
401 388
401 395
401 399
401 403
401 419
401 421
401 424
401 434
401 436
401 457
402 349
402 371
402 374
402 376
402 382
402 390
402 396
402 414
402 430
402 432
402 435
402 448
402 455
403 359
403 362
403 367
403 368
403 387
403 395
403 401
403 404
403 408
403 419
403 421
403 424
403 425
403 442
403 445
404 359
404 362
404 364
404 368
404 378
404 387
404 395
404 403
404 408
404 412
404 421
404 424
404 425
404 426
404 442
404 445
404 449
405 379
405 380
405 382
405 385
405 406
405 407
405 409
405 414
405 433
405 438
405 439
405 451
406 379
406 380
406 382
406 385
406 390
406 405
406 407
406 409
406 414
406 435
406 438
406 439
406 451
406 462
407 379
407 380
407 385
407 405
407 406
407 409
407 411
407 433
407 438
407 439
407 451
408 362
408 364
408 378
408 387
408 403
408 404
408 410
408 412
408 424
408 425
408 426
408 442
408 445
408 449
409 356
409 380
409 385
409 391
409 405
409 406
409 407
409 411
409 415
409 433
409 438
409 439
409 441
409 451
410 361
410 364
410 373
410 375
410 378
410 381
410 398
410 408
410 412
410 425
410 426
410 427
410 429
410 440
410 447
410 449
411 377
411 380
411 391
411 407
411 409
411 415
411 416
411 433
411 441
412 361
412 364
412 373
412 378
412 381
412 398
412 404
412 408
412 410
412 425
412 426
412 427
412 429
412 445
412 447
412 449
413 384
413 386
413 417
413 446
413 452
414 371
414 379
414 382
414 390
414 402
414 405
414 406
414 435
414 438
414 461
415 377
415 386
415 391
415 409
415 411
415 416
415 417
415 433
415 441
415 446
415 460
416 377
416 384
416 386
416 391
416 411
416 415
416 417
416 441
416 446
416 452
416 460
417 377
417 384
417 386
417 413
417 415
417 416
417 446
417 452
417 460
418 369
418 372
418 383
418 393
418 396
418 397
418 400
418 423
418 430
418 431
418 437
418 444
418 450
418 456
418 458
419 363
419 367
419 388
419 395
419 399
419 401
419 403
419 421
419 424
419 434
419 436
419 442
419 457
419 459
420 365
420 366
420 373
420 375
420 392
420 393
420 398
420 423
420 427
420 428
420 429
420 440
420 443
420 450
421 367
421 368
421 387
421 388
421 395
421 401
421 403
421 404
421 419
421 424
421 436
421 442
421 457
421 459
422 370
422 388
422 389
422 394
422 399
422 434
422 436
422 453
423 369
423 392
423 393
423 400
423 418
423 420
423 428
423 437
423 440
423 443
423 450
423 458
424 368
424 387
424 395
424 401
424 403
424 404
424 408
424 419
424 421
424 425
424 442
424 445
424 449
424 457
424 459
425 378
425 387
425 403
425 404
425 408
425 410
425 412
425 424
425 426
425 442
425 445
425 447
425 449
426 378
426 381
426 398
426 404
426 408
426 410
426 412
426 425
426 427
426 429
426 445
426 447
426 449
427 373
427 375
427 381
427 392
427 398
427 410
427 412
427 420
427 426
427 428
427 429
427 440
427 443
427 447
428 392
428 393
428 398
428 400
428 420
428 423
428 427
428 437
428 440
428 443
428 450
429 373
429 378
429 381
429 398
429 410
429 412
429 420
429 426
429 427
429 440
429 447
429 449
430 376
430 396
430 397
430 402
430 418
430 431
430 432
430 444
430 448
430 454
430 455
430 456
431 383
431 396
431 397
431 400
431 418
431 430
431 437
431 444
431 448
431 454
431 456
431 458
432 374
432 376
432 396
432 397
432 402
432 430
432 435
432 448
432 454
432 455
433 380
433 391
433 405
433 407
433 409
433 411
433 415
433 438
433 439
433 441
433 451
434 388
434 389
434 394
434 399
434 401
434 419
434 422
434 436
434 453
435 382
435 390
435 402
435 406
435 414
435 432
435 438
435 448
435 455
435 461
436 388
436 395
436 399
436 401
436 419
436 421
436 422
436 434
436 453
436 457
436 459
437 393
437 400
437 418
437 423
437 428
437 431
437 443
437 444
437 450
437 456
437 458
438 379
438 385
438 405
438 406
438 407
438 409
438 414
438 433
438 435
438 439
438 451
438 461
438 462
439 385
439 405
439 406
439 407
439 409
439 433
439 438
439 451
439 461
439 462
440 392
440 398
440 410
440 420
440 423
440 427
440 428
440 429
440 443
440 447
440 450
441 391
441 409
441 411
441 415
441 416
441 433
441 446
441 451
441 460
442 387
442 395
442 403
442 404
442 408
442 419
442 421
442 424
442 425
442 445
442 449
442 457
442 459
443 392
443 393
443 420
443 423
443 427
443 428
443 437
443 440
443 450
443 458
444 396
444 397
444 400
444 418
444 430
444 431
444 437
444 448
444 454
444 456
444 458
445 403
445 404
445 408
445 412
445 424
445 425
445 426
445 442
445 449
445 459
446 386
446 413
446 415
446 416
446 417
446 441
446 452
446 460
447 398
447 410
447 412
447 425
447 426
447 427
447 429
447 440
447 449
448 396
448 402
448 430
448 431
448 432
448 435
448 444
448 454
448 455
449 404
449 408
449 410
449 412
449 424
449 425
449 426
449 429
449 442
449 445
449 447
450 392
450 393
450 400
450 418
450 420
450 423
450 428
450 437
450 440
450 443
450 456
450 458
451 405
451 406
451 407
451 409
451 433
451 438
451 439
451 441
451 461
451 462
452 413
452 416
452 417
452 446
452 460
453 394
453 399
453 422
453 434
453 436
454 396
454 430
454 431
454 432
454 444
454 448
454 455
454 456
455 402
455 430
455 432
455 435
455 448
455 454
455 461
456 418
456 430
456 431
456 437
456 444
456 450
456 454
456 458
457 401
457 419
457 421
457 424
457 436
457 442
457 459
458 418
458 423
458 431
458 437
458 443
458 444
458 450
458 456
459 419
459 421
459 424
459 436
459 442
459 445
459 457
460 415
460 416
460 417
460 441
460 446
460 452
461 414
461 435
461 438
461 439
461 451
461 455
461 462
462 406
462 438
462 439
462 451
462 461
