1 3
1 11
1 12
1 13
1 14
1 36
2 4
2 8
2 30
2 31
3 1
3 10
3 12
3 13
3 48
4 2
4 31
4 37
5 6
5 7
5 26
5 27
5 28
6 5
6 26
6 27
7 5
7 26
7 28
8 2
8 9
8 30
8 43
9 8
9 10
9 30
9 43
9 50
10 3
10 9
10 12
10 48
10 50
11 1
11 13
11 14
11 36
12 1
12 3
12 10
12 13
12 36
12 48
13 1
13 3
13 11
13 12
13 14
13 36
13 48
14 1
14 11
14 13
14 36
14 59
15 16
15 18
15 35
15 39
16 15
16 22
16 35
16 39
16 40
17 20
17 24
17 29
17 49
17 51
17 54
18 15
18 23
18 35
18 46
18 47
19 33
19 34
19 38
19 42
20 17
20 21
20 29
20 44
20 45
20 54
21 20
21 25
21 29
21 44
21 45
22 16
22 39
22 40
22 41
23 18
23 25
23 35
23 46
23 47
24 17
24 34
24 42
24 49
25 21
25 23
25 45
25 46
26 5
26 6
26 7
26 27
26 28
26 53
26 55
27 5
27 6
27 26
27 32
27 53
28 5
28 7
28 26
28 37
28 55
29 17
29 20
29 21
29 44
29 51
29 54
30 2
30 8
30 9
30 31
30 43
30 52
30 57
30 58
31 2
31 4
31 30
31 37
31 52
31 56
31 58
32 27
32 33
32 53
32 75
33 19
33 32
33 38
33 74
34 19
34 24
34 38
34 42
34 63
34 68
34 72
35 15
35 16
35 18
35 23
35 39
35 46
35 47
35 65
35 67
36 1
36 11
36 12
36 13
36 14
36 48
36 59
36 61
36 62
37 4
37 28
37 31
37 55
37 56
37 58
37 78
37 79
38 19
38 33
38 34
38 42
38 63
38 72
38 74
39 15
39 16
39 22
39 35
39 40
39 41
39 66
39 67
40 16
40 22
40 39
40 41
40 66
40 76
41 22
41 39
41 40
41 76
42 19
42 24
42 34
42 38
42 49
42 63
42 68
42 71
43 8
43 9
43 30
43 50
43 52
43 57
43 60
44 20
44 21
44 29
44 45
44 54
44 64
45 20
45 21
45 25
45 44
45 64
45 73
46 18
46 23
46 25
46 35
46 47
46 65
46 69
46 70
47 18
47 23
47 35
47 46
47 65
47 67
47 69
47 70
48 3
48 10
48 12
48 13
48 36
48 50
48 60
48 61
49 17
49 24
49 42
49 51
49 54
49 68
49 71
49 80
50 9
50 10
50 43
50 48
50 60
50 86
51 17
51 29
51 49
51 54
51 80
52 30
52 31
52 43
52 57
52 58
52 81
53 26
53 27
53 32
53 55
53 75
53 82
54 17
54 20
54 29
54 44
54 49
54 51
54 80
54 84
55 26
55 28
55 37
55 53
55 77
55 78
56 31
56 37
56 58
56 78
56 79
57 30
57 43
57 52
57 58
57 87
57 94
58 30
58 31
58 37
58 52
58 56
58 57
58 79
58 81
59 14
59 36
59 62
60 43
60 48
60 50
60 61
60 86
60 93
61 36
61 48
61 60
61 62
61 93
61 95
62 36
62 59
62 61
62 95
62 98
63 34
63 38
63 42
63 68
63 71
63 72
63 74
63 83
63 97
63 112
64 44
64 45
64 73
64 84
64 96
64 110
65 35
65 46
65 47
65 67
65 69
65 70
65 85
65 91
65 101
65 107
66 39
66 40
66 67
66 76
66 85
66 92
66 104
67 35
67 39
67 47
67 65
67 66
67 70
67 85
67 91
67 104
67 107
68 34
68 42
68 49
68 63
68 71
68 72
68 83
68 90
68 108
69 46
69 47
69 65
69 70
69 73
69 96
69 101
70 46
70 47
70 65
70 67
70 69
70 91
70 101
70 107
71 42
71 49
71 63
71 68
71 80
71 83
71 90
71 105
71 108
72 34
72 38
72 63
72 68
72 74
72 83
72 88
72 97
72 112
72 114
73 45
73 64
73 69
73 96
73 101
74 33
74 38
74 63
74 72
74 75
74 88
74 89
74 97
74 114
75 32
75 53
75 74
75 82
75 88
75 89
75 102
75 117
76 40
76 41
76 66
76 85
76 92
77 55
77 78
77 82
77 99
77 109
77 116
78 37
78 55
78 56
78 77
78 79
78 99
78 103
78 116
78 119
79 37
79 56
79 58
79 78
79 81
79 99
79 103
79 119
79 123
80 49
80 51
80 54
80 71
80 84
80 90
80 105
80 106
80 111
81 52
81 58
81 79
81 94
81 103
81 115
82 53
82 75
82 77
82 89
82 99
82 102
82 109
82 118
82 122
83 63
83 68
83 71
83 72
83 90
83 97
83 108
83 112
84 54
84 64
84 80
84 106
84 110
84 111
85 65
85 66
85 67
85 76
85 91
85 92
85 104
85 107
86 50
86 60
86 87
86 93
86 100
86 113
86 120
87 57
87 86
87 93
87 94
87 100
87 113
87 120
87 126
88 72
88 74
88 75
88 89
88 97
88 114
88 117
89 74
89 75
89 82
89 88
89 97
89 102
89 117
90 68
90 71
90 80
90 83
90 105
90 108
90 111
91 65
91 67
91 70
91 85
91 101
91 107
91 129
92 66
92 76
92 85
92 104
92 127
92 130
93 60
93 61
93 86
93 87
93 95
93 120
93 121
93 128
93 131
94 57
94 81
94 87
94 100
94 113
94 115
94 124
95 61
95 62
95 93
95 98
95 121
95 131
95 133
96 64
96 69
96 73
96 101
96 110
97 63
97 72
97 74
97 83
97 88
97 89
97 112
97 114
98 62
98 95
98 121
98 125
98 133
99 77
99 78
99 79
99 82
99 103
99 109
99 116
99 119
99 122
100 86
100 87
100 94
100 113
100 115
100 120
100 124
100 126
101 65
101 69
101 70
101 73
101 91
101 96
101 107
102 75
102 82
102 89
102 109
102 117
102 118
102 122
103 78
103 79
103 81
103 99
103 115
103 116
103 119
103 123
104 66
104 67
104 85
104 92
104 107
104 127
104 129
104 130
104 139
104 140
105 71
105 80
105 90
105 108
105 111
105 135
106 80
106 84
106 110
106 111
106 132
106 134
107 65
107 67
107 70
107 85
107 91
107 101
107 104
107 129
107 137
108 68
108 71
108 83
108 90
108 105
108 112
108 135
109 77
109 82
109 99
109 102
109 116
109 118
109 122
109 141
109 142
110 64
110 84
110 96
110 106
110 132
110 134
111 80
111 84
111 90
111 105
111 106
111 134
112 63
112 72
112 83
112 97
112 108
112 114
112 143
112 145
113 86
113 87
113 94
113 100
113 115
113 120
113 124
113 126
113 148
114 72
114 74
114 88
114 97
114 112
114 144
114 145
115 81
115 94
115 100
115 103
115 113
115 123
115 124
116 77
116 78
116 99
116 103
116 109
116 118
116 119
116 122
116 141
116 149
117 75
117 88
117 89
117 102
117 118
117 136
117 138
118 82
118 102
118 109
118 116
118 117
118 122
118 138
118 141
118 142
119 78
119 79
119 99
119 103
119 116
119 122
119 123
119 149
119 151
120 86
120 87
120 93
120 100
120 113
120 126
120 128
120 131
120 148
121 93
121 95
121 98
121 125
121 131
121 133
122 82
122 99
122 102
122 109
122 116
122 118
122 119
122 141
122 142
122 149
123 79
123 103
123 115
123 119
123 151
123 152
124 94
124 100
124 113
124 115
124 126
124 148
124 154
125 98
125 121
125 133
125 157
126 87
126 100
126 113
126 120
126 124
126 128
126 148
127 92
127 104
127 130
127 139
128 93
128 120
128 126
128 131
128 153
129 91
129 104
129 107
129 130
129 137
129 139
129 140
129 161
130 92
130 104
130 127
130 129
130 139
130 140
131 93
131 95
131 120
131 121
131 128
131 133
131 153
131 158
132 106
132 110
132 134
132 146
132 147
133 95
133 98
133 121
133 125
133 131
133 158
134 106
134 110
134 111
134 132
134 146
135 105
135 108
135 143
135 150
135 166
136 117
136 138
136 142
136 144
136 155
136 156
136 170
137 107
137 129
137 140
137 161
138 117
138 118
138 136
138 141
138 142
138 155
138 156
138 172
139 104
139 127
139 129
139 130
139 140
139 161
140 104
140 129
140 130
140 137
140 139
140 161
141 109
141 116
141 118
141 122
141 138
141 142
141 149
141 156
141 159
142 109
142 118
142 122
142 136
142 138
142 141
142 156
142 159
143 112
143 135
143 145
143 165
144 114
144 136
144 145
144 155
144 170
145 112
145 114
145 143
145 144
145 173
146 132
146 134
146 150
147 132
147 163
148 113
148 120
148 124
148 126
148 154
148 164
148 167
149 116
149 119
149 122
149 141
149 151
149 152
149 159
150 135
150 146
150 165
150 166
151 119
151 123
151 149
151 152
151 160
152 123
152 149
152 151
152 154
152 160
152 162
153 128
153 131
153 158
153 167
153 171
154 124
154 148
154 152
154 160
154 162
154 164
155 136
155 138
155 144
155 156
155 170
155 172
156 136
156 138
156 141
156 142
156 155
156 159
156 172
156 176
156 178
157 125
157 168
157 169
158 131
158 133
158 153
158 169
158 171
159 141
159 142
159 149
159 156
159 176
159 178
159 179
160 151
160 152
160 154
160 162
160 180
160 183
161 129
161 137
161 139
161 140
161 174
162 152
162 154
162 160
162 164
162 180
162 188
163 147
163 174
163 175
163 187
164 148
164 154
164 162
164 167
164 188
164 191
164 192
165 143
165 150
165 166
165 186
165 197
166 135
166 150
166 165
166 185
166 186
166 194
167 148
167 153
167 164
167 171
167 191
167 192
168 157
168 169
168 200
169 157
169 158
169 168
169 200
170 136
170 144
170 155
170 172
170 173
170 190
170 196
170 199
171 153
171 158
171 167
171 191
171 198
172 138
172 155
172 156
172 170
172 176
172 178
172 190
172 196
173 145
173 170
173 197
173 199
173 207
174 161
174 163
174 175
174 193
174 201
174 208
175 163
175 174
175 187
175 193
175 208
175 213
176 156
176 159
176 172
176 178
176 196
176 205
177 184
177 195
177 206
177 209
178 156
178 159
178 172
178 176
178 179
178 196
178 202
178 205
179 159
179 178
179 183
179 202
180 160
180 162
180 183
180 188
180 220
180 221
181 182
181 185
181 189
181 210
181 211
182 181
182 187
182 189
182 210
182 212
183 160
183 179
183 180
183 202
183 219
184 177
184 195
184 201
184 206
184 209
185 166
185 181
185 194
185 203
185 211
186 165
186 166
186 194
186 197
186 203
186 204
186 207
186 222
186 224
187 163
187 175
187 182
187 189
187 193
187 208
187 212
187 213
187 217
188 162
188 164
188 180
188 192
188 218
188 220
189 181
189 182
189 187
189 210
189 212
189 217
190 170
190 172
190 196
190 199
190 223
190 225
191 164
191 167
191 171
191 192
191 198
191 215
191 216
192 164
192 167
192 188
192 191
192 215
192 218
192 231
193 174
193 175
193 187
193 201
193 208
193 213
194 166
194 185
194 186
194 197
194 203
194 204
194 222
194 224
195 177
195 184
195 206
195 209
196 170
196 172
196 176
196 178
196 190
196 205
196 225
196 226
196 232
197 165
197 173
197 186
197 194
197 199
197 204
197 207
197 222
198 171
198 191
198 200
198 216
198 227
198 228
199 170
199 173
199 190
199 197
199 207
199 223
200 168
200 169
200 198
200 214
200 228
200 230
201 174
201 184
201 193
201 206
201 236
202 178
202 179
202 183
202 205
202 219
202 229
202 234
203 185
203 186
203 194
203 204
203 211
203 222
203 224
203 242
204 186
204 194
204 197
204 203
204 222
204 224
205 176
205 178
205 196
205 202
205 226
205 232
205 234
206 177
206 184
206 195
206 201
206 209
206 235
206 236
207 173
207 186
207 197
207 199
207 222
207 223
207 247
208 174
208 175
208 187
208 193
208 213
208 217
208 239
209 177
209 184
209 195
209 206
209 235
209 236
210 181
210 182
210 189
210 211
210 212
210 217
210 240
210 241
211 181
211 185
211 203
211 210
211 240
211 241
212 182
212 187
212 189
212 210
212 213
212 217
212 240
212 243
213 175
213 187
213 193
213 208
213 212
213 217
213 239
213 243
213 254
214 200
214 228
214 230
214 244
214 248
215 191
215 192
215 216
215 227
215 231
215 233
215 249
215 250
216 191
216 198
216 215
216 227
216 228
216 233
216 250
216 252
217 187
217 189
217 208
217 210
217 212
217 213
217 243
218 188
218 192
218 220
218 221
218 231
218 237
218 238
218 245
219 183
219 202
219 221
219 229
219 237
220 180
220 188
220 218
220 221
220 237
220 238
220 245
221 180
221 218
221 219
221 220
221 237
221 238
222 186
222 194
222 197
222 203
222 204
222 207
222 224
222 247
223 190
223 199
223 207
223 225
223 247
223 253
224 186
224 194
224 203
224 204
224 222
224 242
225 190
225 196
225 223
225 226
225 232
225 253
225 256
226 196
226 205
226 225
226 232
226 234
226 256
227 198
227 215
227 216
227 228
227 230
227 233
227 244
227 250
227 252
228 198
228 200
228 214
228 216
228 227
228 230
228 244
228 250
228 252
229 202
229 219
229 234
229 260
229 262
230 200
230 214
230 227
230 228
230 244
230 248
230 252
231 192
231 215
231 218
231 233
231 238
231 245
231 249
232 196
232 205
232 225
232 226
232 234
232 256
232 260
232 266
233 215
233 216
233 227
233 231
233 249
233 250
233 252
234 202
234 205
234 226
234 229
234 232
234 260
234 262
235 206
235 209
235 236
235 251
235 269
236 201
236 206
236 209
236 235
236 246
236 251
236 275
237 218
237 219
237 220
237 221
237 238
237 245
237 264
238 218
238 220
238 221
238 231
238 237
238 245
238 268
239 208
239 213
239 246
239 254
239 258
239 277
240 210
240 211
240 212
240 241
240 243
240 257
240 259
240 265
241 210
241 211
241 240
241 242
241 255
241 257
241 259
242 203
242 224
242 241
242 255
242 261
242 267
243 212
243 213
243 217
243 240
243 254
243 257
243 265
243 280
243 281
244 214
244 227
244 228
244 230
244 248
244 252
244 276
244 279
245 218
245 220
245 231
245 237
245 238
245 268
245 270
246 236
246 239
246 251
246 258
246 274
246 275
247 207
247 222
247 223
247 261
247 263
247 272
248 214
248 230
248 244
248 279
248 283
249 215
249 231
249 233
249 250
249 252
249 270
249 273
250 215
250 216
250 227
250 228
250 233
250 249
250 252
250 273
251 235
251 236
251 246
251 269
251 275
252 216
252 227
252 228
252 230
252 233
252 244
252 249
252 250
252 276
253 223
253 225
253 256
253 271
253 272
254 213
254 239
254 243
254 258
254 265
254 277
254 280
255 241
255 242
255 259
255 267
255 288
255 293
256 225
256 226
256 232
256 253
256 266
256 271
256 272
256 285
257 240
257 241
257 243
257 259
257 265
257 281
257 286
258 239
258 246
258 254
258 274
258 277
258 280
259 240
259 241
259 255
259 257
259 286
259 288
259 293
260 229
260 232
260 234
260 262
260 266
260 278
260 282
261 242
261 247
261 267
261 287
261 289
262 229
262 234
262 260
262 264
262 278
262 282
263 247
263 272
263 290
263 292
264 237
264 262
264 282
264 284
265 240
265 243
265 254
265 257
265 280
265 281
265 286
266 232
266 256
266 260
266 271
266 278
266 285
266 298
267 242
267 255
267 261
267 287
267 289
267 293
268 238
268 245
268 270
268 284
268 295
269 235
269 251
269 275
269 294
269 297
270 245
270 249
270 268
270 273
270 295
271 253
271 256
271 266
271 272
271 285
271 292
271 298
272 247
272 253
272 256
272 263
272 271
272 290
272 292
273 249
273 250
273 270
273 291
274 246
274 258
274 275
274 277
274 297
274 305
275 236
275 246
275 251
275 269
275 274
275 294
275 297
275 305
276 244
276 252
276 279
276 291
276 296
277 239
277 254
277 258
277 274
277 280
277 301
277 302
278 260
278 262
278 266
278 282
278 285
278 299
278 300
279 244
279 248
279 276
279 283
279 296
280 243
280 254
280 258
280 265
280 277
280 281
280 301
280 302
280 304
281 243
281 257
281 265
281 280
281 286
281 304
282 260
282 262
282 264
282 278
282 299
282 303
283 248
283 279
283 296
283 318
284 264
284 268
284 295
284 303
284 306
284 310
285 256
285 266
285 271
285 278
285 298
285 300
286 257
286 259
286 265
286 281
286 288
286 304
286 307
287 261
287 267
287 289
287 293
287 312
288 255
288 259
288 286
288 293
288 313
289 261
289 267
289 287
289 290
289 314
289 327
290 263
290 272
290 289
290 292
290 314
290 316
291 273
291 276
291 311
291 321
291 326
292 263
292 271
292 272
292 290
292 314
292 316
292 319
293 255
293 259
293 267
293 287
293 288
293 312
293 313
294 269
294 275
294 297
294 309
294 315
295 268
295 270
295 284
295 308
295 310
295 311
296 276
296 279
296 283
296 321
296 324
296 325
297 269
297 274
297 275
297 294
297 305
297 309
297 315
297 317
298 266
298 271
298 285
298 300
298 322
298 328
298 330
299 278
299 282
299 300
299 303
299 330
299 343
300 278
300 285
300 298
300 299
300 328
300 330
301 277
301 280
301 302
301 305
301 323
301 331
302 277
302 280
302 301
302 304
302 320
302 323
302 331
302 341
303 282
303 284
303 299
303 306
303 335
303 342
304 280
304 281
304 286
304 302
304 307
304 320
304 323
304 329
304 341
305 274
305 275
305 297
305 301
305 315
305 317
305 331
305 339
306 284
306 303
306 310
306 335
306 336
306 338
307 286
307 304
307 313
307 329
307 337
307 346
308 295
308 310
308 311
308 338
308 340
309 294
309 297
309 315
310 284
310 295
310 306
310 308
310 336
310 338
310 340
311 291
311 295
311 308
311 326
311 340
311 350
312 287
312 293
312 313
312 327
312 333
312 345
313 288
313 293
313 307
313 312
313 333
313 337
314 289
314 290
314 292
314 316
314 327
314 332
314 334
314 344
314 351
315 294
315 297
315 305
315 309
315 317
316 290
316 292
316 314
316 319
316 332
316 334
316 344
316 347
316 354
317 297
317 305
317 315
317 331
317 339
318 283
318 324
319 292
319 316
319 322
319 332
319 347
319 349
319 354
320 302
320 304
320 323
320 329
320 341
320 346
321 291
321 296
321 325
321 326
321 352
322 298
322 319
322 328
322 347
322 348
322 349
323 301
323 302
323 304
323 320
323 331
323 339
323 341
324 296
324 318
324 325
324 357
325 296
325 321
325 324
325 326
325 352
326 291
326 311
326 321
326 325
326 350
327 289
327 312
327 314
327 334
327 344
327 345
327 351
328 298
328 300
328 322
328 330
328 348
328 349
328 358
328 361
329 304
329 307
329 320
329 337
329 346
330 298
330 299
330 300
330 328
330 343
330 348
330 358
331 301
331 302
331 305
331 317
331 323
331 339
331 360
332 314
332 316
332 319
332 334
332 344
332 347
332 354
332 359
333 312
333 313
333 337
333 345
333 366
334 314
334 316
334 327
334 332
334 344
334 345
334 351
334 359
335 303
335 306
335 336
335 342
335 343
335 353
335 355
336 306
336 310
336 335
336 338
336 340
336 353
336 355
336 362
337 307
337 313
337 329
337 333
337 346
337 367
338 306
338 308
338 310
338 336
338 340
338 353
338 362
338 363
339 305
339 317
339 323
339 331
339 360
340 308
340 310
340 311
340 336
340 338
340 350
340 362
340 363
341 302
341 304
341 320
341 323
341 346
341 364
341 370
342 303
342 335
342 343
342 353
342 355
342 358
343 299
343 330
343 335
343 342
343 348
343 355
343 358
344 314
344 316
344 327
344 332
344 334
344 347
344 351
344 354
344 359
344 368
345 312
345 327
345 333
345 334
345 351
345 369
346 307
346 320
346 329
346 337
346 341
346 364
347 316
347 319
347 322
347 332
347 344
347 349
347 354
347 359
347 361
348 322
348 328
348 330
348 343
348 349
348 358
348 361
349 319
349 322
349 328
349 347
349 348
349 354
349 361
349 375
350 311
350 326
350 340
350 363
351 314
351 327
351 334
351 344
351 345
351 359
351 368
352 321
352 325
352 357
352 365
352 374
353 335
353 336
353 338
353 342
353 355
353 362
354 316
354 319
354 332
354 344
354 347
354 349
354 359
354 368
354 378
354 381
355 335
355 336
355 342
355 343
355 353
355 383
356 360
357 324
357 352
357 374
357 376
358 328
358 330
358 342
358 343
358 348
358 361
358 379
359 332
359 334
359 344
359 347
359 351
359 354
359 368
359 378
359 381
360 331
360 339
360 356
360 373
360 382
361 328
361 347
361 348
361 349
361 358
361 375
361 390
361 394
362 336
362 338
362 340
362 353
362 363
363 338
363 340
363 350
363 362
363 393
364 341
364 346
364 370
364 371
364 377
364 392
365 352
365 372
365 374
366 333
366 367
366 369
366 380
366 384
366 395
367 337
367 366
367 377
367 384
367 387
368 344
368 351
368 354
368 359
368 378
368 386
368 396
369 345
369 366
369 380
369 384
369 386
369 395
370 341
370 364
370 371
370 377
370 391
370 392
370 397
371 364
371 370
371 373
371 389
371 391
371 397
372 365
372 403
373 360
373 371
373 382
373 389
373 391
374 352
374 357
374 365
374 376
374 401
374 402
375 349
375 361
375 381
375 385
375 390
375 394
375 408
376 357
376 374
376 401
377 364
377 367
377 370
377 387
377 392
378 354
378 359
378 368
378 381
378 385
378 396
379 358
379 383
379 394
379 399
379 412
380 366
380 369
380 384
380 386
380 395
380 411
381 354
381 359
381 375
381 378
381 385
381 390
381 396
382 360
382 373
382 388
382 389
382 414
383 355
383 379
383 399
383 400
383 405
384 366
384 367
384 369
384 380
384 395
384 404
385 375
385 378
385 381
385 390
385 408
385 415
385 416
386 368
386 369
386 380
386 395
386 396
386 410
386 411
387 367
387 377
387 392
387 404
387 424
388 382
388 422
388 425
389 371
389 373
389 382
389 391
389 397
389 413
389 414
389 427
390 361
390 375
390 381
390 385
390 394
390 407
390 408
390 416
391 370
391 371
391 373
391 389
391 397
391 413
391 418
391 427
392 364
392 370
392 377
392 387
392 397
392 417
392 424
393 363
393 398
393 406
394 361
394 375
394 379
394 390
394 399
394 407
394 408
394 412
394 423
395 366
395 369
395 380
395 384
395 386
395 404
395 411
396 368
396 378
396 381
396 386
396 410
396 415
397 370
397 371
397 389
397 391
397 392
397 417
397 418
398 393
398 405
398 406
398 421
399 379
399 383
399 394
399 400
399 407
399 412
399 423
400 383
400 399
400 405
400 412
400 421
400 428
401 374
401 376
401 402
401 420
401 429
401 435
402 374
402 401
402 403
402 419
402 420
403 372
403 402
403 409
403 419
403 420
404 384
404 387
404 395
404 426
404 437
405 383
405 398
405 400
405 421
405 428
405 436
406 393
406 398
406 409
406 430
406 432
406 442
407 390
407 394
407 399
407 408
407 412
407 423
408 375
408 385
408 390
408 394
408 407
408 416
408 423
408 446
409 403
409 406
409 419
409 430
410 386
410 396
410 411
410 415
410 434
410 447
411 380
411 386
411 395
411 410
411 434
411 440
412 379
412 394
412 399
412 400
412 407
412 423
412 428
413 389
413 391
413 414
413 418
413 427
413 431
413 443
414 382
414 389
414 413
414 425
414 431
414 443
415 385
415 396
415 410
415 416
415 449
416 385
416 390
416 408
416 415
416 446
416 449
417 392
417 397
417 418
417 424
417 427
417 433
417 438
417 441
417 448
417 458
418 391
418 397
418 413
418 417
418 427
418 431
418 438
418 441
418 448
418 458
419 402
419 403
419 409
419 420
419 439
419 444
420 401
420 402
420 403
420 419
420 435
420 439
420 444
420 445
421 398
421 400
421 405
421 428
421 436
421 442
422 388
422 425
422 451
422 453
423 394
423 399
423 407
423 408
423 412
423 428
423 450
423 452
424 387
424 392
424 417
424 433
424 438
424 441
424 461
425 388
425 414
425 422
425 443
425 451
425 453
425 462
426 404
426 437
426 440
426 456
427 389
427 391
427 413
427 417
427 418
427 431
427 441
427 448
427 458
427 459
427 463
428 400
428 405
428 412
428 421
428 423
428 436
428 454
429 401
429 435
429 445
429 457
430 406
430 409
430 432
430 460
430 470
431 413
431 414
431 418
431 427
431 443
431 448
431 459
431 463
432 406
432 430
432 442
432 468
432 470
433 417
433 424
433 437
433 438
433 441
433 456
433 461
433 464
434 410
434 411
434 440
434 447
434 455
434 469
435 401
435 420
435 429
435 444
435 445
435 457
436 405
436 421
436 428
436 454
436 467
437 404
437 426
437 433
437 440
437 456
437 466
438 417
438 418
438 424
438 433
438 441
438 458
438 461
438 464
439 419
439 420
439 444
439 460
440 411
440 426
440 434
440 437
440 455
440 466
440 469
441 417
441 418
441 424
441 427
441 433
441 438
441 448
441 458
441 461
441 463
442 406
442 421
442 432
442 468
443 413
443 414
443 425
443 431
443 451
443 459
443 462
444 419
444 420
444 435
444 439
444 445
444 457
445 420
445 429
445 435
445 444
445 457
446 408
446 416
446 449
446 450
446 465
447 410
447 434
447 455
447 469
448 417
448 418
448 427
448 431
448 441
448 458
448 459
448 461
448 463
449 415
449 416
449 446
449 450
449 465
450 423
450 446
450 449
450 452
451 422
451 425
451 443
451 453
451 462
452 423
452 450
453 422
453 425
453 451
453 462
454 428
454 436
454 467
455 434
455 440
455 447
455 466
455 469
456 426
456 433
456 437
456 464
456 466
457 429
457 435
457 444
457 445
458 417
458 418
458 427
458 438
458 441
458 448
458 459
458 461
458 463
459 427
459 431
459 443
459 448
459 458
459 462
459 463
460 430
460 439
460 470
461 424
461 433
461 438
461 441
461 448
461 458
461 464
462 425
462 443
462 451
462 453
462 459
463 427
463 431
463 441
463 448
463 458
463 459
464 433
464 438
464 456
464 461
465 446
465 449
466 437
466 440
466 455
466 456
466 469
467 436
467 454
468 432
468 442
468 470
469 434
469 440
469 447
469 455
469 466
470 430
470 432
470 460
470 468
