1 2
1 19
1 21
1 22
1 31
1 38
2 1
2 3
2 12
2 21
2 22
2 24
2 38
3 2
3 5
3 12
3 15
3 21
3 24
3 42
4 17
4 18
4 25
4 32
4 35
4 43
5 3
5 7
5 12
5 15
5 24
5 30
5 41
5 50
6 8
6 13
6 23
6 26
6 28
6 36
6 49
7 5
7 11
7 12
7 15
7 30
7 41
7 45
7 50
8 6
8 13
8 20
8 28
8 29
8 36
8 44
9 14
9 20
9 29
9 33
9 34
9 44
9 48
10 16
10 19
10 22
10 27
10 31
10 39
10 46
10 47
11 7
11 13
11 23
11 26
11 40
11 45
11 52
11 56
12 2
12 3
12 5
12 7
12 15
12 21
12 24
12 30
12 41
12 42
12 55
13 6
13 8
13 11
13 23
13 26
13 28
13 36
13 49
14 9
14 29
14 33
14 34
14 48
14 53
15 3
15 5
15 7
15 12
15 24
15 30
15 41
15 42
15 50
16 10
16 19
16 27
16 31
16 39
16 46
16 47
17 4
17 25
17 35
17 43
17 54
17 58
18 4
18 25
18 27
18 32
18 37
18 57
19 1
19 10
19 16
19 22
19 27
19 31
19 38
19 39
19 47
19 60
20 8
20 9
20 28
20 29
20 33
20 44
20 48
20 59
20 61
20 63
21 1
21 2
21 3
21 12
21 22
21 24
21 38
21 42
21 51
21 55
21 60
21 68
22 1
22 2
22 10
22 19
22 21
22 31
22 38
22 39
22 47
22 51
22 60
23 6
23 11
23 13
23 26
23 40
23 45
23 52
23 56
23 66
24 2
24 3
24 5
24 12
24 15
24 21
24 41
24 42
24 51
24 55
25 4
25 17
25 18
25 32
25 35
25 37
25 43
25 54
25 64
26 6
26 11
26 13
26 23
26 28
26 36
26 40
26 49
26 52
26 62
27 10
27 16
27 18
27 19
27 31
27 37
27 39
27 46
27 47
27 57
27 69
28 6
28 8
28 13
28 20
28 26
28 29
28 36
28 44
28 49
28 59
28 61
29 8
29 9
29 14
29 20
29 28
29 33
29 34
29 44
29 48
29 59
29 61
29 63
29 65
30 5
30 7
30 12
30 15
30 40
30 41
30 42
30 45
30 50
30 70
31 1
31 10
31 16
31 19
31 22
31 27
31 38
31 39
31 47
31 60
31 67
32 4
32 18
32 25
32 37
32 43
32 57
32 64
32 72
33 9
33 14
33 20
33 29
33 34
33 44
33 48
33 53
33 61
33 63
33 65
34 9
34 14
34 29
34 33
34 48
34 53
34 65
35 4
35 17
35 25
35 43
35 54
35 58
35 71
35 80
36 6
36 8
36 13
36 26
36 28
36 44
36 49
36 59
36 62
36 76
37 18
37 25
37 27
37 32
37 43
37 46
37 57
37 64
37 69
37 72
38 1
38 2
38 19
38 21
38 22
38 31
38 47
38 51
38 55
38 60
38 68
38 75
39 10
39 16
39 19
39 22
39 27
39 31
39 46
39 47
39 67
39 69
39 73
40 11
40 23
40 26
40 30
40 45
40 50
40 52
40 56
40 66
40 78
41 5
41 7
41 12
41 15
41 24
41 30
41 42
41 45
41 50
41 55
41 70
41 74
41 83
41 86
42 3
42 12
42 15
42 21
42 24
42 30
42 41
42 50
42 51
42 55
42 70
42 74
43 4
43 17
43 25
43 32
43 35
43 37
43 54
43 58
43 64
43 71
43 72
43 82
44 8
44 9
44 20
44 28
44 29
44 33
44 36
44 48
44 59
44 61
44 63
44 65
44 77
44 88
45 7
45 11
45 23
45 30
45 40
45 41
45 50
45 52
45 56
45 66
45 78
45 85
46 10
46 16
46 27
46 37
46 39
46 47
46 57
46 67
46 69
46 73
46 81
47 10
47 16
47 19
47 22
47 27
47 31
47 38
47 39
47 46
47 60
47 67
47 73
47 89
48 9
48 14
48 20
48 29
48 33
48 34
48 44
48 53
48 61
48 63
48 65
48 77
48 87
49 6
49 13
49 26
49 28
49 36
49 52
49 59
49 62
49 66
49 76
49 79
50 5
50 7
50 15
50 30
50 40
50 41
50 42
50 45
50 56
50 70
50 78
50 83
50 86
51 21
51 22
51 24
51 38
51 42
51 55
51 60
51 68
51 75
51 92
52 11
52 23
52 26
52 40
52 45
52 49
52 56
52 62
52 66
52 78
52 79
52 85
53 14
53 33
53 34
53 48
53 63
53 65
53 87
53 90
54 17
54 25
54 35
54 43
54 58
54 64
54 71
54 80
54 82
55 12
55 21
55 24
55 38
55 41
55 42
55 51
55 68
55 70
55 74
55 91
55 92
56 11
56 23
56 40
56 45
56 50
56 52
56 62
56 66
56 78
56 85
57 18
57 27
57 32
57 37
57 46
57 64
57 69
57 72
57 81
57 82
57 99
58 17
58 35
58 43
58 54
58 71
58 80
58 100
58 103
59 20
59 28
59 29
59 36
59 44
59 49
59 61
59 62
59 63
59 76
59 77
59 79
59 84
59 88
59 101
60 19
60 21
60 22
60 31
60 38
60 47
60 51
60 67
60 68
60 75
60 89
60 94
61 20
61 28
61 29
61 33
61 44
61 48
61 59
61 63
61 65
61 76
61 77
61 84
61 88
61 97
62 26
62 36
62 49
62 52
62 56
62 59
62 66
62 76
62 79
62 101
62 102
63 20
63 29
63 33
63 44
63 48
63 53
63 59
63 61
63 65
63 77
63 84
63 87
63 88
63 96
63 97
64 25
64 32
64 37
64 43
64 54
64 57
64 71
64 72
64 82
64 99
64 107
65 29
65 33
65 34
65 44
65 48
65 53
65 61
65 63
65 77
65 87
65 88
65 90
65 96
65 97
66 23
66 40
66 45
66 49
66 52
66 56
66 62
66 78
66 79
66 85
66 98
67 31
67 39
67 46
67 47
67 60
67 69
67 73
67 75
67 81
67 89
67 94
67 105
68 21
68 38
68 51
68 55
68 60
68 74
68 75
68 92
68 94
68 110
69 27
69 37
69 39
69 46
69 57
69 67
69 72
69 73
69 81
69 99
69 105
69 109
70 30
70 41
70 42
70 50
70 55
70 74
70 83
70 86
70 91
70 104
70 114
71 35
71 43
71 54
71 58
71 64
71 72
71 80
71 82
71 95
71 100
71 107
72 32
72 37
72 43
72 57
72 64
72 69
72 71
72 82
72 99
72 107
73 39
73 46
73 47
73 67
73 69
73 81
73 89
73 105
73 122
74 41
74 42
74 55
74 68
74 70
74 83
74 86
74 91
74 92
74 104
74 112
74 114
75 38
75 51
75 60
75 67
75 68
75 89
75 92
75 94
75 108
75 110
75 117
76 36
76 49
76 59
76 61
76 62
76 79
76 84
76 88
76 101
76 102
76 118
76 123
77 44
77 48
77 59
77 61
77 63
77 65
77 84
77 87
77 88
77 96
77 97
77 113
77 121
77 124
78 40
78 45
78 50
78 52
78 56
78 66
78 83
78 85
78 93
78 98
78 104
78 106
78 111
78 119
79 49
79 52
79 59
79 62
79 66
79 76
79 85
79 98
79 101
79 102
79 123
80 35
80 54
80 58
80 71
80 95
80 100
80 103
80 116
81 46
81 57
81 67
81 69
81 73
81 89
81 99
81 105
81 109
82 43
82 54
82 57
82 64
82 71
82 72
82 95
82 99
82 100
82 107
83 41
83 50
83 70
83 74
83 78
83 85
83 86
83 91
83 93
83 104
83 106
83 114
83 119
84 59
84 61
84 63
84 76
84 77
84 88
84 97
84 101
84 118
84 121
84 123
85 45
85 52
85 56
85 66
85 78
85 79
85 83
85 93
85 98
85 106
85 111
85 119
85 120
85 129
86 41
86 50
86 70
86 74
86 83
86 91
86 93
86 104
86 106
86 112
86 114
86 127
87 48
87 53
87 63
87 65
87 77
87 88
87 90
87 96
87 97
87 113
87 115
87 124
87 132
88 44
88 59
88 61
88 63
88 65
88 76
88 77
88 84
88 87
88 96
88 97
88 113
88 118
88 121
88 124
89 47
89 60
89 67
89 73
89 75
89 81
89 94
89 105
89 108
89 122
90 53
90 65
90 87
90 96
90 97
90 113
90 115
90 132
90 139
91 55
91 70
91 74
91 83
91 86
91 92
91 104
91 110
91 112
91 114
91 127
91 133
91 136
92 51
92 55
92 68
92 74
92 75
92 91
92 94
92 108
92 110
92 112
92 117
92 128
92 136
93 78
93 83
93 85
93 86
93 98
93 104
93 106
93 111
93 114
93 119
93 120
93 127
93 129
93 138
94 60
94 67
94 68
94 75
94 89
94 92
94 108
94 110
94 117
94 128
94 134
95 71
95 80
95 82
95 100
95 103
95 107
95 116
95 131
95 135
96 63
96 65
96 77
96 87
96 88
96 90
96 97
96 113
96 115
96 124
96 132
97 61
97 63
97 65
97 77
97 84
97 87
97 88
97 90
97 96
97 113
97 121
97 124
97 132
97 145
98 66
98 78
98 79
98 85
98 93
98 102
98 111
98 119
98 120
98 126
98 129
98 144
99 57
99 64
99 69
99 72
99 81
99 82
99 107
99 109
99 125
99 130
99 143
100 58
100 71
100 80
100 82
100 95
100 103
100 107
100 116
100 131
100 135
100 148
101 59
101 62
101 76
101 79
101 84
101 102
101 118
101 121
101 123
101 126
101 137
101 141
102 62
102 76
102 79
102 98
102 101
102 118
102 120
102 123
102 126
102 141
102 149
103 58
103 80
103 95
103 100
103 116
103 135
103 146
104 70
104 74
104 78
104 83
104 86
104 91
104 93
104 106
104 112
104 114
104 119
104 127
104 129
104 138
105 67
105 69
105 73
105 81
105 89
105 108
105 109
105 122
105 140
105 142
106 78
106 83
106 85
106 86
106 93
106 104
106 111
106 114
106 119
106 127
106 129
106 138
106 147
107 64
107 71
107 72
107 82
107 95
107 99
107 100
107 125
107 130
107 131
107 135
107 143
108 75
108 89
108 92
108 94
108 105
108 110
108 117
108 122
108 128
108 134
108 152
109 69
109 81
109 99
109 105
109 122
109 125
109 140
109 142
109 143
109 157
110 68
110 75
110 91
110 92
110 94
110 108
110 112
110 117
110 128
110 134
110 136
110 151
111 78
111 85
111 93
111 98
111 106
111 119
111 120
111 126
111 129
111 144
111 147
112 74
112 86
112 91
112 92
112 104
112 110
112 114
112 127
112 128
112 133
112 136
113 77
113 87
113 88
113 90
113 96
113 97
113 115
113 124
113 132
113 139
113 145
113 153
113 160
114 70
114 74
114 83
114 86
114 91
114 93
114 104
114 106
114 112
114 127
114 133
114 136
114 138
115 87
115 90
115 96
115 113
115 132
115 139
115 153
115 155
116 80
116 95
116 100
116 103
116 135
116 146
116 148
116 150
117 75
117 92
117 94
117 108
117 110
117 128
117 134
117 136
117 151
117 152
118 76
118 84
118 88
118 101
118 102
118 121
118 123
118 124
118 126
118 137
118 141
118 145
118 149
118 156
118 161
119 78
119 83
119 85
119 93
119 98
119 104
119 106
119 111
119 120
119 127
119 129
119 138
119 144
119 147
119 159
119 162
120 85
120 93
120 98
120 102
120 111
120 119
120 126
120 129
120 144
120 154
120 162
120 167
121 77
121 84
121 88
121 97
121 101
121 118
121 123
121 124
121 137
121 141
121 145
121 156
122 73
122 89
122 105
122 108
122 109
122 134
122 140
122 142
122 158
122 163
123 76
123 79
123 84
123 101
123 102
123 118
123 121
123 126
123 137
123 141
123 149
123 154
123 161
124 77
124 87
124 88
124 96
124 97
124 113
124 118
124 121
124 132
124 137
124 145
124 153
124 156
124 160
124 166
125 99
125 107
125 109
125 130
125 131
125 140
125 143
125 157
125 164
125 165
126 98
126 101
126 102
126 111
126 118
126 120
126 123
126 137
126 141
126 144
126 149
126 154
126 161
126 167
127 86
127 91
127 93
127 104
127 106
127 112
127 114
127 119
127 129
127 133
127 136
127 138
127 147
127 168
127 169
127 172
128 92
128 94
128 108
128 110
128 112
128 117
128 133
128 134
128 136
128 151
128 152
128 170
129 85
129 93
129 98
129 104
129 106
129 111
129 119
129 120
129 127
129 138
129 144
129 147
129 159
129 162
129 167
129 169
130 99
130 107
130 125
130 131
130 135
130 143
130 150
130 164
130 165
130 180
131 95
131 100
131 107
131 125
131 130
131 135
131 143
131 148
131 150
131 164
131 165
131 176
132 87
132 90
132 96
132 97
132 113
132 115
132 124
132 139
132 145
132 153
132 155
132 160
132 166
133 91
133 112
133 114
133 127
133 128
133 136
133 138
133 151
133 168
133 172
133 178
134 94
134 108
134 110
134 117
134 122
134 128
134 142
134 151
134 152
134 158
134 170
134 175
135 95
135 100
135 103
135 107
135 116
135 130
135 131
135 146
135 148
135 150
135 165
135 171
135 173
135 176
136 91
136 92
136 110
136 112
136 114
136 117
136 127
136 128
136 133
136 151
136 168
136 178
137 101
137 118
137 121
137 123
137 124
137 126
137 141
137 145
137 149
137 154
137 156
137 161
137 166
137 174
137 179
138 93
138 104
138 106
138 114
138 119
138 127
138 129
138 133
138 147
138 159
138 169
138 172
139 90
139 113
139 115
139 132
139 153
139 155
139 160
140 105
140 109
140 122
140 125
140 142
140 143
140 157
140 163
141 101
141 102
141 118
141 121
141 123
141 126
141 137
141 149
141 154
141 156
141 161
141 174
141 179
142 105
142 109
142 122
142 134
142 140
142 152
142 157
142 158
142 163
142 177
142 183
143 99
143 107
143 109
143 125
143 130
143 131
143 140
143 157
143 164
143 165
143 180
144 98
144 111
144 119
144 120
144 126
144 129
144 147
144 149
144 154
144 159
144 162
144 167
144 181
144 186
145 97
145 113
145 118
145 121
145 124
145 132
145 137
145 153
145 156
145 160
145 166
145 174
146 103
146 116
146 135
146 148
146 150
146 171
146 173
146 176
146 187
146 190
147 106
147 111
147 119
147 127
147 129
147 138
147 144
147 159
147 162
147 167
147 169
147 172
147 181
147 182
148 100
148 116
148 131
148 135
148 146
148 150
148 171
148 173
148 176
148 187
148 190
149 102
149 118
149 123
149 126
149 137
149 141
149 144
149 154
149 156
149 161
149 167
149 174
149 179
149 186
150 116
150 130
150 131
150 135
150 146
150 148
150 165
150 171
150 173
150 176
150 187
150 190
150 191
151 110
151 117
151 128
151 133
151 134
151 136
151 152
151 168
151 170
151 175
151 178
151 184
151 189
151 195
152 108
152 117
152 128
152 134
152 142
152 151
152 158
152 163
152 170
152 175
152 177
152 184
152 189
152 194
153 113
153 115
153 124
153 132
153 139
153 145
153 155
153 160
153 166
153 185
153 196
154 120
154 123
154 126
154 137
154 141
154 144
154 149
154 161
154 162
154 167
154 179
154 186
155 115
155 132
155 139
155 153
155 160
155 185
156 118
156 121
156 124
156 137
156 141
156 145
156 149
156 161
156 166
156 174
156 179
156 193
156 196
156 197
157 109
157 125
157 140
157 142
157 143
157 158
157 163
157 164
157 177
157 183
157 192
158 122
158 134
158 142
158 152
158 157
158 163
158 170
158 175
158 177
158 183
158 194
158 199
159 119
159 129
159 138
159 144
159 147
159 162
159 167
159 169
159 172
159 181
159 182
159 188
159 200
159 202
160 113
160 124
160 132
160 139
160 145
160 153
160 155
160 166
160 185
160 196
161 118
161 123
161 126
161 137
161 141
161 149
161 154
161 156
161 174
161 179
161 186
161 193
161 203
161 204
162 119
162 120
162 129
162 144
162 147
162 154
162 159
162 167
162 169
162 181
162 182
162 202
163 122
163 140
163 142
163 152
163 157
163 158
163 175
163 177
163 183
163 192
163 199
164 125
164 130
164 131
164 143
164 157
164 165
164 180
164 191
164 192
164 205
165 125
165 130
165 131
165 135
165 143
165 150
165 164
165 176
165 180
165 191
165 205
166 124
166 132
166 137
166 145
166 153
166 156
166 160
166 174
166 185
166 193
166 196
166 197
167 120
167 126
167 129
167 144
167 147
167 149
167 154
167 159
167 162
167 181
167 182
167 186
167 207
168 127
168 133
168 136
168 151
168 169
168 172
168 178
168 188
168 195
168 198
169 127
169 129
169 138
169 147
169 159
169 162
169 168
169 172
169 181
169 182
169 188
169 200
169 202
170 128
170 134
170 151
170 152
170 158
170 175
170 177
170 184
170 189
170 194
170 201
171 135
171 146
171 148
171 150
171 173
171 176
171 187
171 190
171 210
172 127
172 133
172 138
172 147
172 159
172 168
172 169
172 178
172 188
172 198
172 200
172 212
173 135
173 146
173 148
173 150
173 171
173 176
173 187
173 190
173 191
173 210
173 216
174 137
174 141
174 145
174 149
174 156
174 161
174 166
174 179
174 193
174 197
174 203
175 134
175 151
175 152
175 158
175 163
175 170
175 177
175 184
175 189
175 194
175 199
175 201
175 208
176 131
176 135
176 146
176 148
176 150
176 165
176 171
176 173
176 187
176 190
176 191
176 210
176 216
177 142
177 152
177 157
177 158
177 163
177 170
177 175
177 183
177 194
177 199
177 208
177 219
178 133
178 136
178 151
178 168
178 172
178 184
178 188
178 195
178 198
178 201
178 209
178 212
178 215
179 137
179 141
179 149
179 154
179 156
179 161
179 174
179 186
179 193
179 203
179 204
179 214
179 222
180 130
180 143
180 164
180 165
180 191
180 192
180 205
180 206
180 220
181 144
181 147
181 159
181 162
181 167
181 169
181 182
181 186
181 202
181 207
181 211
181 226
182 147
182 159
182 162
182 167
182 169
182 181
182 188
182 200
182 202
182 207
182 211
182 226
183 142
183 157
183 158
183 163
183 177
183 192
183 194
183 199
183 206
183 208
183 217
183 219
184 151
184 152
184 170
184 175
184 178
184 189
184 194
184 195
184 198
184 201
184 209
184 215
184 223
185 153
185 155
185 160
185 166
185 196
185 197
185 213
185 218
185 225
186 144
186 149
186 154
186 161
186 167
186 179
186 181
186 203
186 204
186 207
186 214
186 222
187 146
187 148
187 150
187 171
187 173
187 176
187 190
187 210
187 216
188 159
188 168
188 169
188 172
188 178
188 182
188 195
188 198
188 200
188 202
188 212
188 215
189 151
189 152
189 170
189 175
189 184
189 194
189 195
189 201
189 208
189 209
189 228
189 230
190 146
190 148
190 150
190 171
190 173
190 176
190 187
190 191
190 210
190 216
190 231
191 150
191 164
191 165
191 173
191 176
191 180
191 190
191 205
191 216
191 227
192 157
192 163
192 164
192 180
192 183
192 199
192 205
192 206
192 217
192 219
192 220
193 156
193 161
193 166
193 174
193 179
193 196
193 197
193 203
193 204
193 218
193 221
193 224
194 152
194 158
194 170
194 175
194 177
194 183
194 184
194 189
194 199
194 201
194 208
194 219
194 228
195 151
195 168
195 178
195 184
195 188
195 189
195 198
195 201
195 209
195 215
195 223
195 232
196 153
196 156
196 160
196 166
196 185
196 193
196 197
196 213
196 218
196 221
196 225
196 229
197 156
197 166
197 174
197 185
197 193
197 196
197 213
197 218
197 221
197 224
197 225
197 229
198 168
198 172
198 178
198 184
198 188
198 195
198 200
198 201
198 209
198 212
198 215
198 223
198 232
198 237
199 158
199 163
199 175
199 177
199 183
199 192
199 194
199 208
199 217
199 219
199 228
199 234
200 159
200 169
200 172
200 182
200 188
200 198
200 202
200 211
200 212
200 226
200 236
200 237
201 170
201 175
201 178
201 184
201 189
201 194
201 195
201 198
201 208
201 209
201 215
201 223
201 228
201 230
201 235
202 159
202 162
202 169
202 181
202 182
202 188
202 200
202 207
202 211
202 212
202 226
202 236
203 161
203 174
203 179
203 186
203 193
203 204
203 214
203 222
203 224
203 243
203 244
204 161
204 179
204 186
204 193
204 203
204 207
204 214
204 222
204 224
204 243
204 244
205 164
205 165
205 180
205 191
205 192
205 206
205 220
205 227
205 233
205 240
206 180
206 183
206 192
206 205
206 217
206 219
206 220
206 234
206 240
206 242
207 167
207 181
207 182
207 186
207 202
207 204
207 211
207 214
207 222
207 226
207 238
208 175
208 177
208 183
208 189
208 194
208 199
208 201
208 217
208 219
208 228
208 230
208 234
208 235
208 239
209 178
209 184
209 189
209 195
209 198
209 201
209 212
209 215
209 223
209 230
209 232
209 235
209 251
210 171
210 173
210 176
210 187
210 190
210 216
210 231
210 241
211 181
211 182
211 200
211 202
211 207
211 214
211 226
211 236
211 238
211 245
212 172
212 178
212 188
212 198
212 200
212 202
212 209
212 215
212 226
212 232
212 236
212 237
212 249
213 185
213 196
213 197
213 218
213 221
213 225
213 229
213 250
214 179
214 186
214 203
214 204
214 207
214 211
214 222
214 238
214 243
214 244
215 178
215 184
215 188
215 195
215 198
215 201
215 209
215 212
215 223
215 230
215 232
215 237
215 249
215 251
216 173
216 176
216 187
216 190
216 191
216 210
216 227
216 231
216 241
217 183
217 192
217 199
217 206
217 208
217 219
217 220
217 234
217 242
217 246
217 248
218 185
218 193
218 196
218 197
218 213
218 221
218 224
218 225
218 229
218 250
218 254
219 177
219 183
219 192
219 194
219 199
219 206
219 208
219 217
219 220
219 228
219 234
219 239
219 242
219 246
219 248
220 180
220 192
220 205
220 206
220 217
220 219
220 233
220 234
220 240
220 242
220 246
221 193
221 196
221 197
221 213
221 218
221 224
221 225
221 229
221 247
221 254
222 179
222 186
222 203
222 204
222 207
222 214
222 224
222 238
222 243
222 244
222 247
222 255
222 263
223 184
223 195
223 198
223 201
223 209
223 215
223 228
223 230
223 232
223 235
223 251
223 256
223 262
224 193
224 197
224 203
224 204
224 218
224 221
224 222
224 229
224 243
224 244
224 247
224 254
224 255
224 263
225 185
225 196
225 197
225 213
225 218
225 221
225 229
225 250
225 264
226 181
226 182
226 200
226 202
226 207
226 211
226 212
226 236
226 237
226 238
226 245
226 260
226 261
227 191
227 205
227 216
227 231
227 233
227 240
227 252
227 258
227 267
228 189
228 194
228 199
228 201
228 208
228 219
228 223
228 230
228 234
228 235
228 239
228 248
228 257
228 262
228 265
229 196
229 197
229 213
229 218
229 221
229 224
229 225
229 250
229 254
229 264
229 269
230 189
230 201
230 208
230 209
230 215
230 223
230 228
230 235
230 239
230 251
230 256
230 257
230 262
230 265
231 190
231 210
231 216
231 227
231 241
231 252
231 259
231 267
231 270
232 195
232 198
232 209
232 212
232 215
232 223
232 237
232 249
232 251
232 256
232 266
232 272
233 205
233 220
233 227
233 240
233 242
233 252
233 258
233 274
234 199
234 206
234 208
234 217
234 219
234 220
234 228
234 239
234 242
234 246
234 248
234 257
234 273
235 201
235 208
235 209
235 223
235 228
235 230
235 239
235 256
235 257
235 262
235 265
235 280
236 200
236 202
236 211
236 212
236 226
236 237
236 245
236 249
236 260
236 261
236 266
236 271
237 198
237 200
237 212
237 215
237 226
237 232
237 236
237 249
237 251
237 260
237 266
238 207
238 211
238 214
238 222
238 226
238 243
238 245
238 253
238 255
238 261
238 277
238 279
239 208
239 219
239 228
239 230
239 234
239 235
239 248
239 257
239 262
239 265
239 281
240 205
240 206
240 220
240 227
240 233
240 242
240 246
240 252
240 258
240 268
241 210
241 216
241 231
241 259
241 267
241 270
242 206
242 217
242 219
242 220
242 233
242 234
242 240
242 246
242 248
242 258
242 268
242 273
243 203
243 204
243 214
243 222
243 224
243 238
243 244
243 247
243 253
243 255
243 263
243 275
243 277
244 203
244 204
244 214
244 222
244 224
244 243
244 247
244 255
244 263
244 275
244 277
244 278
245 211
245 226
245 236
245 238
245 253
245 260
245 261
245 271
245 279
246 217
246 219
246 220
246 234
246 240
246 242
246 248
246 257
246 268
246 273
246 276
247 221
247 222
247 224
247 243
247 244
247 254
247 255
247 263
247 275
247 278
248 217
248 219
248 228
248 234
248 239
248 242
248 246
248 257
248 265
248 273
248 276
248 281
249 212
249 215
249 232
249 236
249 237
249 251
249 256
249 260
249 266
249 272
249 282
249 288
250 213
250 218
250 225
250 229
250 254
250 264
250 269
250 284
250 285
251 209
251 215
251 223
251 230
251 232
251 237
251 249
251 256
251 262
251 266
251 272
251 280
252 227
252 231
252 233
252 240
252 258
252 259
252 267
252 274
252 283
253 238
253 243
253 245
253 255
253 261
253 271
253 277
253 279
254 218
254 221
254 224
254 229
254 247
254 250
254 263
254 264
254 269
254 278
254 284
254 295
255 222
255 224
255 238
255 243
255 244
255 247
255 253
255 263
255 275
255 277
255 278
255 289
256 223
256 230
256 232
256 235
256 249
256 251
256 262
256 265
256 272
256 280
256 291
257 228
257 230
257 234
257 235
257 239
257 246
257 248
257 262
257 265
257 276
257 280
257 281
257 290
258 227
258 233
258 240
258 242
258 252
258 267
258 268
258 274
258 283
258 287
259 231
259 241
259 252
259 267
259 270
259 283
259 293
260 226
260 236
260 237
260 245
260 249
260 261
260 266
260 271
260 282
260 286
261 226
261 236
261 238
261 245
261 253
261 260
261 271
261 279
261 286
262 223
262 228
262 230
262 235
262 239
262 251
262 256
262 257
262 265
262 272
262 280
262 281
262 290
262 297
263 222
263 224
263 243
263 244
263 247
263 254
263 255
263 275
263 278
263 289
263 292
264 225
264 229
264 250
264 254
264 269
264 284
264 285
265 228
265 230
265 235
265 239
265 248
265 256
265 257
265 262
265 276
265 280
265 281
265 290
265 297
266 232
266 236
266 237
266 249
266 251
266 260
266 271
266 272
266 282
266 286
266 288
266 296
267 227
267 231
267 241
267 252
267 258
267 259
267 270
267 274
267 283
267 293
267 294
268 240
268 242
268 246
268 258
268 273
268 274
268 287
268 305
269 229
269 250
269 254
269 264
269 278
269 284
269 285
269 295
269 310
270 231
270 241
270 259
270 267
270 283
270 293
270 302
271 236
271 245
271 253
271 260
271 261
271 266
271 279
271 282
271 286
271 300
272 232
272 249
272 251
272 256
272 262
272 266
272 280
272 282
272 288
272 291
272 296
272 303
272 312
273 234
273 242
273 246
273 248
273 268
273 276
273 287
273 298
273 306
274 233
274 252
274 258
274 267
274 268
274 283
274 287
274 293
274 294
274 313
275 243
275 244
275 247
275 255
275 263
275 277
275 278
275 289
275 292
275 299
275 304
275 314
276 246
276 248
276 257
276 265
276 273
276 281
276 290
276 298
276 301
276 306
277 238
277 243
277 244
277 253
277 255
277 275
277 279
277 289
277 299
277 308
277 311
278 244
278 247
278 254
278 255
278 263
278 269
278 275
278 289
278 292
278 295
278 304
278 314
279 238
279 245
279 253
279 261
279 271
279 277
279 299
279 300
279 308
279 311
280 235
280 251
280 256
280 257
280 262
280 265
280 272
280 281
280 290
280 291
280 297
280 303
280 307
281 239
281 248
281 257
281 262
281 265
281 276
281 280
281 290
281 297
281 301
281 306
281 307
282 249
282 260
282 266
282 271
282 272
282 286
282 288
282 291
282 296
282 309
282 321
283 252
283 258
283 259
283 267
283 270
283 274
283 293
283 294
283 313
284 250
284 254
284 264
284 269
284 285
284 295
284 310
284 315
284 320
284 326
285 250
285 264
285 269
285 284
285 295
285 310
285 320
285 324
286 260
286 261
286 266
286 271
286 282
286 288
286 296
286 300
286 309
286 323
286 330
287 258
287 268
287 273
287 274
287 298
287 305
287 318
287 325
288 249
288 266
288 272
288 282
288 286
288 291
288 296
288 309
288 312
288 321
289 255
289 263
289 275
289 277
289 278
289 292
289 299
289 304
289 311
289 314
289 317
290 257
290 262
290 265
290 276
290 280
290 281
290 297
290 301
290 303
290 306
290 307
290 319
290 329
290 333
291 256
291 272
291 280
291 282
291 288
291 296
291 297
291 303
291 312
291 331
292 263
292 275
292 278
292 289
292 295
292 299
292 304
292 314
292 315
292 317
292 335
293 259
293 267
293 270
293 274
293 283
293 294
293 302
293 313
293 316
293 327
294 267
294 274
294 283
294 293
294 305
294 313
294 327
295 254
295 269
295 278
295 284
295 285
295 292
295 304
295 310
295 314
295 315
295 320
295 326
296 266
296 272
296 282
296 286
296 288
296 291
296 300
296 309
296 312
296 321
296 330
297 262
297 265
297 280
297 281
297 290
297 291
297 301
297 303
297 307
297 312
297 319
297 329
297 331
297 333
298 273
298 276
298 287
298 301
298 305
298 306
298 318
298 319
298 325
298 328
299 275
299 277
299 279
299 289
299 292
299 308
299 311
299 314
299 317
299 322
299 332
300 271
300 279
300 286
300 296
300 308
300 309
300 322
300 323
300 330
300 338
301 276
301 281
301 290
301 297
301 298
301 306
301 307
301 319
301 328
301 329
301 333
301 339
302 270
302 293
302 316
302 327
302 336
303 272
303 280
303 290
303 291
303 297
303 307
303 312
303 331
303 333
303 345
304 275
304 278
304 289
304 292
304 295
304 310
304 314
304 315
304 317
304 326
304 335
305 268
305 287
305 294
305 298
305 313
305 318
305 325
305 334
306 273
306 276
306 281
306 290
306 298
306 301
306 318
306 319
306 328
306 329
306 339
306 343
307 280
307 281
307 290
307 297
307 301
307 303
307 319
307 329
307 333
307 339
307 351
308 277
308 279
308 299
308 300
308 311
308 322
308 323
308 332
308 338
308 346
309 282
309 286
309 288
309 296
309 300
309 312
309 321
309 323
309 330
309 342
309 344
309 347
310 269
310 284
310 285
310 295
310 304
310 315
310 320
310 324
310 326
310 337
310 341
311 277
311 279
311 289
311 299
311 308
311 314
311 317
311 322
311 332
311 349
312 272
312 288
312 291
312 296
312 297
312 303
312 309
312 321
312 331
312 342
312 345
313 274
313 283
313 293
313 294
313 305
313 325
313 327
313 334
314 275
314 278
314 289
314 292
314 295
314 299
314 304
314 311
314 315
314 317
314 335
314 348
315 284
315 292
315 295
315 304
315 310
315 314
315 320
315 326
315 335
315 337
315 341
315 348
315 359
316 293
316 302
316 327
316 336
316 358
317 289
317 292
317 299
317 304
317 311
317 314
317 332
317 335
317 348
317 349
317 353
318 287
318 298
318 305
318 306
318 325
318 328
318 334
318 340
318 343
318 355
319 290
319 297
319 298
319 301
319 306
319 307
319 328
319 329
319 333
319 339
319 343
319 351
320 284
320 285
320 295
320 310
320 315
320 324
320 326
320 337
320 341
320 352
321 282
321 288
321 296
321 309
321 312
321 330
321 331
321 342
321 344
321 347
322 299
322 300
322 308
322 311
322 323
322 330
322 332
322 338
322 346
322 356
322 363
323 286
323 300
323 308
323 309
323 322
323 330
323 338
323 344
323 346
323 363
324 285
324 310
324 320
324 326
324 337
324 341
324 352
324 365
325 287
325 298
325 305
325 313
325 318
325 334
325 340
325 355
325 357
325 361
326 284
326 295
326 304
326 310
326 315
326 320
326 324
326 335
326 337
326 341
326 359
327 293
327 294
327 302
327 313
327 316
327 336
327 358
327 360
327 362
328 298
328 301
328 306
328 318
328 319
328 329
328 339
328 340
328 343
328 355
328 364
329 290
329 297
329 301
329 306
329 307
329 319
329 328
329 333
329 339
329 350
329 351
329 371
330 286
330 296
330 300
330 309
330 321
330 322
330 323
330 338
330 344
330 346
330 347
330 366
330 368
331 291
331 297
331 303
331 312
331 321
331 333
331 342
331 345
331 347
331 350
332 299
332 308
332 311
332 317
332 322
332 346
332 349
332 353
332 356
333 290
333 297
333 301
333 303
333 307
333 319
333 329
333 331
333 339
333 345
333 350
333 351
333 371
334 305
334 313
334 318
334 325
334 340
334 355
334 357
334 361
335 292
335 304
335 314
335 315
335 317
335 326
335 341
335 348
335 349
335 353
335 354
335 359
336 302
336 316
336 327
336 358
336 360
336 372
337 310
337 315
337 320
337 324
337 326
337 341
337 352
337 359
337 365
337 377
338 300
338 308
338 322
338 323
338 330
338 344
338 346
338 363
338 366
338 368
339 301
339 306
339 307
339 319
339 328
339 329
339 333
339 343
339 351
339 364
339 370
339 371
340 318
340 325
340 328
340 334
340 343
340 355
340 357
340 364
340 373
340 376
341 310
341 315
341 320
341 324
341 326
341 335
341 337
341 348
341 354
341 359
341 378
341 383
342 309
342 312
342 321
342 331
342 345
342 347
342 350
342 367
342 369
342 374
343 306
343 318
343 319
343 328
343 339
343 340
343 355
343 364
343 370
343 373
343 376
343 381
344 309
344 321
344 323
344 330
344 338
344 346
344 347
344 363
344 366
344 367
344 368
344 385
345 303
345 312
345 331
345 333
345 342
345 347
345 350
345 351
345 369
345 374
345 380
346 308
346 322
346 323
346 330
346 332
346 338
346 344
346 349
346 356
346 363
346 366
346 388
347 309
347 321
347 330
347 331
347 342
347 344
347 345
347 367
347 368
347 369
348 314
348 315
348 317
348 335
348 341
348 349
348 353
348 354
348 359
348 375
348 378
348 384
349 311
349 317
349 332
349 335
349 346
349 348
349 353
349 356
349 363
349 375
349 382
350 329
350 331
350 333
350 342
350 345
350 351
350 371
350 374
350 380
351 307
351 319
351 329
351 333
351 339
351 345
351 350
351 370
351 371
351 380
352 320
352 324
352 337
352 365
352 377
352 393
353 317
353 332
353 335
353 348
353 349
353 354
353 356
353 375
353 382
353 384
353 392
354 335
354 341
354 348
354 353
354 359
354 375
354 378
354 383
354 384
355 318
355 325
355 328
355 334
355 340
355 343
355 357
355 364
355 370
355 373
355 376
355 379
355 381
355 389
355 391
356 322
356 332
356 346
356 349
356 353
356 363
356 375
356 382
356 388
356 392
357 325
357 334
357 340
357 355
357 361
357 373
357 376
357 379
357 391
358 316
358 327
358 336
358 360
358 362
358 372
358 387
359 315
359 326
359 335
359 337
359 341
359 348
359 354
359 365
359 377
359 378
359 383
360 327
360 336
360 358
360 362
360 372
360 386
360 387
361 325
361 334
361 357
361 362
361 373
361 379
361 386
361 391
362 327
362 358
362 360
362 361
362 372
362 386
362 387
363 322
363 323
363 338
363 344
363 346
363 349
363 356
363 366
363 368
363 382
363 388
364 328
364 339
364 340
364 343
364 355
364 370
364 373
364 376
364 381
364 389
364 391
365 324
365 337
365 352
365 359
365 377
365 383
365 393
366 330
366 338
366 344
366 346
366 363
366 367
366 368
366 385
366 388
367 342
367 344
367 347
367 366
367 368
367 369
367 385
367 390
368 330
368 338
368 344
368 347
368 363
368 366
368 367
368 369
368 385
368 388
369 342
369 345
369 347
369 367
369 368
369 374
369 385
369 390
370 339
370 343
370 351
370 355
370 364
370 371
370 376
370 381
370 389
371 329
371 333
371 339
371 350
371 351
371 370
371 374
371 380
372 336
372 358
372 360
372 362
372 386
372 387
373 340
373 343
373 355
373 357
373 361
373 364
373 376
373 379
373 381
373 389
373 391
374 342
374 345
374 350
374 369
374 371
374 380
374 390
375 348
375 349
375 353
375 354
375 356
375 382
375 384
375 392
376 340
376 343
376 355
376 357
376 364
376 370
376 373
376 379
376 381
376 389
376 391
377 337
377 352
377 359
377 365
377 378
377 383
377 393
378 341
378 348
378 354
378 359
378 377
378 383
378 384
379 355
379 357
379 361
379 373
379 376
379 386
379 391
380 345
380 350
380 351
380 371
380 374
380 390
381 343
381 355
381 364
381 370
381 373
381 376
381 389
381 391
382 349
382 353
382 356
382 363
382 375
382 388
382 392
383 341
383 354
383 359
383 365
383 377
383 378
383 384
383 393
384 348
384 353
384 354
384 375
384 378
384 383
384 392
385 344
385 366
385 367
385 368
385 369
385 388
385 390
386 360
386 361
386 362
386 372
386 379
386 387
387 358
387 360
387 362
387 372
387 386
388 346
388 356
388 363
388 366
388 368
388 382
388 385
389 355
389 364
389 370
389 373
389 376
389 381
389 391
390 367
390 369
390 374
390 380
390 385
391 355
391 357
391 361
391 364
391 373
391 376
391 379
391 381
391 389
392 353
392 356
392 375
392 382
392 384
393 352
393 365
393 377
393 383
