1 8
1 12
1 13
1 35
1 36
1 47
1 63
2 6
2 17
2 18
2 30
2 42
2 43
2 49
2 59
3 6
3 7
3 8
3 18
3 19
3 20
3 31
3 42
3 45
3 46
3 62
3 68
4 15
4 23
4 24
4 25
4 27
4 32
4 44
4 48
4 66
5 11
5 15
5 21
5 22
5 32
5 34
5 41
5 51
5 56
5 70
6 2
6 3
6 17
6 18
6 42
6 43
6 45
6 49
6 64
7 3
7 8
7 12
7 13
7 19
7 20
7 31
7 35
7 40
7 45
7 46
7 54
7 55
8 1
8 3
8 7
8 12
8 13
8 19
8 20
8 31
8 35
8 36
8 40
8 46
8 54
8 55
8 60
9 10
9 14
9 16
9 28
9 29
9 37
9 39
9 69
10 9
10 16
10 28
10 29
10 37
10 69
11 5
11 21
11 22
11 30
11 34
11 52
11 58
11 67
12 1
12 7
12 8
12 13
12 19
12 20
12 35
12 36
12 40
12 47
12 55
12 60
12 63
13 1
13 7
13 8
13 12
13 19
13 35
13 36
13 40
13 47
13 55
13 60
13 63
14 9
14 16
14 26
14 28
14 33
14 38
14 39
14 50
14 61
14 65
14 72
15 4
15 5
15 21
15 22
15 24
15 25
15 32
15 41
15 44
15 51
15 56
15 66
15 70
15 75
16 9
16 10
16 14
16 26
16 28
16 29
16 33
16 37
16 39
16 50
16 61
16 72
17 2
17 6
17 18
17 30
17 42
17 43
17 49
17 59
17 64
17 71
18 2
18 3
18 6
18 17
18 20
18 31
18 42
18 45
18 46
18 49
18 62
18 64
18 68
19 3
19 7
19 8
19 12
19 13
19 20
19 31
19 35
19 36
19 40
19 45
19 46
19 54
19 55
19 60
19 68
19 77
20 3
20 7
20 8
20 12
20 18
20 19
20 31
20 35
20 40
20 42
20 45
20 46
20 54
20 55
20 62
20 68
20 77
21 5
21 11
21 15
21 22
21 32
21 34
21 41
21 51
21 56
21 67
21 70
21 75
22 5
22 11
22 15
22 21
22 30
22 34
22 41
22 52
22 56
22 58
22 67
22 70
22 73
23 4
23 24
23 25
23 26
23 27
23 32
23 38
23 44
23 48
23 53
23 57
23 66
23 74
23 76
24 4
24 15
24 23
24 25
24 27
24 32
24 38
24 44
24 48
24 51
24 53
24 66
24 74
25 4
25 15
25 23
25 24
25 32
25 41
25 44
25 48
25 51
25 66
25 74
26 14
26 16
26 23
26 27
26 33
26 38
26 39
26 50
26 53
26 57
26 61
26 65
26 72
26 78
27 4
27 23
27 24
27 26
27 33
27 38
27 48
27 53
27 57
27 65
27 76
27 78
28 9
28 10
28 14
28 16
28 29
28 33
28 37
28 39
28 50
28 61
28 69
28 79
29 9
29 10
29 16
29 28
29 37
29 39
29 69
29 79
29 83
30 2
30 11
30 17
30 22
30 34
30 43
30 52
30 58
30 59
30 67
30 73
30 80
31 3
31 7
31 8
31 18
31 19
31 20
31 40
31 42
31 45
31 46
31 54
31 55
31 62
31 68
31 77
31 86
32 4
32 5
32 15
32 21
32 23
32 24
32 25
32 41
32 44
32 48
32 51
32 56
32 66
32 75
32 90
32 91
33 14
33 16
33 26
33 27
33 28
33 38
33 39
33 50
33 57
33 61
33 65
33 72
33 78
33 81
34 5
34 11
34 21
34 22
34 30
34 41
34 52
34 56
34 58
34 67
34 70
34 73
34 85
34 87
34 92
35 1
35 7
35 8
35 12
35 13
35 19
35 20
35 36
35 40
35 47
35 54
35 55
35 60
35 63
35 77
35 82
35 84
36 1
36 8
36 12
36 13
36 19
36 35
36 40
36 47
36 55
36 60
36 63
36 82
36 84
37 9
37 10
37 16
37 28
37 29
37 39
37 61
37 69
37 79
37 83
38 14
38 23
38 24
38 26
38 27
38 33
38 48
38 50
38 53
38 57
38 65
38 72
38 74
38 76
38 78
39 9
39 14
39 16
39 26
39 28
39 29
39 33
39 37
39 50
39 61
39 65
39 69
39 72
39 79
39 81
40 7
40 8
40 12
40 13
40 19
40 20
40 31
40 35
40 36
40 45
40 46
40 54
40 55
40 60
40 63
40 68
40 77
40 84
40 86
40 95
41 5
41 15
41 21
41 22
41 25
41 32
41 34
41 44
41 51
41 56
41 66
41 67
41 70
41 75
41 85
41 90
41 97
42 2
42 3
42 6
42 17
42 18
42 20
42 31
42 45
42 46
42 49
42 62
42 64
42 68
42 71
42 88
42 89
42 93
42 94
43 2
43 6
43 17
43 30
43 49
43 52
43 58
43 59
43 64
43 71
43 80
43 89
43 99
44 4
44 15
44 23
44 24
44 25
44 32
44 41
44 48
44 51
44 53
44 66
44 74
44 75
44 91
45 3
45 6
45 7
45 18
45 19
45 20
45 31
45 40
45 42
45 46
45 49
45 54
45 62
45 64
45 68
45 86
45 88
45 93
45 94
46 3
46 7
46 8
46 18
46 19
46 20
46 31
46 40
46 42
46 45
46 54
46 55
46 62
46 64
46 68
46 77
46 86
46 93
46 94
47 1
47 12
47 13
47 35
47 36
47 60
47 63
47 82
47 84
47 100
48 4
48 23
48 24
48 25
48 27
48 32
48 38
48 44
48 53
48 57
48 66
48 74
48 76
48 91
48 104
48 106
49 2
49 6
49 17
49 18
49 42
49 43
49 45
49 58
49 59
49 62
49 64
49 71
49 80
49 88
49 89
49 93
49 99
50 14
50 16
50 26
50 28
50 33
50 38
50 39
50 57
50 61
50 65
50 72
50 78
50 79
50 81
50 96
50 102
50 103
51 5
51 15
51 21
51 24
51 25
51 32
51 41
51 44
51 56
51 66
51 70
51 75
51 85
51 90
51 91
51 97
51 114
52 11
52 22
52 30
52 34
52 43
52 56
52 58
52 59
52 67
52 70
52 73
52 80
52 85
52 87
52 92
52 99
52 105
53 23
53 24
53 26
53 27
53 38
53 44
53 48
53 57
53 65
53 66
53 74
53 76
53 78
53 106
53 110
54 7
54 8
54 19
54 20
54 31
54 35
54 40
54 45
54 46
54 55
54 60
54 62
54 68
54 77
54 84
54 86
54 94
54 95
54 98
54 107
55 7
55 8
55 12
55 13
55 19
55 20
55 31
55 35
55 36
55 40
55 46
55 54
55 60
55 63
55 68
55 77
55 84
55 86
55 95
55 98
56 5
56 15
56 21
56 22
56 32
56 34
56 41
56 51
56 52
56 66
56 67
56 70
56 73
56 75
56 85
56 90
56 92
56 97
57 23
57 26
57 27
57 33
57 38
57 48
57 50
57 53
57 65
57 72
57 74
57 76
57 78
57 81
57 96
57 110
57 118
58 11
58 22
58 30
58 34
58 43
58 49
58 52
58 59
58 67
58 71
58 73
58 80
58 87
58 92
58 99
58 116
58 117
59 2
59 17
59 30
59 43
59 49
59 52
59 58
59 64
59 71
59 80
59 87
59 88
59 89
59 99
59 115
60 8
60 12
60 13
60 19
60 35
60 36
60 40
60 47
60 54
60 55
60 63
60 77
60 82
60 84
60 95
60 98
60 100
61 14
61 16
61 26
61 28
61 33
61 37
61 39
61 50
61 65
61 69
61 72
61 78
61 79
61 81
61 83
61 96
61 102
61 103
61 109
62 3
62 18
62 20
62 31
62 42
62 45
62 46
62 49
62 54
62 64
62 68
62 71
62 86
62 88
62 89
62 93
62 94
62 107
62 111
62 119
63 1
63 12
63 13
63 35
63 36
63 40
63 47
63 55
63 60
63 77
63 82
63 84
63 95
63 98
63 100
63 122
64 6
64 17
64 18
64 42
64 43
64 45
64 46
64 49
64 59
64 62
64 68
64 71
64 88
64 89
64 93
64 94
64 119
65 14
65 26
65 27
65 33
65 38
65 39
65 50
65 53
65 57
65 61
65 72
65 76
65 78
65 81
65 96
65 102
65 110
65 113
65 118
66 4
66 15
66 23
66 24
66 25
66 32
66 41
66 44
66 48
66 51
66 53
66 56
66 74
66 75
66 76
66 90
66 91
66 104
66 112
66 114
67 11
67 21
67 22
67 30
67 34
67 41
67 52
67 56
67 58
67 70
67 73
67 75
67 85
67 87
67 92
67 97
67 105
67 116
68 3
68 18
68 19
68 20
68 31
68 40
68 42
68 45
68 46
68 54
68 55
68 62
68 64
68 77
68 86
68 88
68 93
68 94
68 95
68 107
68 111
69 9
69 10
69 28
69 29
69 37
69 39
69 61
69 79
69 83
69 101
69 108
69 109
69 121
70 5
70 15
70 21
70 22
70 34
70 41
70 51
70 52
70 56
70 67
70 73
70 75
70 85
70 87
70 90
70 92
70 97
70 105
70 120
71 17
71 42
71 43
71 49
71 58
71 59
71 62
71 64
71 80
71 88
71 89
71 93
71 99
71 115
71 125
71 126
72 14
72 16
72 26
72 33
72 38
72 39
72 50
72 57
72 61
72 65
72 78
72 79
72 81
72 96
72 102
72 103
72 109
72 113
72 118
73 22
73 30
73 34
73 52
73 56
73 58
73 67
73 70
73 80
73 85
73 87
73 92
73 97
73 99
73 105
73 116
73 128
74 23
74 24
74 25
74 38
74 44
74 48
74 53
74 57
74 66
74 76
74 91
74 104
74 106
74 110
74 112
74 123
75 15
75 21
75 32
75 41
75 44
75 51
75 56
75 66
75 67
75 70
75 85
75 90
75 91
75 92
75 97
75 112
75 114
75 120
76 23
76 27
76 38
76 48
76 53
76 57
76 65
76 66
76 74
76 78
76 96
76 104
76 106
76 110
76 118
76 123
76 133
77 19
77 20
77 31
77 35
77 40
77 46
77 54
77 55
77 60
77 63
77 68
77 84
77 86
77 94
77 95
77 98
77 107
77 124
77 127
77 131
78 26
78 27
78 33
78 38
78 50
78 53
78 57
78 61
78 65
78 72
78 76
78 81
78 96
78 102
78 106
78 110
78 113
78 118
79 28
79 29
79 37
79 39
79 50
79 61
79 69
79 72
79 81
79 83
79 101
79 102
79 103
79 108
79 109
79 121
80 30
80 43
80 49
80 52
80 58
80 59
80 71
80 73
80 87
80 88
80 89
80 99
80 115
80 116
80 117
80 125
81 33
81 39
81 50
81 57
81 61
81 65
81 72
81 78
81 79
81 96
81 102
81 103
81 109
81 113
81 118
82 35
82 36
82 47
82 60
82 63
82 84
82 98
82 100
82 122
82 132
83 29
83 37
83 61
83 69
83 79
83 101
83 103
83 108
83 109
83 121
84 35
84 36
84 40
84 47
84 54
84 55
84 60
84 63
84 77
84 82
84 95
84 98
84 100
84 122
84 131
84 132
84 135
85 34
85 41
85 51
85 52
85 56
85 67
85 70
85 73
85 75
85 87
85 90
85 92
85 97
85 105
85 116
85 120
85 128
85 129
86 31
86 40
86 45
86 46
86 54
86 55
86 62
86 68
86 77
86 93
86 94
86 95
86 98
86 107
86 111
86 124
86 127
86 130
86 134
87 34
87 52
87 58
87 59
87 67
87 70
87 73
87 80
87 85
87 92
87 99
87 105
87 115
87 116
87 117
87 128
88 42
88 45
88 49
88 59
88 62
88 64
88 68
88 71
88 80
88 89
88 93
88 94
88 99
88 111
88 115
88 119
88 125
88 126
88 130
89 42
89 43
89 49
89 59
89 62
89 64
89 71
89 80
89 88
89 93
89 94
89 99
89 115
89 117
89 119
89 125
89 126
90 32
90 41
90 51
90 56
90 66
90 70
90 75
90 85
90 91
90 97
90 104
90 112
90 114
90 120
90 129
91 32
91 44
91 48
91 51
91 66
91 74
91 75
91 90
91 97
91 104
91 106
91 112
91 114
91 120
91 123
92 34
92 52
92 56
92 58
92 67
92 70
92 73
92 75
92 85
92 87
92 97
92 105
92 116
92 117
92 120
92 128
92 129
93 42
93 45
93 46
93 49
93 62
93 64
93 68
93 71
93 86
93 88
93 89
93 94
93 107
93 111
93 119
93 126
93 127
93 130
94 42
94 45
94 46
94 54
94 62
94 64
94 68
94 77
94 86
94 88
94 89
94 93
94 95
94 107
94 111
94 119
94 124
94 127
94 130
95 40
95 54
95 55
95 60
95 63
95 68
95 77
95 84
95 86
95 94
95 98
95 100
95 107
95 111
95 122
95 124
95 127
95 131
95 134
96 50
96 57
96 61
96 65
96 72
96 76
96 78
96 81
96 102
96 103
96 106
96 110
96 113
96 118
96 133
97 41
97 51
97 56
97 67
97 70
97 73
97 75
97 85
97 90
97 91
97 92
97 105
97 112
97 114
97 120
97 128
97 129
98 54
98 55
98 60
98 63
98 77
98 82
98 84
98 86
98 95
98 100
98 107
98 122
98 124
98 131
98 132
98 134
98 135
99 43
99 49
99 52
99 58
99 59
99 71
99 73
99 80
99 87
99 88
99 89
99 115
99 116
99 117
99 125
99 126
100 47
100 60
100 63
100 82
100 84
100 95
100 98
100 122
100 131
100 132
100 135
101 69
101 79
101 83
101 102
101 103
101 108
101 109
101 121
101 136
102 50
102 61
102 65
102 72
102 78
102 79
102 81
102 96
102 101
102 103
102 109
102 110
102 113
102 118
102 121
102 138
102 142
103 50
103 61
103 72
103 79
103 81
103 83
103 96
103 101
103 102
103 109
103 113
103 121
103 137
103 138
104 48
104 66
104 74
104 76
104 90
104 91
104 106
104 112
104 114
104 120
104 123
104 133
105 52
105 67
105 70
105 73
105 85
105 87
105 92
105 97
105 116
105 117
105 120
105 128
105 129
105 139
105 140
106 48
106 53
106 74
106 76
106 78
106 91
106 96
106 104
106 110
106 112
106 118
106 123
106 133
106 143
107 54
107 62
107 68
107 77
107 86
107 93
107 94
107 95
107 98
107 111
107 119
107 124
107 127
107 130
107 131
107 134
108 69
108 79
108 83
108 101
108 109
108 121
108 136
109 61
109 69
109 72
109 79
109 81
109 83
109 101
109 102
109 103
109 108
109 113
109 121
109 136
109 137
109 138
110 53
110 57
110 65
110 74
110 76
110 78
110 96
110 102
110 106
110 113
110 118
110 123
110 133
110 143
111 62
111 68
111 86
111 88
111 93
111 94
111 95
111 107
111 119
111 124
111 126
111 127
111 130
111 134
112 66
112 74
112 75
112 90
112 91
112 97
112 104
112 106
112 114
112 120
112 123
113 65
113 72
113 78
113 81
113 96
113 102
113 103
113 109
113 110
113 118
113 133
113 138
113 142
113 144
114 51
114 66
114 75
114 90
114 91
114 97
114 104
114 112
114 120
114 129
114 141
114 152
115 59
115 71
115 80
115 87
115 88
115 89
115 99
115 116
115 117
115 125
115 126
115 148
116 58
116 67
116 73
116 80
116 85
116 87
116 92
116 99
116 105
116 115
116 117
116 125
116 128
116 129
116 139
116 147
117 58
117 80
117 87
117 89
117 92
117 99
117 105
117 115
117 116
117 125
117 126
117 128
117 139
117 147
118 57
118 65
118 72
118 76
118 78
118 81
118 96
118 102
118 106
118 110
118 113
118 123
118 133
118 142
118 143
118 144
118 149
119 62
119 64
119 88
119 89
119 93
119 94
119 107
119 111
119 125
119 126
119 127
119 130
119 156
120 70
120 75
120 85
120 90
120 91
120 92
120 97
120 104
120 105
120 112
120 114
120 128
120 129
120 140
120 141
120 152
121 69
121 79
121 83
121 101
121 102
121 103
121 108
121 109
121 136
121 137
121 138
122 63
122 82
122 84
122 95
122 98
122 100
122 124
122 131
122 132
122 134
122 135
122 146
123 74
123 76
123 91
123 104
123 106
123 110
123 112
123 118
123 133
123 143
123 150
123 151
124 77
124 86
124 94
124 95
124 98
124 107
124 111
124 122
124 127
124 130
124 131
124 134
124 135
124 153
124 154
124 155
125 71
125 80
125 88
125 89
125 99
125 115
125 116
125 117
125 119
125 126
125 148
125 162
126 71
126 88
126 89
126 93
126 99
126 111
126 115
126 117
126 119
126 125
126 130
126 148
127 77
127 86
127 93
127 94
127 95
127 107
127 111
127 119
127 124
127 130
127 131
127 134
127 153
127 154
128 73
128 85
128 87
128 92
128 97
128 105
128 116
128 117
128 120
128 129
128 139
128 140
128 141
128 145
128 147
128 159
129 85
129 90
129 92
129 97
129 105
129 114
129 116
129 120
129 128
129 139
129 140
129 141
129 145
130 86
130 88
130 93
130 94
130 107
130 111
130 119
130 124
130 126
130 127
130 134
130 154
130 156
131 77
131 84
131 95
131 98
131 100
131 107
131 122
131 124
131 127
131 132
131 134
131 135
131 146
131 153
131 155
132 82
132 84
132 98
132 100
132 122
132 131
132 135
132 146
133 76
133 96
133 104
133 106
133 110
133 113
133 118
133 123
133 143
133 144
133 149
133 150
133 160
134 86
134 95
134 98
134 107
134 111
134 122
134 124
134 127
134 130
134 131
134 135
134 146
134 153
134 154
134 155
135 84
135 98
135 100
135 122
135 124
135 131
135 132
135 134
135 146
135 155
135 166
136 101
136 108
136 109
136 121
136 137
136 138
136 158
136 167
136 168
136 180
137 103
137 109
137 121
137 136
137 138
137 142
137 157
137 158
137 167
137 168
137 169
137 172
137 180
138 102
138 103
138 109
138 113
138 121
138 136
138 137
138 142
138 144
138 157
138 168
138 169
138 172
138 179
139 105
139 116
139 117
139 128
139 129
139 140
139 145
139 147
139 159
139 161
139 162
139 176
139 183
139 185
140 105
140 120
140 128
140 129
140 139
140 141
140 145
140 152
140 159
140 164
140 173
140 186
140 188
140 193
141 114
141 120
141 128
141 129
141 140
141 145
141 151
141 152
141 164
141 173
141 186
141 188
141 193
142 102
142 113
142 118
142 137
142 138
142 144
142 149
142 157
142 160
142 168
142 169
142 172
142 174
142 179
143 106
143 110
143 118
143 123
143 133
143 144
143 149
143 150
143 151
143 160
143 163
143 174
143 175
143 177
143 194
144 113
144 118
144 133
144 138
144 142
144 143
144 149
144 157
144 160
144 172
144 174
144 179
144 194
144 197
144 199
145 128
145 129
145 139
145 140
145 141
145 147
145 159
145 164
145 173
145 183
145 185
145 186
145 193
146 122
146 131
146 132
146 134
146 135
146 153
146 155
146 166
146 171
146 192
146 198
146 200
147 116
147 117
147 128
147 139
147 145
147 148
147 159
147 161
147 162
147 176
147 183
147 185
147 201
148 115
148 125
148 126
148 147
148 156
148 161
148 162
148 165
148 176
148 181
148 182
148 184
148 203
149 118
149 133
149 142
149 143
149 144
149 150
149 157
149 160
149 163
149 174
149 177
149 179
149 194
149 199
149 205
150 123
150 133
150 143
150 149
150 151
150 152
150 160
150 163
150 174
150 175
150 177
150 189
150 194
150 205
151 123
151 141
151 143
151 150
151 152
151 163
151 164
151 175
151 177
151 189
151 190
152 114
152 120
152 140
152 141
152 150
152 151
152 163
152 164
152 173
152 175
152 188
152 189
152 190
153 124
153 127
153 131
153 134
153 146
153 154
153 155
153 156
153 170
153 171
153 178
153 187
154 124
154 127
154 130
154 134
154 153
154 155
154 156
154 170
154 178
154 187
154 209
155 124
155 131
155 134
155 135
155 146
155 153
155 154
155 166
155 171
155 178
155 187
155 198
156 119
156 130
156 148
156 153
156 154
156 165
156 170
156 178
156 181
156 184
156 187
156 206
156 207
157 137
157 138
157 142
157 144
157 149
157 160
157 168
157 169
157 172
157 174
157 179
157 196
157 197
157 199
157 202
158 136
158 137
158 167
158 168
158 180
158 191
158 195
158 212
159 128
159 139
159 140
159 145
159 147
159 161
159 162
159 173
159 176
159 183
159 185
159 186
159 193
159 201
159 204
160 133
160 142
160 143
160 144
160 149
160 150
160 157
160 172
160 174
160 177
160 179
160 194
160 197
160 199
160 205
161 139
161 147
161 148
161 159
161 162
161 176
161 182
161 183
161 184
161 185
161 201
161 203
162 125
162 139
162 147
162 148
162 159
162 161
162 165
162 176
162 181
162 182
162 183
162 184
162 201
162 203
163 143
163 149
163 150
163 151
163 152
163 164
163 175
163 177
163 189
163 190
163 205
163 208
163 213
163 215
164 140
164 141
164 145
164 151
164 152
164 163
164 173
164 175
164 186
164 188
164 189
164 190
164 193
164 210
164 217
165 148
165 156
165 162
165 170
165 181
165 182
165 184
165 203
165 206
165 207
166 135
166 146
166 155
166 171
166 192
166 198
166 200
166 218
167 136
167 137
167 158
167 168
167 169
167 180
167 191
167 195
167 202
167 212
167 214
168 136
168 137
168 138
168 142
168 157
168 158
168 167
168 169
168 172
168 180
168 191
168 195
168 196
168 197
168 202
168 212
168 225
169 137
169 138
169 142
169 157
169 167
169 168
169 172
169 179
169 180
169 195
169 196
169 197
169 199
169 202
169 225
169 226
169 227
170 153
170 154
170 156
170 165
170 178
170 181
170 184
170 187
170 206
170 207
170 209
170 220
170 222
171 146
171 153
171 155
171 166
171 187
171 192
171 198
171 200
171 211
171 218
171 221
172 137
172 138
172 142
172 144
172 157
172 160
172 168
172 169
172 174
172 179
172 180
172 195
172 196
172 197
172 199
172 202
172 216
172 226
172 227
173 140
173 141
173 145
173 152
173 159
173 164
173 183
173 185
173 186
173 188
173 190
173 193
173 204
173 210
173 228
174 142
174 143
174 144
174 149
174 150
174 157
174 160
174 172
174 177
174 179
174 194
174 197
174 199
174 205
174 213
174 216
174 223
174 230
175 143
175 150
175 151
175 152
175 163
175 164
175 177
175 189
175 190
175 194
175 205
175 208
175 213
175 215
175 217
175 234
176 139
176 147
176 148
176 159
176 161
176 162
176 182
176 183
176 184
176 185
176 201
176 203
176 204
176 219
176 224
176 231
177 143
177 149
177 150
177 151
177 160
177 163
177 174
177 175
177 189
177 194
177 205
177 208
177 213
177 215
177 223
177 234
178 153
178 154
178 155
178 156
178 170
178 181
178 187
178 207
178 209
178 211
178 220
178 221
178 222
178 237
179 138
179 142
179 144
179 149
179 157
179 160
179 169
179 172
179 174
179 194
179 195
179 196
179 197
179 199
179 202
179 205
179 216
179 226
179 227
179 230
180 136
180 137
180 158
180 167
180 168
180 169
180 172
180 191
180 195
180 196
180 202
180 212
180 214
180 225
180 227
180 233
181 148
181 156
181 162
181 165
181 170
181 178
181 182
181 184
181 203
181 206
181 207
181 209
181 222
181 224
181 232
182 148
182 161
182 162
182 165
182 176
182 181
182 183
182 184
182 201
182 203
182 206
182 207
182 219
182 224
182 231
182 232
182 242
183 139
183 145
183 147
183 159
183 161
183 162
183 173
183 176
183 182
183 185
183 186
183 193
183 201
183 203
183 204
183 219
183 229
183 231
184 148
184 156
184 161
184 162
184 165
184 170
184 176
184 181
184 182
184 201
184 203
184 206
184 207
184 222
184 224
184 231
184 232
184 242
185 139
185 145
185 147
185 159
185 161
185 173
185 176
185 183
185 186
185 188
185 193
185 201
185 204
185 210
185 219
185 228
185 229
186 140
186 141
186 145
186 159
186 164
186 173
186 183
186 185
186 188
186 190
186 193
186 204
186 210
186 228
186 229
186 238
186 244
186 246
187 153
187 154
187 155
187 156
187 170
187 171
187 178
187 198
187 207
187 209
187 211
187 220
187 221
187 237
187 251
188 140
188 141
188 152
188 164
188 173
188 185
188 186
188 189
188 190
188 193
188 210
188 217
188 228
188 235
188 238
188 244
189 150
189 151
189 152
189 163
189 164
189 175
189 177
189 188
189 190
189 205
189 208
189 213
189 215
189 217
189 234
189 235
189 236
189 241
190 151
190 152
190 163
190 164
190 173
190 175
190 186
190 188
190 189
190 193
190 208
190 210
190 215
190 217
190 234
190 235
190 236
190 238
191 158
191 167
191 168
191 180
191 195
191 202
191 212
191 214
191 225
191 233
191 248
192 146
192 166
192 171
192 198
192 200
192 218
192 221
192 254
193 140
193 141
193 145
193 159
193 164
193 173
193 183
193 185
193 186
193 188
193 190
193 204
193 210
193 217
193 228
193 229
193 235
193 238
193 244
193 246
194 143
194 144
194 149
194 150
194 160
194 174
194 175
194 177
194 179
194 197
194 199
194 205
194 208
194 213
194 216
194 223
194 230
194 239
194 243
194 249
195 158
195 167
195 168
195 169
195 172
195 179
195 180
195 191
195 196
195 197
195 202
195 212
195 214
195 225
195 226
195 227
195 233
195 240
196 157
196 168
196 169
196 172
196 179
196 180
196 195
196 197
196 199
196 202
196 212
196 216
196 225
196 226
196 227
196 233
196 240
196 245
197 144
197 157
197 160
197 168
197 169
197 172
197 174
197 179
197 194
197 195
197 196
197 199
197 202
197 216
197 225
197 226
197 227
197 230
197 240
197 243
197 245
198 146
198 155
198 166
198 171
198 187
198 192
198 200
198 211
198 218
198 221
198 247
198 252
199 144
199 149
199 157
199 160
199 169
199 172
199 174
199 179
199 194
199 196
199 197
199 202
199 205
199 216
199 223
199 226
199 227
199 230
199 243
199 245
199 249
200 146
200 166
200 171
200 192
200 198
200 218
200 221
200 254
201 147
201 159
201 161
201 162
201 176
201 182
201 183
201 184
201 185
201 203
201 204
201 219
201 224
201 229
201 231
201 242
201 250
201 253
201 255
202 157
202 167
202 168
202 169
202 172
202 179
202 180
202 191
202 195
202 196
202 197
202 199
202 212
202 214
202 216
202 225
202 226
202 227
202 233
202 240
202 245
202 264
202 265
203 148
203 161
203 162
203 165
203 176
203 181
203 182
203 183
203 184
203 201
203 206
203 207
203 219
203 224
203 231
203 232
203 242
203 253
203 255
204 159
204 173
204 176
204 183
204 185
204 186
204 193
204 201
204 210
204 219
204 228
204 229
204 231
204 244
204 246
204 250
204 259
205 149
205 150
205 160
205 163
205 174
205 175
205 177
205 179
205 189
205 194
205 199
205 208
205 213
205 215
205 216
205 223
205 230
205 234
205 239
205 241
205 249
206 156
206 165
206 170
206 181
206 182
206 184
206 203
206 207
206 209
206 222
206 224
206 231
206 232
206 237
206 242
206 255
206 261
206 262
207 156
207 165
207 170
207 178
207 181
207 182
207 184
207 187
207 203
207 206
207 209
207 211
207 220
207 222
207 232
207 237
207 260
207 261
207 262
208 163
208 175
208 177
208 189
208 190
208 194
208 205
208 213
208 215
208 217
208 223
208 234
208 235
208 236
208 239
208 241
208 257
208 271
209 154
209 170
209 178
209 181
209 187
209 206
209 207
209 211
209 220
209 221
209 222
209 232
209 237
209 247
209 251
209 260
209 262
209 270
210 164
210 173
210 185
210 186
210 188
210 190
210 193
210 204
210 217
210 228
210 235
210 236
210 238
210 244
210 246
210 256
210 258
210 274
211 171
211 178
211 187
211 198
211 207
211 209
211 218
211 220
211 221
211 237
211 247
211 251
211 252
211 260
211 270
211 272
212 158
212 167
212 168
212 180
212 191
212 195
212 196
212 202
212 214
212 225
212 227
212 233
212 240
212 248
212 263
212 264
213 163
213 174
213 175
213 177
213 189
213 194
213 205
213 208
213 215
213 217
213 223
213 230
213 234
213 236
213 239
213 241
213 249
213 257
213 271
214 167
214 180
214 191
214 195
214 202
214 212
214 225
214 233
214 240
214 248
214 263
214 264
215 163
215 175
215 177
215 189
215 190
215 205
215 208
215 213
215 217
215 223
215 234
215 235
215 236
215 239
215 241
215 257
215 258
215 271
215 273
216 172
216 174
216 179
216 194
216 196
216 197
216 199
216 202
216 205
216 223
216 226
216 227
216 230
216 239
216 243
216 245
216 249
216 266
216 275
216 277
217 164
217 175
217 188
217 189
217 190
217 193
217 208
217 210
217 213
217 215
217 228
217 234
217 235
217 236
217 238
217 241
217 244
217 256
217 257
217 258
217 271
217 273
217 274
217 283
218 166
218 171
218 192
218 198
218 200
218 211
218 221
218 247
218 252
218 254
218 267
218 268
218 269
219 176
219 182
219 183
219 185
219 201
219 203
219 204
219 224
219 229
219 231
219 242
219 246
219 250
219 253
219 255
219 259
219 276
219 285
220 170
220 178
220 187
220 207
220 209
220 211
220 221
220 222
220 237
220 247
220 251
220 252
220 260
220 262
220 270
220 272
220 284
221 171
221 178
221 187
221 192
221 198
221 200
221 209
221 211
221 218
221 220
221 247
221 251
221 252
221 254
221 268
221 269
221 270
221 272
222 170
222 178
222 181
222 184
222 206
222 207
222 209
222 220
222 224
222 232
222 237
222 242
222 260
222 261
222 262
222 282
223 174
223 177
223 194
223 199
223 205
223 208
223 213
223 215
223 216
223 230
223 234
223 239
223 241
223 243
223 249
223 257
223 277
223 278
223 281
224 176
224 181
224 182
224 184
224 201
224 203
224 206
224 219
224 222
224 231
224 232
224 242
224 250
224 253
224 255
224 261
224 280
224 287
225 168
225 169
225 180
225 191
225 195
225 196
225 197
225 202
225 212
225 214
225 226
225 227
225 233
225 240
225 245
225 248
225 263
225 264
225 265
225 266
226 169
226 172
226 179
226 195
226 196
226 197
226 199
226 202
226 216
226 225
226 227
226 230
226 233
226 240
226 243
226 245
226 249
226 264
226 265
226 266
226 275
227 169
227 172
227 179
227 180
227 195
227 196
227 197
227 199
227 202
227 212
227 216
227 225
227 226
227 230
227 233
227 240
227 243
227 245
227 264
227 265
227 266
227 275
228 173
228 185
228 186
228 188
228 193
228 204
228 210
228 217
228 229
228 235
228 238
228 244
228 246
228 256
228 258
228 259
228 274
228 276
228 279
229 183
229 185
229 186
229 193
229 201
229 204
229 219
229 228
229 231
229 238
229 244
229 246
229 250
229 253
229 259
229 276
229 279
229 285
229 291
230 174
230 179
230 194
230 197
230 199
230 205
230 213
230 216
230 223
230 226
230 227
230 239
230 241
230 243
230 245
230 249
230 266
230 275
230 277
230 278
231 176
231 182
231 183
231 184
231 201
231 203
231 204
231 206
231 219
231 224
231 229
231 232
231 242
231 250
231 253
231 255
231 259
231 261
231 280
231 285
231 287
232 181
232 182
232 184
232 203
232 206
232 207
232 209
232 222
232 224
232 231
232 237
232 242
232 253
232 255
232 260
232 261
232 262
232 280
232 282
232 290
232 292
233 180
233 191
233 195
233 196
233 202
233 212
233 214
233 225
233 226
233 227
233 240
233 245
233 248
233 263
233 264
233 265
233 266
233 288
233 299
234 175
234 177
234 189
234 190
234 205
234 208
234 213
234 215
234 217
234 223
234 235
234 236
234 239
234 241
234 256
234 257
234 258
234 271
234 273
234 281
234 283
234 289
235 188
235 189
235 190
235 193
235 208
235 210
235 215
235 217
235 228
235 234
235 236
235 238
235 244
235 256
235 257
235 258
235 271
235 273
235 274
235 279
235 283
235 289
235 294
236 189
236 190
236 208
236 210
236 213
236 215
236 217
236 234
236 235
236 238
236 241
236 256
236 257
236 258
236 271
236 273
236 274
236 281
236 283
236 289
237 178
237 187
237 206
237 207
237 209
237 211
237 220
237 222
237 232
237 247
237 251
237 260
237 261
237 262
237 270
237 282
237 284
237 295
237 296
238 186
238 188
238 190
238 193
238 210
238 217
238 228
238 229
238 235
238 236
238 244
238 246
238 256
238 258
238 273
238 274
238 279
238 283
238 294
238 298
239 194
239 205
239 208
239 213
239 215
239 216
239 223
239 230
239 234
239 241
239 243
239 249
239 257
239 271
239 277
239 278
239 281
239 307
239 308
240 195
240 196
240 197
240 202
240 212
240 214
240 225
240 226
240 227
240 233
240 243
240 245
240 248
240 263
240 264
240 265
240 266
240 275
240 288
240 293
240 297
240 299
240 306
241 189
241 205
241 208
241 213
241 215
241 217
241 223
241 230
241 234
241 236
241 239
241 249
241 257
241 271
241 273
241 277
241 278
241 281
241 289
241 308
242 182
242 184
242 201
242 203
242 206
242 219
242 222
242 224
242 231
242 232
242 250
242 253
242 255
242 261
242 262
242 280
242 282
242 285
242 287
242 290
242 292
242 301
243 194
243 197
243 199
243 216
243 223
243 226
243 227
243 230
243 239
243 240
243 245
243 249
243 265
243 266
243 275
243 277
243 278
243 297
243 300
243 310
244 186
244 188
244 193
244 204
244 210
244 217
244 228
244 229
244 235
244 238
244 246
244 256
244 258
244 259
244 274
244 276
244 279
244 283
244 291
244 294
244 298
245 196
245 197
245 199
245 202
245 216
245 225
245 226
245 227
245 230
245 233
245 240
245 243
245 264
245 265
245 266
245 275
245 277
245 293
245 297
245 306
245 310
246 186
246 193
246 204
246 210
246 219
246 228
246 229
246 238
246 244
246 250
246 256
246 259
246 274
246 276
246 279
246 285
246 291
246 294
246 298
246 311
247 198
247 209
247 211
247 218
247 220
247 221
247 237
247 251
247 252
247 254
247 260
247 268
247 269
247 270
247 272
247 284
247 296
247 302
247 312
248 191
248 212
248 214
248 225
248 233
248 240
248 263
248 264
248 265
248 288
248 299
248 309
249 194
249 199
249 205
249 213
249 216
249 223
249 226
249 230
249 239
249 241
249 243
249 257
249 266
249 271
249 275
249 277
249 278
249 281
249 300
249 307
249 308
249 314
250 201
250 204
250 219
250 224
250 229
250 231
250 242
250 246
250 253
250 255
250 259
250 276
250 280
250 285
250 287
250 291
250 305
250 311
251 187
251 209
251 211
251 220
251 221
251 237
251 247
251 252
251 260
251 268
251 269
251 270
251 272
251 284
251 296
251 312
252 198
252 211
252 218
252 220
252 221
252 247
252 251
252 254
252 267
252 268
252 269
252 270
252 272
252 296
252 302
252 303
252 312
253 201
253 203
253 219
253 224
253 229
253 231
253 232
253 242
253 250
253 255
253 259
253 261
253 276
253 280
253 282
253 285
253 287
253 290
253 292
253 305
254 192
254 200
254 218
254 221
254 247
254 252
254 267
254 268
254 269
254 272
254 286
254 302
254 303
254 304
254 321
255 201
255 203
255 206
255 219
255 224
255 231
255 232
255 242
255 250
255 253
255 261
255 262
255 280
255 282
255 285
255 287
255 290
255 292
255 301
255 305
255 315
255 322
256 210
256 217
256 228
256 234
256 235
256 236
256 238
256 244
256 246
256 258
256 273
256 274
256 279
256 283
256 289
256 294
256 298
256 313
257 208
257 213
257 215
257 217
257 223
257 234
257 235
257 236
257 239
257 241
257 249
257 258
257 271
257 273
257 278
257 281
257 283
257 289
257 308
257 316
257 317
258 210
258 215
258 217
258 228
258 234
258 235
258 236
258 238
258 244
258 256
258 257
258 271
258 273
258 274
258 279
258 283
258 289
258 294
258 313
258 317
259 204
259 219
259 228
259 229
259 231
259 244
259 246
259 250
259 253
259 276
259 279
259 285
259 287
259 291
259 298
259 305
259 311
259 318
260 207
260 209
260 211
260 220
260 222
260 232
260 237
260 247
260 251
260 261
260 262
260 270
260 272
260 282
260 284
260 295
260 296
260 301
261 206
261 207
261 222
261 224
261 231
261 232
261 237
261 242
261 253
261 255
261 260
261 262
261 280
261 282
261 287
261 290
261 292
261 295
261 301
261 315
262 206
262 207
262 209
262 220
262 222
262 232
262 237
262 242
262 255
262 260
262 261
262 270
262 280
262 282
262 284
262 290
262 292
262 295
262 301
262 315
263 212
263 214
263 225
263 233
263 240
263 248
263 264
263 265
263 288
263 293
263 299
263 309
263 319
264 202
264 212
264 214
264 225
264 226
264 227
264 233
264 240
264 245
264 248
264 263
264 265
264 266
264 288
264 293
264 297
264 299
264 306
264 309
264 319
264 320
264 324
265 202
265 225
265 226
265 227
265 233
265 240
265 243
265 245
265 248
265 263
265 264
265 266
265 275
265 288
265 293
265 297
265 299
265 306
265 310
265 319
265 320
265 324
266 216
266 225
266 226
266 227
266 230
266 233
266 240
266 243
266 245
266 249
266 264
266 265
266 275
266 277
266 293
266 297
266 300
266 306
266 310
266 323
266 324
267 218
267 252
267 254
267 268
267 269
267 286
267 302
267 303
267 304
267 321
267 326
268 218
268 221
268 247
268 251
268 252
268 254
268 267
268 269
268 272
268 286
268 302
268 303
268 304
268 312
268 321
268 327
269 218
269 221
269 247
269 251
269 252
269 254
269 267
269 268
269 270
269 272
269 286
269 296
269 302
269 303
269 312
269 321
269 327
270 209
270 211
270 220
270 221
270 237
270 247
270 251
270 252
270 260
270 262
270 269
270 272
270 284
270 295
270 296
270 312
270 325
271 208
271 213
271 215
271 217
271 234
271 235
271 236
271 239
271 241
271 249
271 257
271 258
271 273
271 274
271 278
271 281
271 283
271 289
271 307
271 308
271 316
271 317
271 332
271 335
272 211
272 220
272 221
272 247
272 251
272 252
272 254
272 260
272 268
272 269
272 270
272 284
272 296
272 302
272 303
272 312
272 325
272 327
272 342
273 215
273 217
273 234
273 235
273 236
273 238
273 241
273 256
273 257
273 258
273 271
273 274
273 278
273 281
273 283
273 289
273 294
273 308
273 313
273 316
273 317
273 332
273 335
273 337
274 210
274 217
274 228
274 235
274 236
274 238
274 244
274 246
274 256
274 258
274 271
274 273
274 279
274 283
274 289
274 294
274 298
274 313
274 317
274 318
274 328
274 337
274 345
275 216
275 226
275 227
275 230
275 240
275 243
275 245
275 249
275 265
275 266
275 277
275 278
275 293
275 297
275 300
275 306
275 307
275 310
275 314
275 323
275 324
275 334
276 219
276 228
276 229
276 244
276 246
276 250
276 253
276 259
276 279
276 285
276 287
276 291
276 294
276 298
276 305
276 311
276 318
276 329
276 330
277 216
277 223
277 230
277 239
277 241
277 243
277 245
277 249
277 266
277 275
277 278
277 281
277 297
277 300
277 307
277 308
277 310
277 314
277 323
277 334
277 338
277 339
278 223
278 230
278 239
278 241
278 243
278 249
278 257
278 271
278 273
278 275
278 277
278 281
278 289
278 300
278 307
278 308
278 314
278 316
278 338
278 339
278 340
279 228
279 229
279 235
279 238
279 244
279 246
279 256
279 258
279 259
279 274
279 276
279 283
279 291
279 294
279 298
279 311
279 313
279 318
279 328
279 329
279 350
280 224
280 231
280 232
280 242
280 250
280 253
280 255
280 261
280 262
280 282
280 285
280 287
280 290
280 292
280 295
280 301
280 305
280 315
280 322
280 333
280 336
280 346
281 223
281 234
281 236
281 239
281 241
281 249
281 257
281 271
281 273
281 277
281 278
281 283
281 289
281 300
281 307
281 308
281 314
281 316
281 317
281 335
281 339
281 340
282 222
282 232
282 237
282 242
282 253
282 255
282 260
282 261
282 262
282 280
282 284
282 287
282 290
282 292
282 295
282 301
282 315
282 322
282 331
282 336
282 347
283 217
283 234
283 235
283 236
283 238
283 244
283 256
283 257
283 258
283 271
283 273
283 274
283 279
283 281
283 289
283 294
283 313
283 316
283 317
283 328
283 332
283 335
283 337
283 345
284 220
284 237
284 247
284 251
284 260
284 262
284 270
284 272
284 282
284 295
284 296
284 301
284 312
284 325
284 331
284 349
284 356
285 219
285 229
285 231
285 242
285 246
285 250
285 253
285 255
285 259
285 276
285 280
285 287
285 291
285 292
285 305
285 311
285 322
285 329
285 330
285 333
285 344
285 346
286 254
286 267
286 268
286 269
286 302
286 303
286 304
286 321
286 326
286 327
286 343
286 354
287 224
287 231
287 242
287 250
287 253
287 255
287 259
287 261
287 276
287 280
287 282
287 285
287 290
287 291
287 292
287 305
287 311
287 315
287 322
287 330
287 333
287 336
287 344
287 346
287 363
288 233
288 240
288 248
288 263
288 264
288 265
288 293
288 299
288 306
288 309
288 319
288 320
288 351
288 357
288 360
289 234
289 235
289 236
289 241
289 256
289 257
289 258
289 271
289 273
289 274
289 278
289 281
289 283
289 294
289 308
289 313
289 316
289 317
289 328
289 332
289 335
289 337
289 340
289 345
290 232
290 242
290 253
290 255
290 261
290 262
290 280
290 282
290 287
290 292
290 295
290 301
290 315
290 322
290 331
290 336
290 346
290 347
290 348
290 355
290 364
291 229
291 244
291 246
291 250
291 259
291 276
291 279
291 285
291 287
291 294
291 298
291 305
291 311
291 318
291 328
291 329
291 330
291 333
291 344
291 352
291 353
292 232
292 242
292 253
292 255
292 261
292 262
292 280
292 282
292 285
292 287
292 290
292 295
292 301
292 305
292 315
292 322
292 333
292 336
292 346
292 347
292 355
292 364
293 240
293 245
293 263
293 264
293 265
293 266
293 275
293 288
293 297
293 299
293 300
293 306
293 309
293 310
293 319
293 320
293 323
293 324
293 357
293 359
293 362
294 235
294 238
294 244
294 246
294 256
294 258
294 273
294 274
294 276
294 279
294 283
294 289
294 291
294 298
294 313
294 317
294 318
294 328
294 329
294 337
294 345
294 350
295 237
295 260
295 261
295 262
295 270
295 280
295 282
295 284
295 290
295 292
295 296
295 301
295 315
295 325
295 331
295 347
295 348
295 349
295 356
296 237
296 247
296 251
296 252
296 260
296 269
296 270
296 272
296 284
296 295
296 302
296 312
296 325
296 327
296 331
296 342
296 349
296 356
296 358
296 361
297 240
297 243
297 245
297 264
297 265
297 266
297 275
297 277
297 293
297 299
297 300
297 306
297 310
297 314
297 319
297 320
297 323
297 324
297 334
297 338
297 359
297 362
297 367
298 238
298 244
298 246
298 256
298 259
298 274
298 276
298 279
298 291
298 294
298 305
298 311
298 313
298 318
298 328
298 329
298 330
298 350
298 352
298 353
299 233
299 240
299 248
299 263
299 264
299 265
299 288
299 293
299 297
299 306
299 309
299 319
299 320
299 324
299 351
299 357
299 359
299 360
300 243
300 249
300 266
300 275
300 277
300 278
300 281
300 293
300 297
300 306
300 307
300 308
300 310
300 314
300 323
300 324
300 334
300 338
300 339
300 367
301 242
301 255
301 260
301 261
301 262
301 280
301 282
301 284
301 290
301 292
301 295
301 315
301 322
301 331
301 336
301 346
301 347
301 348
301 349
301 355
301 364
302 247
302 252
302 254
302 267
302 268
302 269
302 272
302 286
302 296
302 303
302 304
302 312
302 321
302 326
302 327
302 341
302 342
302 343
302 354
302 365
302 366
303 252
303 254
303 267
303 268
303 269
303 272
303 286
303 302
303 304
303 312
303 321
303 326
303 327
303 341
303 342
303 343
303 354
303 366
304 254
304 267
304 268
304 286
304 302
304 303
304 321
304 326
304 327
304 343
304 354
305 250
305 253
305 255
305 259
305 276
305 280
305 285
305 287
305 291
305 292
305 298
305 311
305 315
305 318
305 322
305 329
305 330
305 333
305 336
305 344
305 346
305 352
305 353
305 363
305 364
306 240
306 245
306 264
306 265
306 266
306 275
306 288
306 293
306 297
306 299
306 300
306 309
306 310
306 319
306 320
306 323
306 324
306 334
306 357
306 359
306 362
306 367
306 370
306 373
307 239
307 249
307 271
307 275
307 277
307 278
307 281
307 300
307 308
307 310
307 314
307 316
307 323
307 334
307 335
307 338
307 339
307 340
307 368
307 374
308 239
308 241
308 249
308 257
308 271
308 273
308 277
308 278
308 281
308 289
308 300
308 307
308 314
308 316
308 317
308 332
308 335
308 338
308 339
308 340
308 368
309 248
309 263
309 264
309 288
309 293
309 299
309 306
309 319
309 320
309 351
309 357
309 360
309 378
310 243
310 245
310 265
310 266
310 275
310 277
310 293
310 297
310 300
310 306
310 307
310 314
310 320
310 323
310 324
310 334
310 338
310 339
310 359
310 362
310 367
310 372
310 375
311 246
311 250
311 259
311 276
311 279
311 285
311 287
311 291
311 298
311 305
311 318
311 322
311 329
311 330
311 333
311 344
311 352
311 353
311 363
312 247
312 251
312 252
312 268
312 269
312 270
312 272
312 284
312 296
312 302
312 303
312 321
312 325
312 327
312 341
312 342
312 343
312 356
312 358
312 361
312 365
312 366
313 256
313 258
313 273
313 274
313 279
313 283
313 289
313 294
313 298
313 317
313 318
313 328
313 332
313 337
313 345
313 350
313 371
313 376
314 249
314 275
314 277
314 278
314 281
314 297
314 300
314 307
314 308
314 310
314 323
314 334
314 338
314 339
314 340
314 367
314 368
314 372
314 374
315 255
315 261
315 262
315 280
315 282
315 287
315 290
315 292
315 295
315 301
315 305
315 322
315 331
315 333
315 336
315 346
315 347
315 348
315 349
315 355
315 363
315 364
315 385
316 257
316 271
316 273
316 278
316 281
316 283
316 289
316 307
316 308
316 317
316 332
316 335
316 337
316 339
316 340
316 345
316 368
316 369
316 371
316 379
316 382
316 387
317 257
317 258
317 271
317 273
317 274
317 281
317 283
317 289
317 294
317 308
317 313
317 316
317 328
317 332
317 335
317 337
317 340
317 345
317 369
317 371
317 379
317 382
318 259
318 274
318 276
318 279
318 291
318 294
318 298
318 305
318 311
318 313
318 328
318 329
318 330
318 344
318 345
318 350
318 352
318 353
318 377
318 390
319 263
319 264
319 265
319 288
319 293
319 297
319 299
319 306
319 309
319 320
319 323
319 324
319 351
319 357
319 359
319 360
319 362
319 370
319 373
319 378
320 264
320 265
320 288
320 293
320 297
320 299
320 306
320 309
320 310
320 319
320 323
320 324
320 351
320 357
320 359
320 360
320 362
320 367
320 370
320 373
320 378
320 396
321 254
321 267
321 268
321 269
321 286
321 302
321 303
321 304
321 312
321 326
321 327
321 341
321 342
321 343
321 354
321 365
321 366
321 394
321 395
322 255
322 280
322 282
322 285
322 287
322 290
322 292
322 301
322 305
322 311
322 315
322 330
322 333
322 336
322 344
322 346
322 347
322 353
322 355
322 363
322 364
322 380
322 381
322 385
322 397
323 266
323 275
323 277
323 293
323 297
323 300
323 306
323 307
323 310
323 314
323 319
323 320
323 324
323 334
323 338
323 359
323 362
323 367
323 370
323 372
323 373
323 375
323 392
324 264
324 265
324 266
324 275
324 293
324 297
324 299
324 300
324 306
324 310
324 319
324 320
324 323
324 334
324 357
324 359
324 362
324 367
324 370
324 373
324 375
325 270
325 272
325 284
325 295
325 296
325 312
325 327
325 331
325 341
325 342
325 348
325 349
325 356
325 358
325 361
325 365
325 383
325 384
325 386
326 267
326 286
326 302
326 303
326 304
326 321
326 327
326 341
326 343
326 354
326 366
326 395
327 268
327 269
327 272
327 286
327 296
327 302
327 303
327 304
327 312
327 321
327 325
327 326
327 341
327 342
327 343
327 354
327 358
327 361
327 365
327 366
327 384
327 394
327 395
328 274
328 279
328 283
328 289
328 291
328 294
328 298
328 313
328 317
328 318
328 329
328 332
328 337
328 345
328 350
328 352
328 371
328 376
328 377
329 276
329 279
329 285
329 291
329 294
329 298
329 305
329 311
329 318
329 328
329 330
329 333
329 344
329 350
329 352
329 353
329 363
329 377
329 380
329 388
329 390
330 276
330 285
330 287
330 291
330 298
330 305
330 311
330 318
330 322
330 329
330 333
330 344
330 346
330 350
330 352
330 353
330 363
330 380
330 388
330 390
331 282
331 284
331 290
331 295
331 296
331 301
331 315
331 325
331 336
331 347
331 348
331 349
331 355
331 356
331 358
331 361
331 386
331 391
331 393
331 399
332 271
332 273
332 283
332 289
332 308
332 313
332 316
332 317
332 328
332 335
332 337
332 340
332 345
332 350
332 368
332 369
332 371
332 376
332 379
332 382
332 387
333 280
333 285
333 287
333 291
333 292
333 305
333 311
333 315
333 322
333 329
333 330
333 336
333 344
333 346
333 352
333 353
333 355
333 363
333 364
333 380
333 381
333 388
333 397
333 407
334 275
334 277
334 297
334 300
334 306
334 307
334 310
334 314
334 323
334 324
334 338
334 339
334 359
334 362
334 367
334 368
334 372
334 373
334 374
334 375
334 392
335 271
335 273
335 281
335 283
335 289
335 307
335 308
335 316
335 317
335 332
335 337
335 339
335 340
335 345
335 368
335 369
335 371
335 379
335 382
335 387
335 389
335 403
336 280
336 282
336 287
336 290
336 292
336 301
336 305
336 315
336 322
336 331
336 333
336 344
336 346
336 347
336 348
336 355
336 363
336 364
336 380
336 381
336 385
336 391
336 397
337 273
337 274
337 283
337 289
337 294
337 313
337 316
337 317
337 328
337 332
337 335
337 340
337 345
337 350
337 369
337 371
337 376
337 379
337 382
337 404
338 277
338 278
338 297
338 300
338 307
338 308
338 310
338 314
338 323
338 334
338 339
338 340
338 362
338 367
338 368
338 372
338 374
338 375
338 389
338 392
339 277
339 278
339 281
339 300
339 307
339 308
339 310
339 314
339 316
339 334
339 335
339 338
339 340
339 368
339 372
339 374
339 379
339 387
339 389
340 278
340 281
340 289
340 307
340 308
340 314
340 316
340 317
340 332
340 335
340 337
340 338
340 339
340 368
340 369
340 374
340 379
340 382
340 387
340 389
340 403
341 302
341 303
341 312
341 321
341 325
341 326
341 327
341 342
341 343
341 354
341 358
341 361
341 365
341 366
341 384
341 394
341 395
342 272
342 296
342 302
342 303
342 312
342 321
342 325
342 327
342 341
342 343
342 356
342 358
342 361
342 365
342 366
342 383
342 384
342 394
342 395
342 402
343 286
343 302
343 303
343 304
343 312
343 321
343 326
343 327
343 341
343 342
343 354
343 365
343 366
343 394
343 395
344 285
344 287
344 291
344 305
344 311
344 318
344 322
344 329
344 330
344 333
344 336
344 346
344 352
344 353
344 363
344 364
344 380
344 381
344 388
344 390
344 405
344 407
344 409
345 274
345 283
345 289
345 294
345 313
345 316
345 317
345 318
345 328
345 332
345 335
345 337
345 350
345 369
345 371
345 376
345 377
345 382
345 404
346 280
346 285
346 287
346 290
346 292
346 301
346 305
346 315
346 322
346 330
346 333
346 336
346 344
346 347
346 348
346 353
346 355
346 363
346 364
346 380
346 381
346 385
346 391
346 397
346 407
347 282
347 290
347 292
347 295
347 301
347 315
347 322
347 331
347 336
347 346
347 348
347 349
347 355
347 363
347 364
347 381
347 385
347 386
347 391
347 393
347 397
347 411
347 415
348 290
348 295
348 301
348 315
348 325
348 331
348 336
348 346
348 347
348 349
348 355
348 356
348 358
348 364
348 385
348 386
348 391
348 393
348 399
348 411
348 415
348 416
349 284
349 295
349 296
349 301
349 315
349 325
349 331
349 347
349 348
349 355
349 356
349 358
349 361
349 383
349 386
349 391
349 393
349 399
349 415
349 416
349 417
350 279
350 294
350 298
350 313
350 318
350 328
350 329
350 330
350 332
350 337
350 345
350 352
350 353
350 369
350 371
350 376
350 377
350 390
350 404
350 408
351 288
351 299
351 309
351 319
351 320
351 357
351 359
351 360
351 370
351 378
351 396
351 398
351 401
351 406
352 291
352 298
352 305
352 311
352 318
352 328
352 329
352 330
352 333
352 344
352 350
352 353
352 363
352 376
352 377
352 380
352 388
352 390
352 405
352 408
352 409
353 291
353 298
353 305
353 311
353 318
353 322
353 329
353 330
353 333
353 344
353 346
353 350
353 352
353 363
353 377
353 380
353 381
353 388
353 390
353 405
353 407
353 409
354 286
354 302
354 303
354 304
354 321
354 326
354 327
354 341
354 343
354 365
354 366
354 394
354 395
354 423
355 290
355 292
355 301
355 315
355 322
355 331
355 333
355 336
355 346
355 347
355 348
355 349
355 363
355 364
355 380
355 381
355 385
355 391
355 393
355 397
355 411
355 415
355 422
356 284
356 295
356 296
356 312
356 325
356 331
356 342
356 348
356 349
356 358
356 361
356 365
356 383
356 384
356 386
356 391
356 393
356 399
356 402
356 416
356 417
356 418
356 421
357 288
357 293
357 299
357 306
357 309
357 319
357 320
357 324
357 351
357 359
357 360
357 362
357 370
357 373
357 378
357 396
357 398
357 400
357 401
357 406
357 410
358 296
358 312
358 325
358 327
358 331
358 341
358 342
358 348
358 349
358 356
358 361
358 365
358 366
358 383
358 384
358 386
358 393
358 399
358 402
358 417
358 418
358 421
359 293
359 297
359 299
359 306
359 310
359 319
359 320
359 323
359 324
359 334
359 351
359 357
359 360
359 362
359 367
359 370
359 373
359 375
359 378
359 392
359 396
359 400
359 401
359 406
359 410
359 427
360 288
360 299
360 309
360 319
360 320
360 351
360 357
360 359
360 370
360 378
360 396
360 398
360 401
360 406
360 430
361 296
361 312
361 325
361 327
361 331
361 341
361 342
361 349
361 356
361 358
361 365
361 366
361 383
361 384
361 386
361 394
361 399
361 402
361 418
361 421
361 424
362 293
362 297
362 306
362 310
362 319
362 320
362 323
362 324
362 334
362 338
362 357
362 359
362 367
362 370
362 372
362 373
362 375
362 392
362 396
362 400
362 410
362 412
362 413
362 427
362 429
363 287
363 305
363 311
363 315
363 322
363 329
363 330
363 333
363 336
363 344
363 346
363 347
363 352
363 353
363 355
363 364
363 380
363 381
363 385
363 388
363 397
363 407
363 409
364 290
364 292
364 301
364 305
364 315
364 322
364 333
364 336
364 344
364 346
364 347
364 348
364 355
364 363
364 380
364 381
364 385
364 391
364 397
364 407
364 411
364 422
365 302
365 312
365 321
365 325
365 327
365 341
365 342
365 343
365 354
365 356
365 358
365 361
365 366
365 383
365 384
365 394
365 395
365 402
365 421
365 424
365 425
366 302
366 303
366 312
366 321
366 326
366 327
366 341
366 342
366 343
366 354
366 358
366 361
366 365
366 383
366 384
366 394
366 395
366 402
366 423
366 424
366 425
367 297
367 300
367 306
367 310
367 314
367 320
367 323
367 324
367 334
367 338
367 359
367 362
367 370
367 372
367 373
367 374
367 375
367 392
367 396
367 400
367 410
367 412
367 413
367 414
367 429
367 433
368 307
368 308
368 314
368 316
368 332
368 334
368 335
368 338
368 339
368 340
368 369
368 372
368 374
368 379
368 382
368 387
368 389
368 403
368 413
368 414
368 419
368 420
368 436
368 437
369 316
369 317
369 332
369 335
369 337
369 340
369 345
369 350
369 368
369 371
369 376
369 379
369 382
369 387
369 403
369 404
369 420
369 428
369 431
369 434
369 438
370 306
370 319
370 320
370 323
370 324
370 351
370 357
370 359
370 360
370 362
370 367
370 373
370 375
370 378
370 392
370 396
370 398
370 400
370 401
370 406
370 410
370 427
370 429
370 430
370 441
370 444
371 313
371 316
371 317
371 328
371 332
371 335
371 337
371 345
371 350
371 369
371 376
371 377
371 379
371 382
371 387
371 403
371 404
371 408
371 428
371 431
371 434
371 438
372 310
372 314
372 323
372 334
372 338
372 339
372 362
372 367
372 368
372 373
372 374
372 375
372 387
372 389
372 392
372 400
372 412
372 413
372 414
372 419
372 432
372 433
373 306
373 319
373 320
373 323
373 324
373 334
373 357
373 359
373 362
373 367
373 370
373 372
373 375
373 378
373 392
373 396
373 400
373 401
373 406
373 410
373 412
373 413
373 427
373 429
373 444
374 307
374 314
374 334
374 338
374 339
374 340
374 367
374 368
374 372
374 375
374 379
374 387
374 389
374 392
374 403
374 412
374 413
374 414
374 419
374 420
374 432
374 433
374 436
375 310
375 323
375 324
375 334
375 338
375 359
375 362
375 367
375 370
375 372
375 373
375 374
375 392
375 396
375 400
375 410
375 412
375 413
375 414
375 427
375 429
375 433
375 449
376 313
376 328
376 332
376 337
376 345
376 350
376 352
376 369
376 371
376 377
376 382
376 390
376 404
376 405
376 408
376 426
376 428
376 431
376 434
376 443
377 318
377 328
377 329
377 345
377 350
377 352
377 353
377 371
377 376
377 388
377 390
377 404
377 405
377 408
377 409
377 426
377 434
377 435
377 443
378 309
378 319
378 320
378 351
378 357
378 359
378 360
378 370
378 373
378 396
378 398
378 401
378 406
378 410
378 430
378 441
379 316
379 317
379 332
379 335
379 337
379 339
379 340
379 368
379 369
379 371
379 374
379 382
379 387
379 389
379 403
379 419
379 420
379 428
379 436
379 437
379 438
380 322
380 329
380 330
380 333
380 336
380 344
380 346
380 352
380 353
380 355
380 363
380 364
380 381
380 385
380 388
380 390
380 397
380 405
380 407
380 409
380 422
380 439
380 440
381 322
381 333
381 336
381 344
381 346
381 347
381 353
381 355
381 363
381 364
381 380
381 385
381 388
381 391
381 397
381 407
381 409
381 411
381 422
381 440
382 316
382 317
382 332
382 335
382 337
382 340
382 345
382 368
382 369
382 371
382 376
382 379
382 387
382 389
382 403
382 404
382 419
382 420
382 428
382 431
382 434
382 437
382 438
383 325
383 342
383 349
383 356
383 358
383 361
383 365
383 366
383 384
383 386
383 393
383 394
383 399
383 402
383 416
383 417
383 418
383 421
383 424
383 425
383 442
383 450
384 325
384 327
384 341
384 342
384 356
384 358
384 361
384 365
384 366
384 383
384 386
384 394
384 395
384 399
384 402
384 417
384 418
384 421
384 424
384 425
384 442
384 448
384 450
385 315
385 322
385 336
385 346
385 347
385 348
385 355
385 363
385 364
385 380
385 381
385 386
385 391
385 393
385 397
385 407
385 411
385 415
385 416
385 422
385 440
385 446
386 325
386 331
386 347
386 348
386 349
386 356
386 358
386 361
386 383
386 384
386 385
386 391
386 393
386 399
386 402
386 411
386 415
386 416
386 417
386 418
386 421
386 442
386 446
386 447
387 316
387 332
387 335
387 339
387 340
387 368
387 369
387 371
387 372
387 374
387 379
387 382
387 389
387 403
387 414
387 419
387 420
387 428
387 432
387 436
387 437
387 438
387 452
388 329
388 330
388 333
388 344
388 352
388 353
388 363
388 377
388 380
388 381
388 390
388 397
388 405
388 407
388 408
388 409
388 426
388 435
388 439
388 456
389 335
389 338
389 339
389 340
389 368
389 372
389 374
389 379
389 382
389 387
389 392
389 403
389 413
389 414
389 419
389 420
389 432
389 436
389 437
389 438
389 452
389 455
390 318
390 329
390 330
390 344
390 350
390 352
390 353
390 376
390 377
390 380
390 388
390 404
390 405
390 408
390 409
390 426
390 435
390 439
390 443
390 453
391 331
391 336
391 346
391 347
391 348
391 349
391 355
391 356
391 364
391 381
391 385
391 386
391 393
391 397
391 399
391 411
391 415
391 416
391 417
391 422
391 446
391 447
392 323
392 334
392 338
392 359
392 362
392 367
392 370
392 372
392 373
392 374
392 375
392 389
392 400
392 410
392 412
392 413
392 414
392 419
392 427
392 429
392 432
392 433
392 449
392 451
393 331
393 347
393 348
393 349
393 355
393 356
393 358
393 383
393 385
393 386
393 391
393 397
393 399
393 402
393 411
393 415
393 416
393 417
393 418
393 422
393 442
393 446
393 447
393 461
394 321
394 327
394 341
394 342
394 343
394 354
394 361
394 365
394 366
394 383
394 384
394 395
394 402
394 421
394 423
394 424
394 425
394 445
394 448
394 457
394 459
395 321
395 326
395 327
395 341
395 342
395 343
395 354
395 365
395 366
395 384
395 394
395 423
395 424
395 425
395 445
395 448
395 457
395 459
396 320
396 351
396 357
396 359
396 360
396 362
396 367
396 370
396 373
396 375
396 378
396 398
396 400
396 401
396 406
396 410
396 412
396 427
396 429
396 430
396 441
396 444
396 458
397 322
397 333
397 336
397 346
397 347
397 355
397 363
397 364
397 380
397 381
397 385
397 388
397 391
397 393
397 407
397 409
397 411
397 415
397 422
397 440
397 446
398 351
398 357
398 360
398 370
398 378
398 396
398 401
398 406
398 430
398 441
398 458
399 331
399 348
399 349
399 356
399 358
399 361
399 383
399 384
399 386
399 391
399 393
399 402
399 411
399 415
399 416
399 417
399 418
399 421
399 424
399 442
399 447
399 450
399 461
400 357
400 359
400 362
400 367
400 370
400 372
400 373
400 375
400 392
400 396
400 406
400 410
400 412
400 413
400 414
400 427
400 429
400 433
400 441
400 444
400 449
400 451
400 462
400 469
401 351
401 357
401 359
401 360
401 370
401 373
401 378
401 396
401 398
401 406
401 410
401 427
401 430
401 441
401 444
401 458
402 342
402 356
402 358
402 361
402 365
402 366
402 383
402 384
402 386
402 393
402 394
402 399
402 416
402 417
402 418
402 421
402 424
402 425
402 442
402 448
402 450
403 335
403 340
403 368
403 369
403 371
403 374
403 379
403 382
403 387
403 389
403 404
403 419
403 420
403 428
403 431
403 434
403 436
403 437
403 438
403 452
403 454
404 337
404 345
404 350
404 369
404 371
404 376
404 377
404 382
404 390
404 403
404 408
404 426
404 428
404 431
404 434
404 435
404 438
404 443
404 454
404 460
405 344
405 352
405 353
405 376
405 377
405 380
405 388
405 390
405 407
405 408
405 409
405 426
405 435
405 439
405 443
405 453
405 456
405 465
405 467
406 351
406 357
406 359
406 360
406 370
406 373
406 378
406 396
406 398
406 400
406 401
406 410
406 427
406 429
406 430
406 441
406 444
406 458
407 333
407 344
407 346
407 353
407 363
407 364
407 380
407 381
407 385
407 388
407 397
407 405
407 409
407 422
407 439
407 440
407 456
407 464
407 467
408 350
408 352
408 371
408 376
408 377
408 388
408 390
408 404
408 405
408 409
408 426
408 431
408 434
408 435
408 439
408 443
408 453
408 454
408 460
408 465
409 344
409 352
409 353
409 363
409 377
409 380
409 381
409 388
409 390
409 397
409 405
409 407
409 408
409 426
409 435
409 439
409 440
409 453
409 456
409 464
409 465
409 467
410 357
410 359
410 362
410 367
410 370
410 373
410 375
410 378
410 392
410 396
410 400
410 401
410 406
410 412
410 413
410 427
410 429
410 430
410 433
410 441
410 444
410 449
410 458
410 462
410 469
411 347
411 348
411 355
411 364
411 381
411 385
411 386
411 391
411 393
411 397
411 399
411 415
411 416
411 417
411 422
411 440
411 446
411 447
411 461
411 468
411 470
412 362
412 367
412 372
412 373
412 374
412 375
412 392
412 396
412 400
412 410
412 413
412 414
412 419
412 427
412 429
412 432
412 433
412 444
412 449
412 451
412 455
412 462
412 469
413 362
413 367
413 368
413 372
413 373
413 374
413 375
413 389
413 392
413 400
413 410
413 412
413 414
413 419
413 420
413 427
413 429
413 432
413 433
413 436
413 449
413 451
413 455
413 462
414 367
414 368
414 372
414 374
414 375
414 387
414 389
414 392
414 400
414 412
414 413
414 419
414 420
414 429
414 432
414 433
414 436
414 437
414 449
414 451
414 452
414 455
415 347
415 348
415 349
415 355
415 385
415 386
415 391
415 393
415 397
415 399
415 411
415 416
415 417
415 418
415 422
415 440
415 442
415 446
415 447
415 461
415 468
415 470
416 348
416 349
416 356
416 383
416 385
416 386
416 391
416 393
416 399
416 402
416 411
416 415
416 417
416 418
416 421
416 422
416 442
416 446
416 447
416 450
416 461
416 468
416 470
417 349
417 356
417 358
417 383
417 384
417 386
417 391
417 393
417 399
417 402
417 411
417 415
417 416
417 418
417 421
417 442
417 446
417 447
417 450
417 461
417 470
418 356
418 358
418 361
418 383
418 384
418 386
418 393
418 399
418 402
418 415
418 416
418 417
418 421
418 424
418 425
418 442
418 447
418 448
418 450
418 461
418 463
419 368
419 372
419 374
419 379
419 382
419 387
419 389
419 392
419 403
419 412
419 413
419 414
419 420
419 432
419 433
419 436
419 437
419 438
419 451
419 452
419 455
420 368
420 369
420 374
420 379
420 382
420 387
420 389
420 403
420 413
420 414
420 419
420 428
420 432
420 436
420 437
420 438
420 452
420 455
421 356
421 358
421 361
421 365
421 383
421 384
421 386
421 394
421 399
421 402
421 416
421 417
421 418
421 424
421 425
421 442
421 448
421 450
421 459
421 463
422 355
422 364
422 380
422 381
422 385
422 391
422 393
422 397
422 407
422 411
422 415
422 416
422 440
422 446
422 447
422 464
422 468
423 354
423 366
423 394
423 395
423 424
423 425
423 445
423 448
423 457
423 459
423 463
423 466
424 361
424 365
424 366
424 383
424 384
424 394
424 395
424 399
424 402
424 418
424 421
424 423
424 425
424 442
424 445
424 448
424 450
424 457
424 459
424 463
425 365
425 366
425 383
425 384
425 394
425 395
425 402
425 418
425 421
425 423
425 424
425 445
425 448
425 450
425 457
425 459
425 463
425 466
426 376
426 377
426 388
426 390
426 404
426 405
426 408
426 409
426 431
426 434
426 435
426 439
426 443
426 453
426 454
426 460
426 465
426 467
427 359
427 362
427 370
427 373
427 375
427 392
427 396
427 400
427 401
427 406
427 410
427 412
427 413
427 429
427 430
427 433
427 441
427 444
427 449
427 458
427 462
427 469
428 369
428 371
428 376
428 379
428 382
428 387
428 403
428 404
428 420
428 431
428 434
428 436
428 437
428 438
428 443
428 452
428 454
428 460
429 362
429 367
429 370
429 373
429 375
429 392
429 396
429 400
429 406
429 410
429 412
429 413
429 414
429 427
429 432
429 433
429 441
429 444
429 449
429 451
429 462
429 469
430 360
430 370
430 378
430 396
430 398
430 401
430 406
430 410
430 427
430 441
430 444
430 458
431 369
431 371
431 376
431 382
431 403
431 404
431 408
431 426
431 428
431 434
431 437
431 438
431 443
431 454
431 460
432 372
432 374
432 387
432 389
432 392
432 412
432 413
432 414
432 419
432 420
432 429
432 433
432 436
432 437
432 449
432 451
432 452
432 455
432 462
433 367
433 372
433 374
433 375
433 392
433 400
433 410
433 412
433 413
433 414
433 419
433 427
433 429
433 432
433 436
433 444
433 449
433 451
433 455
433 462
433 469
434 369
434 371
434 376
434 377
434 382
434 403
434 404
434 408
434 426
434 428
434 431
434 435
434 438
434 443
434 453
434 454
434 460
434 465
435 377
435 388
435 390
435 404
435 405
435 408
435 409
435 426
435 434
435 439
435 443
435 453
435 456
435 460
435 465
435 467
436 368
436 374
436 379
436 387
436 389
436 403
436 413
436 414
436 419
436 420
436 428
436 432
436 433
436 437
436 438
436 451
436 452
436 455
437 368
437 379
437 382
437 387
437 389
437 403
437 414
437 419
437 420
437 428
437 431
437 432
437 436
437 438
437 452
437 454
437 455
438 369
438 371
438 379
438 382
438 387
438 389
438 403
438 404
438 419
438 420
438 428
438 431
438 434
438 436
438 437
438 452
438 454
438 455
438 460
439 380
439 388
439 390
439 405
439 407
439 408
439 409
439 426
439 435
439 440
439 443
439 453
439 456
439 464
439 465
439 467
440 380
440 381
440 385
440 397
440 407
440 409
440 411
440 415
440 422
440 439
440 446
440 456
440 464
440 468
441 370
441 378
441 396
441 398
441 400
441 401
441 406
441 410
441 427
441 429
441 430
441 444
441 458
441 469
442 383
442 384
442 386
442 393
442 399
442 402
442 415
442 416
442 417
442 418
442 421
442 424
442 446
442 447
442 450
442 461
442 463
442 470
443 376
443 377
443 390
443 404
443 405
443 408
443 426
443 428
443 431
443 434
443 435
443 439
443 453
443 454
443 460
443 465
443 467
444 370
444 373
444 396
444 400
444 401
444 406
444 410
444 412
444 427
444 429
444 430
444 433
444 441
444 449
444 458
444 462
444 469
445 394
445 395
445 423
445 424
445 425
445 448
445 457
445 459
445 463
445 466
446 385
446 386
446 391
446 393
446 397
446 411
446 415
446 416
446 417
446 422
446 440
446 442
446 447
446 461
446 468
446 470
447 386
447 391
447 393
447 399
447 411
447 415
447 416
447 417
447 418
447 422
447 442
447 446
447 450
447 461
447 468
447 470
448 384
448 394
448 395
448 402
448 418
448 421
448 423
448 424
448 425
448 445
448 450
448 457
448 459
448 463
448 466
449 375
449 392
449 400
449 410
449 412
449 413
449 414
449 427
449 429
449 432
449 433
449 444
449 451
449 455
449 462
449 469
450 383
450 384
450 399
450 402
450 416
450 417
450 418
450 421
450 424
450 425
450 442
450 447
450 448
450 459
450 461
450 463
450 470
451 392
451 400
451 412
451 413
451 414
451 419
451 429
451 432
451 433
451 436
451 449
451 452
451 455
451 462
451 469
452 387
452 389
452 403
452 414
452 419
452 420
452 428
452 432
452 436
452 437
452 438
452 451
452 455
453 390
453 405
453 408
453 409
453 426
453 434
453 435
453 439
453 443
453 456
453 460
453 465
453 467
454 403
454 404
454 408
454 426
454 428
454 431
454 434
454 437
454 438
454 443
454 460
455 389
455 412
455 413
455 414
455 419
455 420
455 432
455 433
455 436
455 437
455 438
455 449
455 451
455 452
456 388
456 405
456 407
456 409
456 435
456 439
456 440
456 453
456 464
456 465
456 467
457 394
457 395
457 423
457 424
457 425
457 445
457 448
457 459
457 463
457 466
458 396
458 398
458 401
458 406
458 410
458 427
458 430
458 441
458 444
458 469
459 394
459 395
459 421
459 423
459 424
459 425
459 445
459 448
459 450
459 457
459 463
459 466
460 404
460 408
460 426
460 428
460 431
460 434
460 435
460 438
460 443
460 453
460 454
460 465
461 393
461 399
461 411
461 415
461 416
461 417
461 418
461 442
461 446
461 447
461 450
461 468
461 470
462 400
462 410
462 412
462 413
462 427
462 429
462 432
462 433
462 444
462 449
462 451
462 469
463 418
463 421
463 423
463 424
463 425
463 442
463 445
463 448
463 450
463 457
463 459
463 466
464 407
464 409
464 422
464 439
464 440
464 456
464 467
464 468
465 405
465 408
465 409
465 426
465 434
465 435
465 439
465 443
465 453
465 456
465 460
465 467
466 423
466 425
466 445
466 448
466 457
466 459
466 463
467 405
467 407
467 409
467 426
467 435
467 439
467 443
467 453
467 456
467 464
467 465
468 411
468 415
468 416
468 422
468 440
468 446
468 447
468 461
468 464
468 470
469 400
469 410
469 412
469 427
469 429
469 433
469 441
469 444
469 449
469 451
469 458
469 462
470 411
470 415
470 416
470 417
470 442
470 446
470 447
470 450
470 461
470 468
