1 4
1 23
1 44
2 5
2 8
2 19
2 22
2 33
2 49
3 13
3 14
3 16
3 36
3 38
3 48
4 1
4 19
4 23
4 46
5 2
5 8
5 12
5 22
5 24
5 33
5 47
6 25
6 27
6 29
6 35
6 45
7 18
7 21
7 26
7 42
8 2
8 5
8 12
8 13
8 22
8 24
8 33
8 43
9 10
9 17
9 30
9 32
9 39
9 40
10 9
10 30
10 39
11 26
11 31
11 37
12 5
12 8
12 13
12 22
12 24
12 43
13 3
13 8
13 12
13 14
13 24
13 36
13 38
13 43
14 3
14 13
14 16
14 36
14 38
15 17
15 28
15 34
15 40
15 52
16 3
16 14
16 36
16 48
17 9
17 15
17 32
17 34
17 40
18 7
18 21
18 27
18 35
18 42
18 53
19 2
19 4
19 33
19 46
19 49
19 65
20 28
20 29
20 41
20 54
20 55
21 7
21 18
21 26
21 42
21 56
22 2
22 5
22 8
22 12
22 24
22 33
22 43
22 47
22 49
22 58
23 1
23 4
23 44
23 50
23 60
24 5
24 8
24 12
24 13
24 22
24 33
24 43
24 47
24 58
24 62
25 6
25 27
25 29
25 35
25 45
25 51
26 7
26 11
26 21
26 37
27 6
27 18
27 25
27 35
27 45
27 53
27 69
28 15
28 20
28 34
28 41
28 52
28 54
28 61
29 6
29 20
29 25
29 45
29 51
29 55
30 9
30 10
30 32
30 39
30 70
31 11
31 37
31 44
31 57
31 59
32 9
32 17
32 30
32 39
32 40
33 2
33 5
33 8
33 19
33 22
33 24
33 43
33 47
33 49
33 58
33 72
34 15
34 17
34 28
34 40
34 41
34 52
34 61
34 66
34 76
35 6
35 18
35 25
35 27
35 42
35 45
35 53
35 69
36 3
36 13
36 14
36 16
36 38
36 48
36 63
36 64
37 11
37 26
37 31
37 57
37 59
37 71
38 3
38 13
38 14
38 36
38 43
38 48
38 62
38 63
38 64
39 9
39 10
39 30
39 32
39 68
39 70
40 9
40 15
40 17
40 32
40 34
40 52
40 66
41 20
41 28
41 34
41 54
41 55
41 61
42 7
42 18
42 21
42 35
42 53
42 56
42 73
42 78
43 8
43 12
43 13
43 22
43 24
43 33
43 38
43 47
43 58
43 62
43 63
44 1
44 23
44 31
44 50
44 59
44 60
44 74
44 81
45 6
45 25
45 27
45 29
45 35
45 51
45 53
45 69
46 4
46 19
46 49
46 50
46 65
46 67
47 5
47 22
47 24
47 33
47 43
47 49
47 58
47 65
47 72
48 3
48 16
48 36
48 38
48 64
48 86
49 2
49 19
49 22
49 33
49 46
49 47
49 65
49 67
49 72
50 23
50 44
50 46
50 60
50 67
50 74
50 91
51 25
51 29
51 45
51 55
51 69
51 75
51 77
52 15
52 28
52 34
52 40
52 54
52 61
52 66
52 76
52 82
52 85
53 18
53 27
53 35
53 42
53 45
53 56
53 69
53 78
53 90
53 95
54 20
54 28
54 41
54 52
54 55
54 61
54 77
54 82
55 20
55 29
55 41
55 51
55 54
55 75
55 77
56 21
56 42
56 53
56 71
56 73
56 78
56 87
56 98
57 31
57 37
57 59
57 71
57 79
57 81
57 89
57 93
58 22
58 24
58 33
58 43
58 47
58 62
58 72
58 88
59 31
59 37
59 44
59 57
59 60
59 79
59 81
59 89
60 23
60 44
60 50
60 59
60 74
60 81
60 91
60 100
61 28
61 34
61 41
61 52
61 54
61 76
61 82
61 97
62 24
62 38
62 43
62 58
62 63
62 83
62 99
63 36
63 38
63 43
63 62
63 64
63 83
63 86
64 36
64 38
64 48
64 63
64 83
64 86
64 101
65 19
65 46
65 47
65 49
65 67
65 72
65 92
65 94
65 96
66 34
66 40
66 52
66 76
66 80
66 85
67 46
67 49
67 50
67 65
67 74
67 91
67 92
67 94
68 39
68 70
68 84
69 27
69 35
69 45
69 51
69 53
69 75
69 90
70 30
70 39
70 68
70 80
70 84
70 102
71 37
71 56
71 57
71 73
71 79
71 87
71 89
71 93
72 33
72 47
72 49
72 58
72 65
72 88
72 94
72 96
73 42
73 56
73 71
73 78
73 79
73 87
73 93
73 98
74 44
74 50
74 60
74 67
74 81
74 91
74 92
75 51
75 55
75 69
75 77
75 90
75 105
76 34
76 52
76 61
76 66
76 82
76 85
76 97
76 104
77 51
77 54
77 55
77 75
77 82
77 108
78 42
78 53
78 56
78 73
78 87
78 95
78 98
79 57
79 59
79 71
79 73
79 87
79 89
79 93
79 107
80 66
80 70
80 84
80 85
80 102
80 103
80 109
81 44
81 57
81 59
81 60
81 74
81 89
81 100
81 117
82 52
82 54
82 61
82 76
82 77
82 85
82 97
82 110
82 115
83 62
83 63
83 64
83 86
83 101
84 68
84 70
84 80
84 102
84 111
85 52
85 66
85 76
85 80
85 82
85 97
85 103
85 104
86 48
86 63
86 64
86 83
86 101
87 56
87 71
87 73
87 78
87 79
87 93
87 98
87 107
88 58
88 72
88 96
88 99
88 106
88 112
89 57
89 59
89 71
89 79
89 81
89 93
89 100
89 107
89 117
89 119
90 53
90 69
90 75
90 95
90 105
90 113
90 116
91 50
91 60
91 67
91 74
91 92
91 100
91 127
92 65
92 67
92 74
92 91
92 94
92 120
92 127
93 57
93 71
93 73
93 79
93 87
93 89
93 107
93 119
93 125
94 65
94 67
94 72
94 92
94 96
94 112
94 120
94 130
95 53
95 78
95 90
95 98
95 113
95 116
95 121
96 65
96 72
96 88
96 94
96 106
96 112
96 120
96 130
96 131
97 61
97 76
97 82
97 85
97 104
97 110
97 114
97 115
98 56
98 73
98 78
98 87
98 95
98 107
98 116
98 121
98 126
99 62
99 88
99 106
99 128
100 60
100 81
100 89
100 91
100 117
100 118
100 119
100 129
101 64
101 83
101 86
101 122
101 132
102 70
102 80
102 84
102 109
102 111
102 123
103 80
103 85
103 104
103 109
103 123
104 76
104 85
104 97
104 103
104 109
104 114
105 75
105 90
105 108
105 113
105 124
106 88
106 96
106 99
106 112
106 130
106 131
107 79
107 87
107 89
107 93
107 98
107 119
107 125
107 126
108 77
108 105
108 110
108 124
109 80
109 102
109 103
109 104
109 123
110 82
110 97
110 108
110 114
110 115
111 84
111 102
111 123
112 88
112 94
112 96
112 106
112 120
112 130
112 131
113 90
113 95
113 105
113 116
113 124
114 97
114 104
114 110
114 115
115 82
115 97
115 110
115 114
116 90
116 95
116 98
116 113
116 121
117 81
117 89
117 100
117 118
117 119
117 129
118 100
118 117
118 119
118 127
118 129
119 89
119 93
119 100
119 107
119 117
119 118
119 125
120 92
120 94
120 96
120 112
120 127
120 130
121 95
121 98
121 116
121 126
122 101
122 128
122 132
122 134
123 102
123 103
123 109
123 111
123 135
123 136
124 105
124 108
124 113
125 93
125 107
125 119
125 126
126 98
126 107
126 121
126 125
126 137
127 91
127 92
127 118
127 120
127 129
128 99
128 122
128 133
128 134
129 100
129 117
129 118
129 127
130 94
130 96
130 106
130 112
130 120
130 131
131 96
131 106
131 112
131 130
131 133
132 101
132 122
132 134
133 128
133 131
133 152
133 155
134 122
134 128
134 132
134 145
135 123
135 136
135 168
136 123
136 135
136 138
136 139
136 170
137 126
137 140
137 143
138 136
138 139
138 142
138 156
138 172
138 173
139 136
139 138
139 156
139 170
139 172
139 173
140 137
140 143
140 150
140 162
140 174
141 147
141 151
141 159
142 138
142 147
142 156
142 159
143 137
143 140
143 158
144 153
144 157
144 165
145 134
145 152
145 163
145 166
145 169
146 158
146 161
147 141
147 142
147 151
147 159
147 175
148 150
148 151
148 162
148 164
148 171
148 176
149 160
149 161
149 165
149 181
150 140
150 148
150 162
150 171
151 141
151 147
151 148
151 164
151 176
151 178
152 133
152 145
152 154
152 155
152 166
152 167
152 169
153 144
153 154
153 155
153 157
153 179
154 152
154 153
154 155
154 157
154 167
154 179
154 192
155 133
155 152
155 153
155 154
155 167
155 179
155 192
156 138
156 139
156 142
156 159
156 172
156 173
156 184
157 144
157 153
157 154
157 165
157 180
158 143
158 146
158 161
158 182
158 186
159 141
159 142
159 147
159 156
159 175
159 184
159 193
160 149
160 161
160 177
160 181
161 146
161 149
161 158
161 160
161 177
161 181
161 186
162 140
162 148
162 150
162 171
162 174
162 189
162 194
163 145
163 166
163 169
163 188
163 199
164 148
164 151
164 171
164 176
164 178
164 191
165 144
165 149
165 157
165 180
165 181
165 187
165 208
166 145
166 152
166 163
166 167
166 169
166 188
166 201
166 202
167 152
167 154
167 155
167 166
167 179
167 192
167 195
168 135
168 170
168 183
168 190
169 145
169 152
169 163
169 166
169 188
169 201
169 202
170 136
170 139
170 168
170 172
170 183
170 197
170 203
171 148
171 150
171 162
171 164
171 176
171 191
171 194
172 138
172 139
172 156
172 170
172 173
172 197
172 198
172 203
173 138
173 139
173 156
173 172
173 184
173 197
173 198
174 140
174 162
174 185
174 189
174 196
174 214
175 147
175 159
175 184
175 193
175 198
175 200
175 204
176 148
176 151
176 164
176 171
176 178
176 191
176 194
176 211
176 216
177 160
177 161
177 181
177 186
177 206
177 207
177 217
178 151
178 164
178 176
178 193
178 204
178 211
178 215
179 153
179 154
179 155
179 167
179 192
179 195
179 210
179 212
179 219
180 157
180 165
180 181
180 187
180 208
180 209
181 149
181 160
181 161
181 165
181 177
181 180
181 187
181 206
181 207
181 208
181 217
182 158
182 185
182 186
182 196
182 205
183 168
183 170
183 190
183 203
183 213
183 218
183 226
184 156
184 159
184 173
184 175
184 193
184 198
184 200
184 221
185 174
185 182
185 189
185 196
185 205
185 214
186 158
186 161
186 177
186 182
186 205
186 206
186 224
187 165
187 180
187 181
187 207
187 208
187 209
188 163
188 166
188 169
188 199
188 201
188 202
189 162
189 174
189 185
189 194
189 196
189 214
190 168
190 183
190 213
190 218
191 164
191 171
191 176
191 194
191 211
191 216
191 220
192 154
192 155
192 167
192 179
192 195
192 210
192 212
192 219
193 159
193 175
193 178
193 184
193 200
193 204
193 223
194 162
194 171
194 176
194 189
194 191
194 214
194 220
195 167
195 179
195 192
195 201
195 212
195 219
195 222
196 174
196 182
196 185
196 189
196 214
197 170
197 172
197 173
197 198
197 203
197 226
197 227
198 172
198 173
198 175
198 184
198 197
198 200
198 203
198 221
198 227
199 163
199 188
199 202
200 175
200 184
200 193
200 198
200 221
200 231
201 166
201 169
201 188
201 195
201 202
201 212
201 222
202 166
202 169
202 188
202 199
202 201
203 170
203 172
203 183
203 197
203 198
203 213
203 226
203 227
203 230
203 239
204 175
204 178
204 193
204 211
204 215
204 223
204 237
205 182
205 185
205 186
205 224
205 229
206 177
206 181
206 186
206 207
206 217
206 224
206 228
207 177
207 181
207 187
207 206
207 208
207 217
207 228
207 233
207 241
208 165
208 180
208 181
208 187
208 207
208 209
208 225
208 233
209 180
209 187
209 208
209 210
209 225
209 233
209 235
210 179
210 192
210 209
210 212
210 219
210 225
210 235
211 176
211 178
211 191
211 204
211 215
211 216
211 220
211 223
211 232
211 234
211 240
212 179
212 192
212 195
212 201
212 210
212 219
212 222
212 245
212 248
213 183
213 190
213 203
213 218
213 226
213 230
214 174
214 185
214 189
214 194
214 196
214 220
214 236
214 238
214 242
215 178
215 204
215 211
215 216
215 223
215 232
215 237
215 240
216 176
216 191
216 211
216 215
216 220
216 232
216 234
216 240
216 256
217 177
217 181
217 206
217 207
217 224
217 228
217 241
217 251
217 252
218 183
218 190
218 213
218 230
219 179
219 192
219 195
219 210
219 212
219 222
219 225
219 235
219 245
220 191
220 194
220 211
220 214
220 216
220 232
220 234
220 236
220 254
221 184
221 198
221 200
221 227
221 231
221 243
221 244
222 195
222 201
222 212
222 219
222 245
222 248
222 249
223 193
223 204
223 211
223 215
223 231
223 237
223 240
223 247
224 186
224 205
224 206
224 217
224 228
224 229
224 250
225 208
225 209
225 210
225 219
225 233
225 235
225 258
225 259
226 183
226 197
226 203
226 213
226 227
226 230
226 239
226 261
226 262
227 197
227 198
227 203
227 221
227 226
227 230
227 239
227 243
227 261
227 263
228 206
228 207
228 217
228 224
228 229
228 250
228 251
228 252
229 205
229 224
229 228
229 246
229 250
229 264
230 203
230 213
230 218
230 226
230 227
230 239
230 260
230 261
230 262
231 200
231 221
231 223
231 237
231 244
231 247
232 211
232 215
232 216
232 220
232 234
232 236
232 240
232 254
232 256
232 267
232 268
233 207
233 208
233 209
233 225
233 241
233 252
233 257
233 258
234 211
234 216
234 220
234 232
234 236
234 240
234 254
234 256
234 267
234 268
235 209
235 210
235 219
235 225
235 245
235 258
235 259
236 214
236 220
236 232
236 234
236 238
236 242
236 254
236 255
236 267
236 271
236 278
237 204
237 215
237 223
237 231
237 240
237 247
237 256
237 276
237 277
238 214
238 236
238 242
238 246
238 254
238 255
238 271
238 273
239 203
239 226
239 227
239 230
239 243
239 261
239 262
239 263
240 211
240 215
240 216
240 223
240 232
240 234
240 237
240 256
240 268
240 276
240 277
241 207
241 217
241 233
241 251
241 252
241 257
241 274
241 275
242 214
242 236
242 238
242 246
242 255
242 271
242 273
243 221
243 227
243 239
243 244
243 261
243 262
243 263
243 270
244 221
244 231
244 243
244 247
244 263
244 270
244 272
245 212
245 219
245 222
245 235
245 248
245 249
245 259
245 265
245 266
245 279
246 229
246 238
246 242
246 264
246 273
247 223
247 231
247 237
247 244
247 272
247 276
248 212
248 222
248 245
248 249
248 265
248 266
248 269
249 222
249 245
249 248
249 253
249 265
249 269
250 224
250 228
250 229
250 251
250 264
250 280
250 281
251 217
251 228
251 241
251 250
251 252
251 274
251 280
251 281
252 217
252 228
252 233
252 241
252 251
252 257
252 274
252 275
252 281
252 287
253 249
253 269
253 282
253 295
254 220
254 232
254 234
254 236
254 238
254 255
254 267
254 271
254 278
254 284
255 236
255 238
255 242
255 254
255 271
255 273
255 278
255 291
256 216
256 232
256 234
256 237
256 240
256 267
256 268
256 276
256 277
256 284
257 233
257 241
257 252
257 258
257 274
257 275
257 287
257 288
257 289
258 225
258 233
258 235
258 257
258 259
258 275
258 286
258 289
259 225
259 235
259 245
259 258
259 266
259 279
259 286
260 230
260 262
260 283
260 297
260 302
261 226
261 227
261 230
261 239
261 243
261 262
261 263
261 285
261 292
261 303
262 226
262 230
262 239
262 243
262 260
262 261
262 283
262 285
262 297
263 227
263 239
263 243
263 244
263 261
263 270
263 285
263 292
264 229
264 246
264 250
264 280
264 290
264 293
265 245
265 248
265 249
265 266
265 269
265 279
265 294
265 298
265 309
266 245
266 248
266 259
266 265
266 279
266 286
266 294
267 232
267 234
267 236
267 254
267 256
267 268
267 271
267 277
267 278
267 284
268 232
268 234
268 240
268 256
268 267
268 277
268 278
268 284
269 248
269 249
269 253
269 265
269 295
269 298
269 309
270 243
270 244
270 263
270 272
270 292
270 299
270 305
271 236
271 238
271 242
271 254
271 255
271 267
271 273
271 278
271 284
271 291
271 306
272 244
272 247
272 270
272 276
272 299
272 301
272 305
272 308
273 238
273 242
273 246
273 255
273 271
273 290
273 291
273 293
273 311
274 241
274 251
274 252
274 257
274 275
274 281
274 287
274 288
274 289
274 310
274 315
275 241
275 252
275 257
275 258
275 274
275 287
275 288
275 289
275 310
276 237
276 240
276 247
276 256
276 272
276 277
276 301
276 304
276 308
277 237
277 240
277 256
277 267
277 268
277 276
277 301
277 304
277 314
278 236
278 254
278 255
278 267
278 268
278 271
278 284
278 291
278 306
278 313
279 245
279 259
279 265
279 266
279 286
279 294
279 319
280 250
280 251
280 264
280 281
280 296
280 307
281 250
281 251
281 252
281 274
281 280
281 287
281 296
281 315
282 253
282 295
282 300
282 320
282 322
283 260
283 262
283 297
283 302
283 312
284 254
284 256
284 267
284 268
284 271
284 278
284 306
284 313
284 314
284 326
285 261
285 262
285 263
285 292
285 297
285 303
285 312
285 316
285 317
285 318
286 258
286 259
286 266
286 279
286 289
286 294
286 327
287 252
287 257
287 274
287 275
287 281
287 288
287 289
287 310
287 315
287 329
288 257
288 274
288 275
288 287
288 289
288 310
288 315
288 329
289 257
289 258
289 274
289 275
289 286
289 287
289 288
289 310
289 327
290 264
290 273
290 293
290 296
290 307
290 311
290 323
290 324
291 255
291 271
291 273
291 278
291 293
291 306
291 311
292 261
292 263
292 270
292 285
292 299
292 303
292 305
292 316
292 318
293 264
293 273
293 290
293 291
293 307
293 311
293 323
294 265
294 266
294 279
294 286
294 309
294 319
295 253
295 269
295 282
295 298
295 300
295 320
295 322
295 336
296 280
296 281
296 290
296 307
296 315
296 324
296 331
296 339
297 260
297 262
297 283
297 285
297 302
297 303
297 312
297 317
298 265
298 269
298 295
298 309
298 320
298 321
298 335
298 338
299 270
299 272
299 292
299 301
299 305
299 308
299 316
299 328
299 333
300 282
300 295
300 320
300 322
300 336
301 272
301 276
301 277
301 299
301 304
301 308
301 325
301 333
301 334
302 260
302 283
302 297
302 312
302 346
303 261
303 285
303 292
303 297
303 305
303 312
303 316
303 317
303 318
304 276
304 277
304 301
304 314
304 325
304 330
304 334
305 270
305 272
305 292
305 299
305 303
305 308
305 316
305 318
305 328
305 333
306 271
306 278
306 284
306 291
306 313
306 326
306 332
306 342
306 344
307 280
307 290
307 293
307 296
307 311
307 323
307 324
307 331
307 339
307 345
307 351
308 272
308 276
308 299
308 301
308 305
308 328
308 333
308 334
309 265
309 269
309 294
309 298
309 319
309 321
309 335
309 338
309 354
309 358
310 274
310 275
310 287
310 288
310 289
310 315
310 329
310 337
310 340
310 352
311 273
311 290
311 291
311 293
311 307
311 323
311 324
311 342
311 345
312 283
312 285
312 297
312 302
312 303
312 317
312 318
312 346
312 347
312 350
313 278
313 284
313 306
313 314
313 326
313 330
313 332
313 344
314 277
314 284
314 304
314 313
314 325
314 326
314 330
315 274
315 281
315 287
315 288
315 296
315 310
315 329
315 331
315 337
315 349
315 352
316 285
316 292
316 299
316 303
316 305
316 318
316 328
316 357
316 359
317 285
317 297
317 303
317 312
317 318
317 347
317 350
318 285
318 292
318 303
318 305
318 312
318 316
318 317
318 347
318 350
318 357
318 359
319 279
319 294
319 309
319 327
319 335
319 341
319 353
319 354
319 356
320 282
320 295
320 298
320 300
320 321
320 322
320 336
320 338
320 348
320 360
321 298
321 309
321 320
321 335
321 336
321 338
321 354
321 358
321 360
322 282
322 295
322 300
322 320
322 336
322 348
323 290
323 293
323 307
323 311
323 324
323 339
323 345
323 351
324 290
324 296
324 307
324 311
324 323
324 331
324 339
324 345
324 349
324 351
325 301
325 304
325 314
325 330
325 333
325 334
325 361
326 284
326 306
326 313
326 314
326 330
326 332
326 344
326 365
326 366
327 286
327 289
327 319
327 340
327 341
327 343
327 356
328 299
328 305
328 308
328 316
328 333
328 357
328 359
328 362
329 287
329 288
329 310
329 315
329 337
329 340
329 352
330 304
330 313
330 314
330 325
330 326
330 334
330 361
330 365
330 373
331 296
331 307
331 315
331 324
331 337
331 339
331 349
331 351
331 371
331 374
332 306
332 313
332 326
332 342
332 344
332 365
332 366
333 299
333 301
333 305
333 308
333 325
333 328
333 334
333 361
333 362
333 364
334 301
334 304
334 308
334 325
334 330
334 333
334 361
334 364
335 298
335 309
335 319
335 321
335 338
335 353
335 354
335 358
335 360
335 377
336 295
336 300
336 320
336 321
336 322
336 338
336 348
336 360
337 310
337 315
337 329
337 331
337 340
337 349
337 352
337 371
338 298
338 309
338 320
338 321
338 335
338 336
338 354
338 358
338 360
339 296
339 307
339 323
339 324
339 331
339 345
339 349
339 351
339 374
339 376
340 310
340 327
340 329
340 337
340 341
340 343
340 352
340 379
341 319
341 327
341 340
341 343
341 353
341 356
341 380
341 385
342 306
342 311
342 332
342 344
342 345
342 369
342 372
343 327
343 340
343 341
343 352
343 356
343 379
343 380
343 385
344 306
344 313
344 326
344 332
344 342
344 365
344 366
344 369
345 307
345 311
345 323
345 324
345 339
345 342
345 351
345 372
345 376
345 383
346 302
346 312
346 347
346 355
346 370
346 389
347 312
347 317
347 318
347 346
347 350
347 355
347 363
347 367
347 370
347 388
348 320
348 322
348 336
348 384
349 315
349 324
349 331
349 337
349 339
349 351
349 371
349 374
349 376
350 312
350 317
350 318
350 347
350 357
350 359
350 363
350 367
350 368
350 388
351 307
351 323
351 324
351 331
351 339
351 345
351 349
351 374
351 376
351 396
352 310
352 315
352 329
352 337
352 340
352 343
352 371
352 379
352 382
353 319
353 335
353 341
353 354
353 356
353 358
353 377
353 391
354 309
354 319
354 321
354 335
354 338
354 353
354 356
354 358
354 360
354 377
354 391
355 346
355 347
355 370
355 389
355 394
356 319
356 327
356 341
356 343
356 353
356 354
356 380
357 316
357 318
357 328
357 350
357 359
357 363
357 367
357 368
357 387
357 395
358 309
358 321
358 335
358 338
358 353
358 354
358 360
358 377
358 386
359 316
359 318
359 328
359 350
359 357
359 362
359 367
359 368
359 387
359 395
360 320
360 321
360 335
360 336
360 338
360 354
360 358
360 377
360 384
360 386
361 325
361 330
361 333
361 334
361 364
361 373
361 378
361 381
361 410
361 412
362 328
362 333
362 359
362 364
362 368
362 378
362 387
362 403
362 404
362 408
363 347
363 350
363 357
363 367
363 370
363 388
363 394
363 395
363 399
363 401
364 333
364 334
364 361
364 362
364 378
364 381
364 408
364 412
365 326
365 330
365 332
365 344
365 366
365 373
365 375
365 392
365 393
365 398
366 326
366 332
366 344
366 365
366 369
366 375
366 392
366 393
367 347
367 350
367 357
367 359
367 363
367 368
367 388
367 395
367 401
367 419
368 350
368 357
368 359
368 362
368 367
368 387
368 395
368 401
368 403
368 404
369 342
369 344
369 366
369 372
369 383
369 392
369 393
369 400
370 346
370 347
370 355
370 363
370 388
370 389
370 394
370 399
370 422
371 331
371 337
371 349
371 352
371 374
371 382
371 390
371 402
371 414
372 342
372 345
372 369
372 383
372 397
372 400
372 418
373 330
373 361
373 365
373 375
373 378
373 381
373 398
373 410
374 331
374 339
374 349
374 351
374 371
374 376
374 390
374 396
374 402
375 365
375 366
375 373
375 381
375 392
375 398
375 420
376 339
376 345
376 349
376 351
376 374
376 383
376 396
376 397
376 402
377 335
377 353
377 354
377 358
377 360
377 386
377 391
377 411
377 415
377 416
377 417
378 361
378 362
378 364
378 373
378 381
378 408
378 410
378 412
378 426
379 340
379 343
379 352
379 380
379 382
379 385
379 390
379 405
379 406
379 407
379 414
380 341
380 343
380 356
380 379
380 385
380 405
380 407
380 409
380 411
381 361
381 364
381 373
381 375
381 378
381 398
381 410
381 412
381 426
381 429
382 352
382 371
382 379
382 390
382 405
382 406
382 414
383 345
383 369
383 372
383 376
383 396
383 397
383 400
383 418
383 431
384 348
384 360
384 386
384 413
384 417
385 341
385 343
385 379
385 380
385 405
385 406
385 407
385 409
386 358
386 360
386 377
386 384
386 413
386 416
386 417
387 357
387 359
387 362
387 368
387 395
387 403
387 404
387 408
387 424
388 347
388 350
388 363
388 367
388 370
388 394
388 395
388 399
388 401
388 419
388 436
389 346
389 355
389 370
389 394
389 399
389 422
390 371
390 374
390 379
390 382
390 402
390 406
390 414
390 435
391 353
391 354
391 377
391 409
391 411
391 415
391 416
391 433
391 441
392 365
392 366
392 369
392 375
392 393
392 398
392 420
392 423
392 428
392 443
393 365
393 366
393 369
393 392
393 400
393 420
393 423
393 428
394 355
394 363
394 370
394 388
394 389
394 399
394 422
394 434
395 357
395 359
395 363
395 367
395 368
395 387
395 388
395 401
395 403
395 419
395 421
395 424
396 351
396 374
396 376
396 383
396 397
396 402
396 430
396 431
396 432
397 372
397 376
397 383
397 396
397 400
397 418
397 430
397 431
397 444
398 365
398 373
398 375
398 381
398 392
398 410
398 420
398 427
398 429
398 440
399 363
399 370
399 388
399 389
399 394
399 401
399 419
399 422
399 434
399 436
400 369
400 372
400 383
400 393
400 397
400 418
400 423
400 431
400 437
401 363
401 367
401 368
401 388
401 395
401 399
401 403
401 419
401 421
401 436
402 371
402 374
402 376
402 390
402 396
402 414
402 430
402 432
402 435
402 448
403 362
403 368
403 387
403 395
403 401
403 404
403 408
403 421
403 424
403 425
403 442
403 445
404 362
404 368
404 387
404 403
404 408
404 424
404 425
404 442
404 445
405 379
405 380
405 382
405 385
405 406
405 407
405 409
405 438
405 439
406 379
406 382
406 385
406 390
406 405
406 407
406 414
406 438
406 439
407 379
407 380
407 385
407 405
407 406
407 409
407 411
407 433
407 438
407 439
407 451
408 362
408 364
408 378
408 387
408 403
408 404
408 412
408 424
408 425
408 426
408 445
408 449
409 380
409 385
409 391
409 405
409 407
409 411
409 415
409 433
409 439
409 441
409 451
410 361
410 373
410 378
410 381
410 398
410 412
410 426
410 427
410 429
410 447
410 449
411 377
411 380
411 391
411 407
411 409
411 415
411 433
411 441
412 361
412 364
412 378
412 381
412 408
412 410
412 425
412 426
412 429
412 447
412 449
413 384
413 386
413 417
413 452
414 371
414 379
414 382
414 390
414 402
414 406
414 435
414 438
415 377
415 391
415 409
415 411
415 416
415 417
415 433
415 441
416 377
416 386
416 391
416 415
416 417
416 446
416 460
417 377
417 384
417 386
417 413
417 415
417 416
417 446
417 452
417 460
418 372
418 383
418 397
418 400
418 423
418 431
418 437
418 444
418 456
418 458
419 367
419 388
419 395
419 399
419 401
419 421
419 434
419 436
419 457
420 375
420 392
420 393
420 398
420 423
420 427
420 428
420 429
420 440
420 443
420 450
421 395
421 401
421 403
421 419
421 424
421 436
421 442
421 457
421 459
422 370
422 389
422 394
422 399
422 434
422 453
423 392
423 393
423 400
423 418
423 420
423 428
423 437
423 443
423 450
423 458
424 387
424 395
424 403
424 404
424 408
424 421
424 425
424 442
424 445
424 459
425 403
425 404
425 408
425 412
425 424
425 426
425 442
425 445
425 449
426 378
426 381
426 408
426 410
426 412
426 425
426 427
426 429
426 445
426 447
426 449
427 398
427 410
427 420
427 426
427 428
427 429
427 440
427 443
427 447
428 392
428 393
428 420
428 423
428 427
428 437
428 440
428 443
428 450
429 381
429 398
429 410
429 412
429 420
429 426
429 427
429 440
429 447
429 449
430 396
430 397
430 402
430 431
430 432
430 444
430 448
430 454
431 383
431 396
431 397
431 400
431 418
431 430
431 437
431 444
431 454
431 456
431 458
432 396
432 402
432 430
432 435
432 448
432 454
432 455
433 391
433 407
433 409
433 411
433 415
433 439
433 441
433 451
434 394
434 399
434 419
434 422
434 436
434 453
435 390
435 402
435 414
435 432
435 448
435 455
435 461
436 388
436 399
436 401
436 419
436 421
436 434
436 453
436 457
437 400
437 418
437 423
437 428
437 431
437 443
437 444
437 450
437 456
437 458
438 405
438 406
438 407
438 414
438 439
438 451
438 461
438 462
439 405
439 406
439 407
439 409
439 433
439 438
439 451
439 462
440 398
440 420
440 427
440 428
440 429
440 443
440 447
441 391
441 409
441 411
441 415
441 433
442 403
442 404
442 421
442 424
442 425
442 445
442 457
442 459
443 392
443 420
443 423
443 427
443 428
443 437
443 440
443 450
444 397
444 418
444 430
444 431
444 437
444 454
444 456
444 458
445 403
445 404
445 408
445 424
445 425
445 426
445 442
445 449
445 459
446 416
446 417
446 452
446 460
447 410
447 412
447 426
447 427
447 429
447 440
447 449
448 402
448 430
448 432
448 435
448 454
448 455
449 408
449 410
449 412
449 425
449 426
449 429
449 445
449 447
450 420
450 423
450 428
450 437
450 443
450 458
451 407
451 409
451 433
451 438
451 439
451 462
452 413
452 417
452 446
452 460
453 422
453 434
453 436
454 430
454 431
454 432
454 444
454 448
454 455
454 456
455 432
455 435
455 448
455 454
456 418
456 431
456 437
456 444
456 454
456 458
457 419
457 421
457 436
457 442
457 459
458 418
458 423
458 431
458 437
458 444
458 450
458 456
459 421
459 424
459 442
459 445
459 457
460 416
460 417
460 446
460 452
461 435
461 438
461 462
462 438
462 439
462 451
462 461
