1 12
1 13
1 35
1 36
1 47
2 6
2 17
2 43
2 49
3 6
3 7
3 18
3 19
3 20
3 31
3 42
3 45
3 46
4 23
4 24
4 25
4 32
4 44
5 11
5 15
5 21
5 22
5 41
6 2
6 3
6 17
6 18
6 42
7 3
7 8
7 12
7 19
7 20
7 31
7 40
7 46
8 7
8 12
8 13
8 19
8 20
8 31
8 35
8 40
9 10
9 16
9 28
9 29
9 37
9 39
10 9
10 28
10 29
10 37
11 5
11 21
11 22
11 30
11 34
12 1
12 7
12 8
12 13
12 19
12 35
12 36
12 40
13 1
13 8
13 12
13 35
13 36
13 47
14 16
14 26
14 28
14 33
14 39
14 50
15 5
15 21
15 25
15 32
15 41
15 44
15 51
16 9
16 14
16 28
16 29
16 33
16 37
16 39
16 61
17 2
17 6
17 18
17 43
17 49
17 59
18 3
18 6
18 17
18 31
18 42
18 45
18 46
18 62
18 64
19 3
19 7
19 8
19 12
19 20
19 31
19 35
19 40
19 46
19 54
19 55
20 3
20 7
20 8
20 19
20 31
20 40
20 45
20 46
20 54
21 5
21 11
21 15
21 22
21 34
21 41
21 56
21 70
22 5
22 11
22 21
22 30
22 34
22 41
22 52
22 67
23 4
23 24
23 25
23 27
23 38
23 44
23 48
23 53
24 4
24 23
24 25
24 27
24 32
24 44
24 48
24 53
24 66
25 4
25 15
25 23
25 24
25 32
25 44
25 48
25 51
25 66
26 14
26 27
26 33
26 38
26 50
26 57
26 65
27 23
27 24
27 26
27 38
27 48
27 53
27 57
28 9
28 10
28 14
28 16
28 29
28 37
28 39
28 61
29 9
29 10
29 16
29 28
29 37
29 69
30 11
30 22
30 34
30 43
30 52
30 58
30 59
31 3
31 7
31 8
31 18
31 19
31 20
31 40
31 42
31 45
31 46
31 54
31 62
31 68
32 4
32 15
32 24
32 25
32 41
32 44
32 51
32 66
33 14
33 16
33 26
33 38
33 39
33 50
33 57
33 61
33 65
33 72
34 11
34 21
34 22
34 30
34 52
34 58
34 67
34 70
34 73
35 1
35 8
35 12
35 13
35 19
35 36
35 40
35 47
35 55
35 60
35 63
35 84
36 1
36 12
36 13
36 35
36 47
36 60
36 63
36 84
37 9
37 10
37 16
37 28
37 29
37 39
37 69
37 79
37 83
38 23
38 26
38 27
38 33
38 48
38 50
38 53
38 57
38 65
38 76
38 78
39 9
39 14
39 16
39 28
39 33
39 37
39 50
39 61
39 72
39 79
39 81
40 7
40 8
40 12
40 19
40 20
40 31
40 35
40 46
40 54
40 55
40 60
40 77
41 5
41 15
41 21
41 22
41 32
41 51
41 56
41 70
41 75
42 3
42 6
42 18
42 31
42 45
42 46
42 49
42 62
42 64
42 68
43 2
43 17
43 30
43 49
43 58
43 59
43 71
43 80
44 4
44 15
44 23
44 24
44 25
44 32
44 48
44 51
44 66
44 74
45 3
45 18
45 20
45 31
45 42
45 46
45 54
45 62
45 64
45 68
46 3
46 7
46 18
46 19
46 20
46 31
46 40
46 42
46 45
46 54
46 55
46 62
46 68
46 77
46 86
47 1
47 13
47 35
47 36
47 60
47 63
47 82
48 23
48 24
48 25
48 27
48 38
48 44
48 53
48 66
48 74
48 76
49 2
49 17
49 42
49 43
49 59
49 64
49 71
49 88
49 89
50 14
50 26
50 33
50 38
50 39
50 57
50 61
50 65
50 72
50 78
50 81
50 96
51 15
51 25
51 32
51 41
51 44
51 56
51 66
51 70
51 75
51 90
51 91
52 22
52 30
52 34
52 58
52 67
52 73
52 80
52 87
52 92
53 23
53 24
53 27
53 38
53 48
53 57
53 65
53 74
53 76
53 78
54 19
54 20
54 31
54 40
54 45
54 46
54 55
54 60
54 68
54 77
54 86
54 95
55 19
55 35
55 40
55 46
55 54
55 60
55 63
55 77
55 84
55 86
55 95
55 98
56 21
56 41
56 51
56 67
56 70
56 75
56 85
56 90
56 97
57 26
57 27
57 33
57 38
57 50
57 53
57 65
57 72
57 76
57 78
57 96
58 30
58 34
58 43
58 52
58 59
58 67
58 73
58 80
58 87
58 99
59 17
59 30
59 43
59 49
59 58
59 71
59 80
59 89
59 99
60 35
60 36
60 40
60 47
60 54
60 55
60 63
60 77
60 82
60 84
60 95
60 98
61 16
61 28
61 33
61 39
61 50
61 65
61 72
61 79
61 81
61 102
61 103
62 18
62 31
62 42
62 45
62 46
62 64
62 68
62 86
62 88
62 93
62 94
63 35
63 36
63 47
63 55
63 60
63 82
63 84
63 98
63 100
64 18
64 42
64 45
64 49
64 62
64 68
64 71
64 88
64 89
64 93
65 26
65 33
65 38
65 50
65 53
65 57
65 61
65 72
65 76
65 78
65 81
65 96
66 24
66 25
66 32
66 44
66 48
66 51
66 74
66 75
66 90
66 91
66 104
67 22
67 34
67 52
67 56
67 58
67 70
67 73
67 85
67 87
67 92
67 105
68 31
68 42
68 45
68 46
68 54
68 62
68 64
68 77
68 86
68 93
68 94
68 107
69 29
69 37
69 79
69 83
69 101
69 108
70 21
70 34
70 41
70 51
70 56
70 67
70 73
70 75
70 85
70 90
70 92
70 97
71 43
71 49
71 59
71 64
71 80
71 88
71 89
71 99
72 33
72 39
72 50
72 57
72 61
72 65
72 78
72 81
72 96
72 102
72 103
72 113
73 34
73 52
73 58
73 67
73 70
73 85
73 87
73 92
73 105
74 44
74 48
74 53
74 66
74 76
74 91
74 104
74 106
75 41
75 51
75 56
75 66
75 70
75 85
75 90
75 91
75 97
75 114
75 120
76 38
76 48
76 53
76 57
76 65
76 74
76 78
76 106
76 110
77 40
77 46
77 54
77 55
77 60
77 68
77 84
77 86
77 95
77 98
77 107
78 38
78 50
78 53
78 57
78 65
78 72
78 76
78 81
78 96
78 102
78 110
78 113
78 118
79 37
79 39
79 61
79 69
79 81
79 83
79 101
79 102
79 103
79 109
79 121
80 43
80 52
80 58
80 59
80 71
80 87
80 89
80 99
80 115
80 117
81 39
81 50
81 61
81 65
81 72
81 78
81 79
81 96
81 102
81 103
81 109
81 113
82 47
82 60
82 63
82 84
82 98
82 100
82 122
83 37
83 69
83 79
83 101
83 108
83 109
83 121
84 35
84 36
84 55
84 60
84 63
84 77
84 82
84 95
84 98
84 100
84 122
85 56
85 67
85 70
85 73
85 75
85 87
85 90
85 92
85 97
85 105
85 129
86 46
86 54
86 55
86 62
86 68
86 77
86 93
86 94
86 95
86 107
86 111
86 124
86 127
87 52
87 58
87 67
87 73
87 80
87 85
87 92
87 99
87 105
87 116
87 117
87 128
88 49
88 62
88 64
88 71
88 89
88 93
88 94
88 119
88 126
89 49
89 59
89 64
89 71
89 80
89 88
89 93
89 99
89 115
89 125
89 126
90 51
90 56
90 66
90 70
90 75
90 85
90 91
90 97
90 112
90 114
90 120
91 51
91 66
91 74
91 75
91 90
91 104
91 112
91 114
92 52
92 67
92 70
92 73
92 85
92 87
92 97
92 105
92 116
92 128
92 129
93 62
93 64
93 68
93 86
93 88
93 89
93 94
93 107
93 111
93 119
93 130
94 62
94 68
94 86
94 88
94 93
94 107
94 111
94 119
94 127
94 130
95 54
95 55
95 60
95 77
95 84
95 86
95 98
95 107
95 124
95 131
95 134
96 50
96 57
96 65
96 72
96 78
96 81
96 102
96 110
96 113
96 118
97 56
97 70
97 75
97 85
97 90
97 92
97 105
97 114
97 120
97 129
98 55
98 60
98 63
98 77
98 82
98 84
98 95
98 100
98 122
98 124
98 131
99 58
99 59
99 71
99 80
99 87
99 89
99 115
99 116
99 117
99 125
100 63
100 82
100 84
100 98
100 122
100 132
100 135
101 69
101 79
101 83
101 103
101 108
101 109
101 121
102 61
102 72
102 78
102 79
102 81
102 96
102 103
102 109
102 113
102 118
103 61
103 72
103 79
103 81
103 101
103 102
103 109
103 113
103 121
104 66
104 74
104 91
104 106
104 112
104 114
104 123
105 67
105 73
105 85
105 87
105 92
105 97
105 116
105 128
105 129
106 74
106 76
106 104
106 110
106 118
106 123
106 133
107 68
107 77
107 86
107 93
107 94
107 95
107 111
107 119
107 124
107 127
107 130
107 134
108 69
108 83
108 101
108 121
109 79
109 81
109 83
109 101
109 102
109 103
109 121
110 76
110 78
110 96
110 106
110 113
110 118
110 123
110 133
111 86
111 93
111 94
111 107
111 119
111 127
111 130
112 90
112 91
112 104
112 114
112 120
112 123
113 72
113 78
113 81
113 96
113 102
113 103
113 110
113 118
114 75
114 90
114 91
114 97
114 104
114 112
114 120
115 80
115 89
115 99
115 116
115 117
115 125
115 126
116 87
116 92
116 99
116 105
116 115
116 117
116 128
116 139
117 80
117 87
117 99
117 115
117 116
117 125
118 78
118 96
118 102
118 106
118 110
118 113
118 133
119 88
119 93
119 94
119 107
119 111
119 126
119 127
119 130
120 75
120 90
120 97
120 112
120 114
120 129
120 141
121 79
121 83
121 101
121 103
121 108
121 109
121 136
121 137
122 82
122 84
122 98
122 100
122 131
122 132
122 135
123 104
123 106
123 110
123 112
123 133
123 143
124 86
124 95
124 98
124 107
124 127
124 131
124 134
125 89
125 99
125 115
125 117
125 126
126 88
126 89
126 115
126 119
126 125
126 130
127 86
127 94
127 107
127 111
127 119
127 124
127 130
127 134
128 87
128 92
128 105
128 116
128 129
128 139
128 140
128 145
129 85
129 92
129 97
129 105
129 120
129 128
129 140
129 141
129 145
130 93
130 94
130 107
130 111
130 119
130 126
130 127
131 95
131 98
131 122
131 124
131 132
131 134
131 135
131 146
132 100
132 122
132 131
132 135
133 106
133 110
133 118
133 123
133 143
133 149
134 95
134 107
134 124
134 127
134 131
134 153
134 154
134 155
135 100
135 122
135 131
135 132
135 146
136 121
136 137
136 158
136 167
137 121
137 136
137 138
137 142
137 168
137 169
138 137
138 142
138 157
138 168
138 169
138 172
139 116
139 128
139 145
139 147
139 159
139 161
140 128
140 129
140 141
140 145
140 159
140 164
140 173
141 120
141 129
141 140
141 145
141 152
141 164
141 173
142 137
142 138
142 144
142 157
142 160
142 169
142 172
143 123
143 133
143 144
143 149
143 150
143 160
143 163
143 177
144 142
144 143
144 149
144 157
144 160
144 172
144 174
144 179
145 128
145 129
145 139
145 140
145 141
145 147
145 159
145 173
145 186
146 131
146 135
146 155
146 166
146 171
147 139
147 145
147 159
147 161
147 162
147 176
147 183
148 161
148 162
148 165
148 182
148 184
149 133
149 143
149 144
149 150
149 160
149 174
149 177
150 143
150 149
150 151
150 163
150 175
150 177
151 150
151 152
151 163
151 164
151 175
151 189
152 141
152 151
152 163
152 164
152 190
153 134
153 154
153 155
153 178
153 187
154 134
154 153
154 155
154 156
154 170
154 178
154 187
155 134
155 146
155 153
155 154
155 166
155 171
156 154
156 165
156 170
156 178
156 181
157 138
157 142
157 144
157 160
157 169
157 172
157 174
157 179
157 197
158 136
158 167
158 168
158 180
158 191
159 139
159 140
159 145
159 147
159 161
159 176
159 183
159 185
159 186
160 142
160 143
160 144
160 149
160 157
160 172
160 174
160 179
160 194
160 199
161 139
161 147
161 148
161 159
161 162
161 176
161 182
161 183
161 201
162 147
162 148
162 161
162 165
162 176
162 182
162 184
162 201
162 203
163 143
163 150
163 151
163 152
163 175
163 177
163 189
164 140
164 141
164 151
164 152
164 173
164 188
164 190
164 193
165 148
165 156
165 162
165 170
165 181
165 182
165 184
165 206
166 146
166 155
166 171
166 192
166 198
166 200
167 136
167 158
167 168
167 180
167 191
167 195
167 212
168 137
168 138
168 158
168 167
168 169
168 172
168 180
168 191
168 195
168 196
168 202
169 137
169 138
169 142
169 157
169 168
169 172
169 179
169 180
169 195
169 196
169 197
169 202
170 154
170 156
170 165
170 178
170 181
170 187
170 206
170 207
170 209
171 146
171 155
171 166
171 192
171 198
171 200
171 218
172 138
172 142
172 144
172 157
172 160
172 168
172 169
172 174
172 179
172 195
172 196
172 197
172 199
172 202
173 140
173 141
173 145
173 164
173 185
173 186
173 188
173 193
173 210
174 144
174 149
174 157
174 160
174 172
174 177
174 179
174 194
174 197
174 199
174 205
174 216
175 150
175 151
175 163
175 177
175 189
175 190
175 208
175 213
175 215
176 147
176 159
176 161
176 162
176 182
176 183
176 185
176 201
176 203
176 204
176 219
177 143
177 149
177 150
177 163
177 174
177 175
177 189
177 194
177 205
177 208
177 213
177 223
178 153
178 154
178 156
178 170
178 187
178 207
178 209
178 211
178 220
179 144
179 157
179 160
179 169
179 172
179 174
179 194
179 196
179 197
179 199
179 216
179 226
180 158
180 167
180 168
180 169
180 191
180 195
180 196
180 202
180 212
180 214
180 225
180 233
181 156
181 165
181 170
181 182
181 184
181 203
181 206
181 207
181 222
181 232
182 148
182 161
182 162
182 165
182 176
182 181
182 184
182 201
182 203
182 206
182 224
183 147
183 159
183 161
183 176
183 185
183 186
183 201
183 204
183 219
183 229
184 148
184 162
184 165
184 181
184 182
184 203
184 206
184 207
184 224
184 232
185 159
185 173
185 176
185 183
185 186
185 193
185 204
185 219
185 229
186 145
186 159
186 173
186 183
186 185
186 188
186 193
186 204
186 210
186 228
187 153
187 154
187 170
187 178
187 209
187 211
187 220
187 221
188 164
188 173
188 186
188 190
188 193
188 210
188 217
188 228
189 151
189 163
189 175
189 177
189 190
189 208
189 213
189 215
189 217
189 234
190 152
190 164
190 175
190 188
190 189
190 193
190 210
190 215
190 217
190 235
191 158
191 167
191 168
191 180
191 195
191 212
191 214
192 166
192 171
192 198
192 200
192 218
193 164
193 173
193 185
193 186
193 188
193 190
193 204
193 210
193 228
194 160
194 174
194 177
194 179
194 199
194 205
194 213
194 216
194 223
194 230
195 167
195 168
195 169
195 172
195 180
195 191
195 196
195 197
195 202
195 212
195 225
195 227
195 233
196 168
196 169
196 172
196 179
196 180
196 195
196 197
196 202
196 225
196 226
196 227
197 157
197 169
197 172
197 174
197 179
197 195
197 196
197 199
197 202
197 216
197 226
197 227
197 230
198 166
198 171
198 192
198 200
198 211
198 218
198 221
199 160
199 172
199 174
199 179
199 194
199 197
199 205
199 216
199 223
199 226
199 230
199 243
200 166
200 171
200 192
200 198
200 218
200 221
201 161
201 162
201 176
201 182
201 183
201 203
201 204
201 219
201 224
201 231
202 168
202 169
202 172
202 180
202 195
202 196
202 197
202 212
202 225
202 226
202 227
202 233
202 240
203 162
203 176
203 181
203 182
203 184
203 201
203 206
203 219
203 224
203 231
203 232
203 242
204 176
204 183
204 185
204 186
204 193
204 201
204 219
204 228
204 229
204 246
205 174
205 177
205 194
205 199
205 208
205 213
205 223
205 230
205 239
205 241
206 165
206 170
206 181
206 182
206 184
206 203
206 207
206 222
206 224
206 232
206 242
207 170
207 178
207 181
207 184
207 206
207 209
207 220
207 222
207 232
207 237
208 175
208 177
208 189
208 205
208 213
208 215
208 217
208 223
208 234
208 236
208 239
208 241
208 257
209 170
209 178
209 187
209 207
209 211
209 220
209 222
209 237
209 260
210 173
210 186
210 188
210 190
210 193
210 217
210 228
210 235
210 238
210 244
210 256
211 178
211 187
211 198
211 209
211 220
211 221
211 247
211 251
212 167
212 180
212 191
212 195
212 202
212 214
212 225
212 233
212 248
212 263
213 175
213 177
213 189
213 194
213 205
213 208
213 215
213 223
213 234
213 239
213 241
214 180
214 191
214 212
214 225
214 233
214 248
214 263
215 175
215 189
215 190
215 208
215 213
215 217
215 234
215 235
215 236
215 241
215 257
216 174
216 179
216 194
216 197
216 199
216 223
216 226
216 227
216 230
216 243
216 245
216 249
217 188
217 189
217 190
217 208
217 210
217 215
217 234
217 235
217 236
217 238
217 256
217 258
218 171
218 192
218 198
218 200
218 221
218 252
218 254
218 268
219 176
219 183
219 185
219 201
219 203
219 204
219 224
219 229
219 231
219 250
219 253
219 259
220 178
220 187
220 207
220 209
220 211
220 221
220 222
220 237
220 247
220 251
220 260
220 270
221 187
221 198
221 200
221 211
221 218
221 220
221 247
221 251
221 252
221 268
221 269
222 181
222 206
222 207
222 209
222 220
222 232
222 237
222 260
222 261
222 262
223 177
223 194
223 199
223 205
223 208
223 213
223 216
223 230
223 239
223 241
223 249
224 182
224 184
224 201
224 203
224 206
224 219
224 231
224 232
224 242
224 253
224 255
224 261
225 180
225 195
225 196
225 202
225 212
225 214
225 226
225 227
225 233
225 240
225 245
225 263
225 264
225 265
226 179
226 196
226 197
226 199
226 202
226 216
226 225
226 227
226 230
226 240
226 243
226 245
226 265
226 266
227 195
227 196
227 197
227 202
227 216
227 225
227 226
227 233
227 240
227 243
227 245
227 264
227 265
227 266
228 186
228 188
228 193
228 204
228 210
228 229
228 235
228 238
228 244
228 246
228 256
228 279
229 183
229 185
229 204
229 219
229 228
229 244
229 246
229 250
229 259
229 276
230 194
230 197
230 199
230 205
230 216
230 223
230 226
230 239
230 243
230 245
230 249
230 275
230 277
231 201
231 203
231 219
231 224
231 242
231 250
231 253
231 255
232 181
232 184
232 203
232 206
232 207
232 222
232 224
232 242
232 255
232 261
232 262
232 282
233 180
233 195
233 202
233 212
233 214
233 225
233 227
233 240
233 248
233 263
233 264
233 265
234 189
234 208
234 213
234 215
234 217
234 235
234 236
234 239
234 241
234 257
234 258
234 271
234 273
235 190
235 210
235 215
235 217
235 228
235 234
235 236
235 238
235 244
235 256
235 258
235 273
235 274
235 283
236 208
236 215
236 217
236 234
236 235
236 238
236 241
236 256
236 257
236 258
236 271
236 273
236 283
237 207
237 209
237 220
237 222
237 251
237 260
237 262
237 270
237 284
238 210
238 217
238 228
238 235
238 236
238 244
238 246
238 256
238 258
238 274
238 279
239 205
239 208
239 213
239 223
239 230
239 234
239 241
239 249
239 257
239 271
239 277
239 278
239 281
240 202
240 225
240 226
240 227
240 233
240 245
240 263
240 264
240 265
240 266
240 293
241 205
241 208
241 213
241 215
241 223
241 234
241 236
241 239
241 249
241 257
241 271
241 273
241 278
241 281
242 203
242 206
242 224
242 231
242 232
242 253
242 255
242 261
242 262
242 280
242 282
242 290
242 292
243 199
243 216
243 226
243 227
243 230
243 245
243 249
243 266
243 275
243 277
244 210
244 228
244 229
244 235
244 238
244 246
244 256
244 258
244 274
244 279
244 294
245 216
245 225
245 226
245 227
245 230
245 240
245 243
245 264
245 265
245 266
245 275
245 293
245 297
246 204
246 228
246 229
246 238
246 244
246 250
246 259
246 276
246 279
246 291
246 298
247 211
247 220
247 221
247 251
247 252
247 268
247 269
247 270
247 272
248 212
248 214
248 233
248 263
248 264
248 288
249 216
249 223
249 230
249 239
249 241
249 243
249 275
249 277
249 278
249 281
250 219
250 229
250 231
250 246
250 253
250 255
250 259
250 276
250 285
250 287
250 305
251 211
251 220
251 221
251 237
251 247
251 252
251 260
251 269
251 270
251 272
251 284
251 296
252 218
252 221
252 247
252 251
252 254
252 268
252 269
252 270
252 272
253 219
253 224
253 231
253 242
253 250
253 255
253 261
253 280
253 285
253 287
253 292
254 218
254 252
254 267
254 268
254 269
254 286
254 303
255 224
255 231
255 232
255 242
255 250
255 253
255 261
255 280
255 282
255 285
255 287
255 290
255 292
256 210
256 217
256 228
256 235
256 236
256 238
256 244
256 258
256 273
256 274
256 279
256 283
256 294
256 313
257 208
257 215
257 234
257 236
257 239
257 241
257 258
257 271
257 273
257 278
257 281
257 283
257 289
257 308
258 217
258 234
258 235
258 236
258 238
258 244
258 256
258 257
258 271
258 273
258 274
258 283
258 289
258 294
259 219
259 229
259 246
259 250
259 276
259 279
259 285
259 291
259 298
259 311
260 209
260 220
260 222
260 237
260 251
260 262
260 270
260 284
260 295
260 296
261 222
261 224
261 232
261 242
261 253
261 255
261 262
261 280
261 282
261 290
261 292
261 301
262 222
262 232
262 237
262 242
262 260
262 261
262 280
262 282
262 284
262 290
262 295
262 301
263 212
263 214
263 225
263 233
263 240
263 248
263 264
263 265
263 288
263 299
263 309
264 225
264 227
264 233
264 240
264 245
264 248
264 263
264 265
264 266
264 288
264 293
264 299
264 306
265 225
265 226
265 227
265 233
265 240
265 245
265 263
265 264
265 266
265 275
265 293
265 297
265 299
265 306
266 226
266 227
266 240
266 243
266 245
266 264
266 265
266 275
266 293
266 297
266 306
266 310
267 254
267 268
267 269
267 286
267 303
267 304
268 218
268 221
268 247
268 252
268 254
268 267
268 269
268 272
268 286
268 302
268 303
269 221
269 247
269 251
269 252
269 254
269 267
269 268
269 272
269 302
269 303
269 312
270 220
270 237
270 247
270 251
270 252
270 260
270 272
270 284
270 295
270 296
271 234
271 236
271 239
271 241
271 257
271 258
271 273
271 278
271 281
271 283
271 289
271 308
271 316
271 317
272 247
272 251
272 252
272 268
272 269
272 270
272 284
272 296
272 302
272 312
273 234
273 235
273 236
273 241
273 256
273 257
273 258
273 271
273 274
273 281
273 283
273 289
273 316
273 317
274 235
274 238
274 244
274 256
274 258
274 273
274 279
274 283
274 289
274 294
274 298
274 313
275 230
275 243
275 245
275 249
275 265
275 266
275 277
275 293
275 297
275 300
275 306
275 310
275 314
275 323
276 229
276 246
276 250
276 259
276 279
276 285
276 291
276 298
276 305
276 311
276 318
277 230
277 239
277 243
277 249
277 275
277 278
277 281
277 300
277 307
277 310
277 314
278 239
278 241
278 249
278 257
278 271
278 277
278 281
278 300
278 307
278 308
278 314
279 228
279 238
279 244
279 246
279 256
279 259
279 274
279 276
279 291
279 294
279 298
279 313
279 318
279 328
280 242
280 253
280 255
280 261
280 262
280 282
280 285
280 287
280 290
280 292
280 301
280 315
280 322
281 239
281 241
281 249
281 257
281 271
281 273
281 277
281 278
281 289
281 307
281 308
281 316
282 232
282 242
282 255
282 261
282 262
282 280
282 290
282 292
282 295
282 301
282 315
283 235
283 236
283 256
283 257
283 258
283 271
283 273
283 274
283 289
283 294
283 313
283 317
283 332
283 337
284 237
284 251
284 260
284 262
284 270
284 272
284 295
284 296
284 325
285 250
285 253
285 255
285 259
285 276
285 280
285 287
285 291
285 292
285 305
285 311
285 322
285 330
285 333
286 254
286 267
286 268
286 302
286 303
286 304
286 321
286 326
287 250
287 253
287 255
287 280
287 285
287 290
287 292
287 305
287 315
287 322
287 333
288 248
288 263
288 264
288 299
288 309
288 319
288 320
289 257
289 258
289 271
289 273
289 274
289 281
289 283
289 308
289 313
289 316
289 317
289 332
289 335
289 337
290 242
290 255
290 261
290 262
290 280
290 282
290 287
290 292
290 295
290 301
290 315
290 322
290 336
290 347
291 246
291 259
291 276
291 279
291 285
291 298
291 305
291 311
291 318
291 329
291 330
292 242
292 253
292 255
292 261
292 280
292 282
292 285
292 287
292 290
292 301
292 305
292 315
292 322
292 336
292 346
293 240
293 245
293 264
293 265
293 266
293 275
293 297
293 299
293 306
293 310
293 319
293 320
293 323
293 324
294 244
294 256
294 258
294 274
294 279
294 283
294 298
294 313
294 318
294 328
294 345
294 350
295 260
295 262
295 270
295 282
295 284
295 290
295 296
295 301
295 325
295 331
295 348
295 349
296 251
296 260
296 270
296 272
296 284
296 295
296 312
296 325
297 245
297 265
297 266
297 275
297 293
297 300
297 306
297 310
297 320
297 323
297 324
297 334
298 246
298 259
298 274
298 276
298 279
298 291
298 294
298 311
298 313
298 318
298 328
298 329
298 330
298 352
299 263
299 264
299 265
299 288
299 293
299 306
299 309
299 319
299 320
299 324
299 357
300 275
300 277
300 278
300 297
300 307
300 310
300 314
300 323
300 334
300 338
301 261
301 262
301 280
301 282
301 290
301 292
301 295
301 315
301 331
301 336
301 347
301 348
302 268
302 269
302 272
302 286
302 303
302 304
302 312
302 321
302 326
302 327
302 341
302 342
302 343
303 254
303 267
303 268
303 269
303 286
303 302
303 304
303 321
303 326
303 327
303 341
303 343
303 354
304 267
304 286
304 302
304 303
304 321
304 326
304 343
304 354
305 250
305 276
305 285
305 287
305 291
305 292
305 311
305 322
305 330
305 333
305 344
305 346
305 353
305 363
306 264
306 265
306 266
306 275
306 293
306 297
306 299
306 310
306 319
306 320
306 323
306 324
306 359
306 362
307 277
307 278
307 281
307 300
307 308
307 310
307 314
307 334
307 338
307 339
307 340
308 257
308 271
308 278
308 281
308 289
308 307
308 314
308 316
308 317
308 335
308 338
308 339
308 340
309 263
309 288
309 299
309 319
309 320
309 351
309 357
309 360
310 266
310 275
310 277
310 293
310 297
310 300
310 306
310 307
310 314
310 323
310 324
310 334
310 338
310 362
310 367
311 259
311 276
311 285
311 291
311 298
311 305
311 318
311 329
311 330
311 333
311 344
311 352
311 353
312 269
312 272
312 296
312 302
312 321
312 325
312 327
312 341
312 342
312 358
312 361
312 365
313 256
313 274
313 279
313 283
313 289
313 294
313 298
313 317
313 318
313 328
313 332
313 337
313 345
313 350
314 275
314 277
314 278
314 300
314 307
314 308
314 310
314 323
314 334
314 338
314 339
315 280
315 282
315 287
315 290
315 292
315 301
315 322
315 336
315 346
315 347
315 348
315 355
315 364
316 271
316 273
316 281
316 289
316 308
316 317
316 332
316 335
316 337
316 339
316 340
317 271
317 273
317 283
317 289
317 308
317 313
317 316
317 332
317 335
317 337
317 340
317 345
317 369
318 276
318 279
318 291
318 294
318 298
318 311
318 313
318 328
318 329
318 330
318 350
318 352
318 353
319 288
319 293
319 299
319 306
319 309
319 320
319 324
319 351
319 357
319 359
319 360
320 288
320 293
320 297
320 299
320 306
320 309
320 319
320 323
320 324
320 351
320 357
320 359
320 362
320 370
321 286
321 302
321 303
321 304
321 312
321 326
321 327
321 341
321 342
321 343
321 354
321 365
321 366
322 280
322 285
322 287
322 290
322 292
322 305
322 315
322 333
322 336
322 344
322 346
322 347
322 355
322 363
322 364
323 275
323 293
323 297
323 300
323 306
323 310
323 314
323 320
323 324
323 334
323 338
323 359
323 362
323 367
323 375
324 293
324 297
324 299
324 306
324 310
324 319
324 320
324 323
324 334
324 357
324 359
324 362
324 367
324 370
324 373
325 284
325 295
325 296
325 312
325 331
325 342
325 349
325 356
325 358
325 361
326 286
326 302
326 303
326 304
326 321
326 343
326 354
327 302
327 303
327 312
327 321
327 341
327 342
327 343
327 361
327 365
327 366
328 279
328 294
328 298
328 313
328 318
328 329
328 337
328 345
328 350
328 376
328 377
329 291
329 298
329 311
329 318
329 328
329 330
329 344
329 350
329 352
329 353
330 285
330 291
330 298
330 305
330 311
330 318
330 329
330 333
330 344
330 352
330 353
330 363
331 295
331 301
331 325
331 347
331 348
331 349
331 356
331 358
331 386
332 283
332 289
332 313
332 316
332 317
332 335
332 337
332 340
332 345
332 369
332 371
332 379
332 382
333 285
333 287
333 305
333 311
333 322
333 330
333 336
333 344
333 346
333 353
333 355
333 363
333 364
333 380
333 381
334 297
334 300
334 307
334 310
334 314
334 323
334 324
334 338
334 339
334 362
334 367
334 372
334 375
334 392
335 289
335 308
335 316
335 317
335 332
335 337
335 339
335 340
335 368
335 369
335 379
335 382
336 290
336 292
336 301
336 315
336 322
336 333
336 346
336 347
336 348
336 355
336 363
336 364
336 381
336 385
337 283
337 289
337 313
337 316
337 317
337 328
337 332
337 335
337 345
337 350
337 369
337 371
337 376
338 300
338 307
338 308
338 310
338 314
338 323
338 334
338 339
338 340
338 367
338 368
338 372
338 374
339 307
339 308
339 314
339 316
339 334
339 335
339 338
339 340
339 368
339 372
339 374
339 389
340 307
340 308
340 316
340 317
340 332
340 335
340 338
340 339
340 368
340 374
340 379
340 387
340 389
341 302
341 303
341 312
341 321
341 327
341 342
341 343
341 354
341 361
341 365
341 366
341 384
341 394
342 302
342 312
342 321
342 325
342 327
342 341
342 356
342 358
342 361
342 365
342 366
342 383
342 384
343 302
343 303
343 304
343 321
343 326
343 327
343 341
343 354
343 365
343 366
343 395
344 305
344 311
344 322
344 329
344 330
344 333
344 346
344 352
344 353
344 363
344 380
344 381
344 388
345 294
345 313
345 317
345 328
345 332
345 337
345 350
345 369
345 371
345 376
345 377
346 292
346 305
346 315
346 322
346 333
346 336
346 344
346 347
346 355
346 363
346 364
346 380
346 381
346 385
346 397
347 290
347 301
347 315
347 322
347 331
347 336
347 346
347 348
347 349
347 355
347 364
347 385
347 391
347 393
348 295
348 301
348 315
348 331
348 336
348 347
348 349
348 355
348 356
348 386
348 391
348 393
349 295
349 325
349 331
349 347
349 348
349 356
349 358
349 386
349 393
350 294
350 313
350 318
350 328
350 329
350 337
350 345
350 352
350 371
350 376
350 377
350 390
351 309
351 319
351 320
351 357
351 360
351 370
351 378
351 398
351 401
352 298
352 311
352 318
352 329
352 330
352 344
352 350
352 353
352 377
352 388
352 390
352 405
353 305
353 311
353 318
353 329
353 330
353 333
353 344
353 352
353 363
353 380
353 388
353 390
353 405
353 409
354 303
354 304
354 321
354 326
354 341
354 343
354 366
354 395
355 315
355 322
355 333
355 336
355 346
355 347
355 348
355 363
355 364
355 381
355 385
355 391
355 397
356 325
356 331
356 342
356 348
356 349
356 358
356 361
356 383
356 386
356 393
356 399
356 402
357 299
357 309
357 319
357 320
357 324
357 351
357 359
357 360
357 362
357 370
357 373
357 378
357 396
357 401
357 406
358 312
358 325
358 331
358 342
358 349
358 356
358 361
358 365
358 383
358 384
358 386
358 399
358 402
359 306
359 319
359 320
359 323
359 324
359 357
359 362
359 367
359 370
359 373
359 375
359 396
359 400
359 410
360 309
360 319
360 351
360 357
360 378
360 398
360 401
361 312
361 325
361 327
361 341
361 342
361 356
361 358
361 365
361 366
361 383
361 384
361 402
362 306
362 310
362 320
362 323
362 324
362 334
362 357
362 359
362 367
362 370
362 372
362 373
362 375
362 392
362 396
362 400
362 410
363 305
363 322
363 330
363 333
363 336
363 344
363 346
363 353
363 355
363 364
363 380
363 381
363 388
363 397
363 407
364 315
364 322
364 333
364 336
364 346
364 347
364 355
364 363
364 380
364 381
364 385
364 391
364 397
365 312
365 321
365 327
365 341
365 342
365 343
365 358
365 361
365 366
365 383
365 384
365 394
365 395
366 321
366 327
366 341
366 342
366 343
366 354
366 361
366 365
366 384
366 394
366 395
367 310
367 323
367 324
367 334
367 338
367 359
367 362
367 372
367 373
367 375
367 392
367 400
367 412
368 335
368 338
368 339
368 340
368 372
368 374
368 379
368 382
368 387
368 389
368 403
368 419
368 420
369 317
369 332
369 335
369 337
369 345
369 371
369 376
369 379
369 382
369 387
369 403
369 404
369 428
370 320
370 324
370 351
370 357
370 359
370 362
370 373
370 375
370 378
370 396
370 400
370 401
370 406
370 410
370 427
371 332
371 337
371 345
371 350
371 369
371 376
371 379
371 382
371 403
371 404
371 428
371 431
372 334
372 338
372 339
372 362
372 367
372 368
372 374
372 375
372 389
372 392
372 412
372 413
372 414
373 324
373 357
373 359
373 362
373 367
373 370
373 375
373 392
373 396
373 400
373 406
373 410
373 412
373 427
373 429
374 338
374 339
374 340
374 368
374 372
374 387
374 389
374 392
374 413
374 414
374 419
374 420
374 432
375 323
375 334
375 359
375 362
375 367
375 370
375 372
375 373
375 392
375 400
375 410
375 412
375 413
375 429
375 433
376 328
376 337
376 345
376 350
376 369
376 371
376 377
376 390
376 404
376 408
376 426
376 434
377 328
377 345
377 350
377 352
377 376
377 390
377 404
377 405
377 408
377 426
378 351
378 357
378 360
378 370
378 396
378 398
378 401
378 406
378 430
379 332
379 335
379 340
379 368
379 369
379 371
379 382
379 387
379 389
379 403
379 419
379 420
379 428
379 437
379 438
380 333
380 344
380 346
380 353
380 363
380 364
380 381
380 388
380 397
380 407
380 409
381 333
381 336
381 344
381 346
381 355
381 363
381 364
381 380
381 385
381 388
381 397
381 407
381 422
382 332
382 335
382 368
382 369
382 371
382 379
382 387
382 403
382 404
382 420
382 428
382 438
383 342
383 356
383 358
383 361
383 365
383 384
383 386
383 399
383 402
383 417
383 418
383 421
384 341
384 342
384 358
384 361
384 365
384 366
384 383
384 394
384 399
384 402
384 418
384 421
384 424
384 425
385 336
385 346
385 347
385 355
385 364
385 381
385 391
385 393
385 397
385 407
385 411
385 415
385 422
386 331
386 348
386 349
386 356
386 358
386 383
386 391
386 393
386 399
386 402
386 411
386 415
386 416
386 417
386 418
387 340
387 368
387 369
387 374
387 379
387 382
387 389
387 403
387 419
387 420
387 436
387 437
387 438
388 344
388 352
388 353
388 363
388 380
388 381
388 390
388 405
388 407
388 409
388 439
389 339
389 340
389 368
389 372
389 374
389 379
389 387
389 403
389 414
389 419
389 420
389 432
389 436
389 437
390 350
390 352
390 353
390 376
390 377
390 388
390 405
390 408
390 409
390 426
390 435
391 347
391 348
391 355
391 364
391 385
391 386
391 393
391 397
391 411
391 415
391 416
391 417
391 422
392 334
392 362
392 367
392 372
392 373
392 374
392 375
392 400
392 410
392 412
392 413
392 414
392 429
392 432
392 433
393 347
393 348
393 349
393 356
393 385
393 386
393 391
393 399
393 411
393 415
393 416
393 417
393 447
394 341
394 365
394 366
394 384
394 395
394 421
394 423
394 424
394 425
394 448
395 343
395 354
395 365
395 366
395 394
395 423
395 424
395 425
396 357
396 359
396 362
396 370
396 373
396 378
396 398
396 400
396 401
396 406
396 410
396 427
396 429
396 430
396 441
396 444
397 346
397 355
397 363
397 364
397 380
397 381
397 385
397 391
397 407
397 411
397 422
397 440
398 351
398 360
398 378
398 396
398 401
398 406
398 430
398 441
399 356
399 358
399 383
399 384
399 386
399 393
399 402
399 415
399 416
399 417
399 418
399 421
399 442
399 450
400 359
400 362
400 367
400 370
400 373
400 375
400 392
400 396
400 406
400 410
400 412
400 413
400 427
400 429
400 433
400 444
401 351
401 357
401 360
401 370
401 378
401 396
401 398
401 406
401 430
401 441
402 356
402 358
402 361
402 383
402 384
402 386
402 399
402 417
402 418
402 421
402 424
402 442
402 450
403 368
403 369
403 371
403 379
403 382
403 387
403 389
403 419
403 420
403 428
403 431
403 436
403 437
403 438
404 369
404 371
404 376
404 377
404 382
404 408
404 426
404 428
404 431
404 434
404 443
404 454
405 352
405 353
405 377
405 388
405 390
405 408
405 409
405 426
405 435
405 439
405 453
406 357
406 370
406 373
406 378
406 396
406 398
406 400
406 401
406 410
406 427
406 429
406 430
406 441
406 444
406 458
407 363
407 380
407 381
407 385
407 388
407 397
407 409
407 422
407 439
407 440
407 456
408 376
408 377
408 390
408 404
408 405
408 426
408 434
408 435
408 443
408 453
409 353
409 380
409 388
409 390
409 405
409 407
409 426
409 435
409 439
409 456
410 359
410 362
410 370
410 373
410 375
410 392
410 396
410 400
410 406
410 412
410 427
410 429
410 441
410 444
411 385
411 386
411 391
411 393
411 397
411 415
411 416
411 417
411 422
411 440
411 446
411 447
412 367
412 372
412 373
412 375
412 392
412 400
412 410
412 413
412 414
412 427
412 429
412 432
412 433
412 449
412 451
412 462
413 372
413 374
413 375
413 392
413 400
413 412
413 414
413 419
413 429
413 432
413 433
413 449
413 451
414 372
414 374
414 389
414 392
414 412
414 413
414 419
414 420
414 432
414 433
414 436
414 449
414 451
414 455
415 385
415 386
415 391
415 393
415 399
415 411
415 416
415 417
415 422
415 446
415 447
415 461
415 470
416 386
416 391
416 393
416 399
416 411
416 415
416 417
416 418
416 442
416 446
416 447
416 461
416 470
417 383
417 386
417 391
417 393
417 399
417 402
417 411
417 415
417 416
417 418
417 421
417 442
417 447
417 450
417 461
418 383
418 384
418 386
418 399
418 402
418 416
418 417
418 421
418 424
418 442
418 450
419 368
419 374
419 379
419 387
419 389
419 403
419 413
419 414
419 420
419 432
419 436
419 437
419 438
419 452
419 455
420 368
420 374
420 379
420 382
420 387
420 389
420 403
420 414
420 419
420 432
420 436
420 437
420 438
420 452
420 455
421 383
421 384
421 394
421 399
421 402
421 417
421 418
421 424
421 425
421 442
421 448
421 450
421 463
422 381
422 385
422 391
422 397
422 407
422 411
422 415
422 440
422 446
422 468
423 394
423 395
423 424
423 425
423 445
423 448
423 457
423 459
423 466
424 384
424 394
424 395
424 402
424 418
424 421
424 423
424 425
424 448
424 450
424 459
424 463
425 384
425 394
425 395
425 421
425 423
425 424
425 445
425 448
425 457
425 459
425 463
426 376
426 377
426 390
426 404
426 405
426 408
426 409
426 434
426 435
426 439
426 443
426 453
426 460
426 465
427 370
427 373
427 396
427 400
427 406
427 410
427 412
427 429
427 441
427 444
427 462
427 469
428 369
428 371
428 379
428 382
428 403
428 404
428 431
428 434
428 437
428 438
428 454
429 373
429 375
429 392
429 396
429 400
429 406
429 410
429 412
429 413
429 427
429 433
429 444
429 449
429 462
429 469
430 378
430 396
430 398
430 401
430 406
430 441
430 444
430 458
431 371
431 403
431 404
431 428
431 434
431 438
431 443
431 454
431 460
432 374
432 389
432 392
432 412
432 413
432 414
432 419
432 420
432 433
432 436
432 449
432 451
432 452
432 455
433 375
433 392
433 400
433 412
433 413
433 414
433 429
433 432
433 449
433 451
433 455
433 462
433 469
434 376
434 404
434 408
434 426
434 428
434 431
434 443
434 454
434 460
435 390
435 405
435 408
435 409
435 426
435 439
435 443
435 453
435 465
435 467
436 387
436 389
436 403
436 414
436 419
436 420
436 432
436 437
436 438
436 451
436 452
436 455
437 379
437 387
437 389
437 403
437 419
437 420
437 428
437 436
437 438
437 452
437 455
438 379
438 382
438 387
438 403
438 419
438 420
438 428
438 431
438 436
438 437
438 452
438 454
439 388
439 405
439 407
439 409
439 426
439 435
439 453
439 456
439 464
439 465
439 467
440 397
440 407
440 411
440 422
440 446
440 456
440 464
440 468
441 396
441 398
441 401
441 406
441 410
441 427
441 430
441 444
441 458
442 399
442 402
442 416
442 417
442 418
442 421
442 447
442 450
442 461
442 470
443 404
443 408
443 426
443 431
443 434
443 435
443 453
443 454
443 460
443 465
444 396
444 400
444 406
444 410
444 427
444 429
444 430
444 441
444 458
444 462
444 469
445 423
445 425
445 448
445 457
445 459
445 466
446 411
446 415
446 416
446 422
446 440
446 447
446 461
446 468
446 470
447 393
447 411
447 415
447 416
447 417
447 442
447 446
447 461
447 468
447 470
448 394
448 421
448 423
448 424
448 425
448 445
448 450
448 457
448 459
448 463
449 412
449 413
449 414
449 429
449 432
449 433
449 451
449 455
449 462
449 469
450 399
450 402
450 417
450 418
450 421
450 424
450 442
450 448
450 461
450 463
451 412
451 413
451 414
451 432
451 433
451 436
451 449
451 455
451 462
452 419
452 420
452 432
452 436
452 437
452 438
452 455
453 405
453 408
453 426
453 435
453 439
453 443
453 456
453 460
453 465
453 467
454 404
454 428
454 431
454 434
454 438
454 443
454 460
455 414
455 419
455 420
455 432
455 433
455 436
455 437
455 449
455 451
455 452
456 407
456 409
456 439
456 440
456 453
456 464
456 467
457 423
457 425
457 445
457 448
457 459
457 463
457 466
458 406
458 430
458 441
458 444
459 423
459 424
459 425
459 445
459 448
459 457
459 463
459 466
460 426
460 431
460 434
460 443
460 453
460 454
460 465
461 415
461 416
461 417
461 442
461 446
461 447
461 450
461 468
461 470
462 412
462 427
462 429
462 433
462 444
462 449
462 451
462 469
463 421
463 424
463 425
463 448
463 450
463 457
463 459
464 439
464 440
464 456
464 467
464 468
465 426
465 435
465 439
465 443
465 453
465 460
465 467
466 423
466 445
466 457
466 459
467 435
467 439
467 453
467 456
467 464
467 465
468 422
468 440
468 446
468 447
468 461
468 464
468 470
469 427
469 429
469 433
469 444
469 449
469 462
470 415
470 416
470 442
470 446
470 447
470 461
470 468
