1 10
1 14
1 18
1 27
1 37
2 15
2 23
2 38
3 4
3 8
3 24
3 30
3 42
4 3
4 5
4 24
4 36
5 4
5 13
5 36
5 43
6 7
6 9
6 25
6 45
7 6
7 16
7 25
7 44
7 45
8 3
8 11
8 24
8 30
8 42
9 6
9 25
10 1
10 18
10 19
10 31
10 37
10 50
11 8
11 29
11 30
11 34
11 48
12 17
12 21
12 35
13 5
13 19
13 28
13 43
13 47
14 1
14 18
14 21
14 27
14 37
14 40
15 2
15 20
15 23
15 33
15 38
16 7
16 26
16 41
16 44
17 12
17 26
17 46
18 1
18 10
18 14
18 27
18 37
19 10
19 13
19 28
19 31
19 47
19 52
20 15
20 22
20 33
20 39
20 49
21 12
21 14
21 35
21 40
22 20
22 32
22 39
22 49
23 2
23 15
23 33
23 38
24 3
24 4
24 8
24 30
24 36
24 42
25 6
25 7
25 9
25 45
25 54
26 16
26 17
26 41
26 46
26 55
27 1
27 14
27 18
27 37
27 40
28 13
28 19
28 31
28 43
28 47
28 52
29 11
29 30
29 34
29 48
29 51
29 63
29 65
30 3
30 8
30 11
30 24
30 29
30 42
30 48
31 10
31 19
31 28
31 37
31 50
31 52
31 59
31 66
32 22
32 34
32 39
32 49
32 51
32 57
33 15
33 20
33 23
33 49
33 53
34 11
34 29
34 32
34 48
34 51
34 57
34 65
35 12
35 21
35 40
35 61
35 68
36 4
36 5
36 24
36 43
36 56
36 60
37 1
37 10
37 14
37 18
37 27
37 31
37 50
37 59
38 2
38 15
38 23
38 53
39 20
39 22
39 32
39 49
39 51
39 57
39 71
40 14
40 21
40 27
40 35
40 69
41 16
41 26
41 44
41 46
41 55
41 58
41 72
42 3
42 8
42 24
42 30
42 56
42 64
43 5
43 13
43 28
43 36
43 47
43 56
43 60
44 7
44 16
44 41
44 45
44 54
44 58
44 77
45 6
45 7
45 25
45 44
45 54
45 58
45 62
45 77
46 17
46 26
46 41
46 55
46 61
46 72
46 76
47 13
47 19
47 28
47 43
47 52
47 60
47 67
48 11
48 29
48 30
48 34
48 51
48 63
48 65
49 20
49 22
49 32
49 33
49 39
49 53
49 57
49 71
49 74
49 79
50 10
50 31
50 37
50 52
50 59
50 66
50 67
50 78
51 29
51 32
51 34
51 39
51 48
51 57
51 65
51 71
52 19
52 28
52 31
52 47
52 50
52 66
52 67
52 86
53 33
53 38
53 49
53 70
53 74
53 81
54 25
54 44
54 45
54 58
54 62
54 77
54 82
55 26
55 41
55 46
55 58
55 72
55 76
56 36
56 42
56 43
56 60
56 64
56 83
56 94
57 32
57 34
57 39
57 49
57 51
57 71
57 79
57 89
58 41
58 44
58 45
58 54
58 55
58 72
58 77
58 88
59 31
59 37
59 50
59 66
59 78
59 80
60 36
60 43
60 47
60 56
60 67
60 94
61 35
61 46
61 68
61 73
61 76
61 92
61 96
61 98
62 45
62 54
62 77
62 82
62 84
62 103
63 29
63 48
63 64
63 65
63 90
63 91
64 42
64 56
64 63
64 83
64 95
65 29
65 34
65 48
65 51
65 63
65 71
65 90
65 91
65 93
66 31
66 50
66 52
66 59
66 67
66 78
66 86
66 100
67 47
67 50
67 52
67 60
67 66
67 78
67 86
67 101
67 104
68 35
68 61
68 69
68 73
68 85
68 92
69 40
69 68
69 73
69 80
69 85
69 92
69 105
70 53
70 74
70 75
70 81
70 87
71 39
71 49
71 51
71 57
71 65
71 79
71 89
71 93
72 41
72 46
72 55
72 58
72 76
72 97
72 98
72 99
73 61
73 68
73 69
73 76
73 92
73 96
73 98
73 110
74 49
74 53
74 70
74 79
74 81
74 87
75 70
75 81
75 87
76 46
76 55
76 61
76 72
76 73
76 96
76 97
76 98
77 44
77 45
77 54
77 58
77 62
77 82
77 88
77 103
77 108
78 50
78 59
78 66
78 67
78 80
78 86
78 100
78 102
79 49
79 57
79 71
79 74
79 89
80 59
80 69
80 78
80 85
80 102
80 105
80 109
81 53
81 70
81 74
81 75
81 87
82 54
82 62
82 77
82 84
82 88
82 103
82 111
83 56
83 64
83 94
83 95
83 107
83 112
84 62
84 82
84 103
84 111
85 68
85 69
85 80
85 92
85 105
85 114
86 52
86 66
86 67
86 78
86 100
86 101
86 104
86 106
87 70
87 74
87 75
87 81
87 117
88 58
88 77
88 82
88 99
88 103
88 108
88 113
89 57
89 71
89 79
89 93
90 63
90 65
90 91
90 95
91 63
91 65
91 90
91 93
92 61
92 68
92 69
92 73
92 85
92 96
92 110
92 114
92 115
93 65
93 71
93 89
93 91
94 56
94 60
94 83
94 101
94 107
94 116
95 64
95 83
95 90
95 107
95 112
96 61
96 73
96 76
96 92
96 97
96 98
96 110
96 115
97 72
97 76
97 96
97 98
97 99
97 113
97 119
98 61
98 72
98 73
98 76
98 96
98 97
98 99
98 110
98 119
98 121
99 72
99 88
99 97
99 98
99 108
99 113
99 119
100 66
100 78
100 86
100 102
100 106
100 109
101 67
101 86
101 94
101 104
101 106
101 116
102 78
102 80
102 100
102 109
102 118
103 62
103 77
103 82
103 84
103 88
103 108
103 111
103 120
103 126
104 67
104 86
104 101
104 106
104 116
105 69
105 80
105 85
105 109
105 114
105 118
106 86
106 100
106 101
106 104
107 83
107 94
107 95
107 112
107 116
108 77
108 88
108 99
108 103
108 113
108 125
108 126
109 80
109 100
109 102
109 105
109 118
110 73
110 92
110 96
110 98
110 114
110 115
110 121
111 82
111 84
111 103
111 120
111 130
112 83
112 95
112 107
112 133
113 88
113 97
113 99
113 108
113 119
113 125
114 85
114 92
114 105
114 110
114 115
114 118
115 92
115 96
115 110
115 114
116 94
116 101
116 104
116 107
116 132
117 87
117 127
117 128
118 102
118 105
118 109
118 114
118 135
119 97
119 98
119 99
119 113
119 121
119 125
120 103
120 111
120 126
120 130
121 98
121 110
121 119
122 128
122 129
122 152
123 124
123 131
123 139
124 123
124 129
124 148
125 108
125 113
125 119
125 126
125 146
126 103
126 108
126 120
126 125
126 130
126 146
126 153
127 117
127 128
127 142
127 143
128 117
128 122
128 127
128 142
128 143
129 122
129 124
129 152
129 157
130 111
130 120
130 126
130 153
131 123
131 133
131 139
132 116
132 134
132 137
132 147
132 151
133 112
133 131
133 134
133 145
134 132
134 133
134 145
134 147
134 165
135 118
135 136
135 138
135 141
135 158
135 171
136 135
136 138
136 140
136 156
136 175
137 132
137 140
137 147
137 151
137 169
138 135
138 136
138 156
138 176
139 123
139 131
139 148
139 163
139 166
140 136
140 137
140 151
140 156
140 169
141 135
141 144
141 158
141 164
141 178
142 127
142 128
142 143
142 160
142 161
143 127
143 128
143 142
143 152
143 160
143 161
144 141
144 149
144 154
144 164
144 170
145 133
145 134
145 165
145 168
146 125
146 126
146 153
146 155
146 173
147 132
147 134
147 137
147 151
147 165
147 169
147 182
148 124
148 139
148 157
148 159
148 162
148 163
148 183
149 144
149 150
149 154
149 170
149 174
149 179
150 149
150 155
150 174
150 179
151 132
151 137
151 140
151 147
151 156
151 169
151 180
152 122
152 129
152 143
152 157
152 161
152 167
152 181
153 126
153 130
153 146
153 172
153 173
153 177
154 144
154 149
154 164
154 170
154 174
155 146
155 150
155 179
156 136
156 138
156 140
156 151
156 175
156 176
156 180
157 129
157 148
157 152
157 159
157 162
157 167
158 135
158 141
158 164
158 171
158 178
158 186
159 148
159 157
159 162
159 163
159 167
159 183
159 195
160 142
160 143
160 161
160 184
161 142
161 143
161 152
161 160
161 181
161 184
162 148
162 157
162 159
162 163
162 183
162 195
163 139
163 148
163 159
163 162
163 166
163 183
164 141
164 144
164 154
164 158
164 170
164 178
164 202
164 204
165 134
165 145
165 147
165 182
165 187
165 188
165 203
166 139
166 163
166 168
166 183
166 191
167 152
167 157
167 159
167 181
167 185
168 145
168 166
168 187
168 191
168 198
168 209
169 137
169 140
169 147
169 151
169 180
169 182
169 188
169 194
170 144
170 149
170 154
170 164
170 174
170 200
170 201
170 202
171 135
171 158
171 176
171 178
171 186
171 197
171 205
172 153
172 177
172 189
172 190
173 146
173 153
173 177
173 190
173 196
174 149
174 150
174 154
174 170
174 179
174 200
174 201
175 136
175 156
175 176
175 180
175 193
175 197
176 138
176 156
176 171
176 175
176 186
176 197
176 205
177 153
177 172
177 173
177 189
177 190
178 141
178 158
178 164
178 171
178 186
178 202
178 204
179 149
179 150
179 155
179 174
179 192
179 201
180 151
180 156
180 169
180 175
180 182
180 193
180 194
180 212
181 152
181 161
181 167
181 184
181 185
181 207
181 220
182 147
182 165
182 169
182 180
182 188
182 194
182 203
182 208
183 148
183 159
183 162
183 163
183 166
183 191
183 195
183 211
183 213
183 215
184 160
184 161
184 181
184 199
184 206
184 207
184 210
185 167
185 181
185 195
185 207
185 214
185 220
186 158
186 171
186 176
186 178
186 202
186 204
186 205
186 221
187 165
187 168
187 188
187 191
187 198
187 203
187 209
187 233
188 165
188 169
188 182
188 187
188 203
188 208
188 232
189 172
189 177
189 190
189 222
189 234
190 172
190 173
190 177
190 189
190 217
190 218
190 222
191 166
191 168
191 183
191 187
191 198
191 209
191 211
191 216
191 236
192 179
192 196
192 201
192 224
192 225
192 238
193 175
193 180
193 194
193 197
193 205
193 212
193 228
194 169
194 180
194 182
194 193
194 212
194 223
195 159
195 162
195 183
195 185
195 213
195 214
195 215
195 229
196 173
196 192
196 217
196 218
196 224
197 171
197 175
197 176
197 193
197 205
197 228
197 231
198 168
198 187
198 191
198 203
198 209
198 216
198 233
198 241
199 184
199 206
199 210
199 227
200 170
200 174
200 201
200 202
200 219
200 226
200 230
201 170
201 174
201 179
201 192
201 200
201 219
201 225
201 226
201 230
202 164
202 170
202 178
202 186
202 200
202 204
202 219
202 221
202 226
202 235
202 239
203 165
203 182
203 187
203 188
203 198
203 208
203 209
203 232
203 233
204 164
204 178
204 186
204 202
204 219
204 221
204 235
204 239
205 171
205 176
205 186
205 193
205 197
205 228
205 231
205 240
205 251
206 184
206 199
206 210
206 227
206 242
206 249
207 181
207 184
207 185
207 210
207 220
207 237
208 182
208 188
208 203
208 223
208 232
208 233
208 245
208 246
209 168
209 187
209 191
209 198
209 203
209 216
209 233
209 241
209 257
210 184
210 199
210 206
210 207
210 227
210 242
210 249
211 183
211 191
211 213
211 215
211 216
211 229
211 236
211 253
212 180
212 193
212 194
212 223
212 243
212 245
213 183
213 195
213 211
213 215
213 229
213 236
213 248
213 253
214 185
214 195
214 215
214 220
214 237
214 248
215 183
215 195
215 211
215 213
215 214
215 229
215 248
215 253
216 191
216 198
216 209
216 211
216 236
216 241
216 254
216 257
217 190
217 196
217 218
217 222
217 244
217 247
217 256
218 190
218 196
218 217
218 222
218 224
218 247
218 256
219 200
219 201
219 202
219 204
219 226
219 230
219 235
219 239
219 250
219 260
220 181
220 185
220 207
220 214
220 237
220 258
221 186
221 202
221 204
221 231
221 235
221 239
221 240
222 189
222 190
222 217
222 218
222 234
222 244
222 255
222 256
223 194
223 208
223 212
223 232
223 243
223 245
223 246
224 192
224 196
224 218
224 225
224 238
224 247
224 259
224 265
225 192
225 201
225 224
225 226
225 230
225 238
225 250
225 259
225 270
226 200
226 201
226 202
226 219
226 225
226 230
226 239
226 250
226 260
226 270
226 275
227 199
227 206
227 210
227 242
227 249
228 193
228 197
228 205
228 231
228 240
228 251
228 252
228 272
229 195
229 211
229 213
229 215
229 236
229 248
229 253
229 261
229 267
230 200
230 201
230 219
230 225
230 226
230 238
230 250
230 259
230 270
231 197
231 205
231 221
231 228
231 240
231 251
231 276
232 188
232 203
232 208
232 223
232 233
232 241
232 245
232 246
232 273
233 187
233 198
233 203
233 208
233 209
233 232
233 241
233 257
233 271
234 189
234 222
234 244
234 255
235 202
235 204
235 219
235 221
235 239
235 240
235 260
235 266
236 191
236 211
236 213
236 216
236 229
236 253
236 254
236 261
237 207
237 214
237 220
237 258
237 264
237 280
238 192
238 224
238 225
238 230
238 247
238 259
238 265
239 202
239 204
239 219
239 221
239 226
239 235
239 250
239 260
239 266
240 205
240 221
240 228
240 231
240 235
240 251
240 276
240 277
241 198
241 209
241 216
241 232
241 233
241 254
241 257
241 271
242 206
242 210
242 227
242 249
242 262
242 282
243 212
243 223
243 245
243 246
243 252
243 269
243 274
243 278
244 217
244 222
244 234
244 255
244 256
244 263
244 268
244 281
245 208
245 212
245 223
245 232
245 243
245 246
245 274
245 278
246 208
246 223
246 232
246 243
246 245
246 273
246 274
247 217
247 218
247 224
247 238
247 256
247 263
247 265
247 283
248 213
248 214
248 215
248 229
248 253
248 258
248 264
248 267
248 284
249 206
249 210
249 227
249 242
249 262
249 282
250 219
250 225
250 226
250 230
250 239
250 259
250 260
250 270
250 275
251 205
251 228
251 231
251 240
251 252
251 269
251 272
251 276
252 228
252 243
252 251
252 269
252 272
252 278
253 211
253 213
253 215
253 229
253 236
253 248
253 254
253 261
253 267
253 286
254 216
254 236
254 241
254 253
254 257
254 261
254 279
255 222
255 234
255 244
255 256
255 268
255 281
255 290
256 217
256 218
256 222
256 244
256 247
256 255
256 263
256 268
256 281
256 291
257 209
257 216
257 233
257 241
257 254
257 261
257 271
257 279
258 220
258 237
258 248
258 264
258 280
258 284
258 288
258 289
259 224
259 225
259 230
259 238
259 250
259 265
259 270
259 292
260 219
260 226
260 235
260 239
260 250
260 266
260 275
260 285
261 229
261 236
261 253
261 254
261 257
261 267
261 279
261 286
261 297
262 242
262 249
262 280
262 282
262 287
262 288
262 301
263 244
263 247
263 256
263 265
263 268
263 283
263 291
263 293
263 308
264 237
264 248
264 258
264 267
264 280
264 284
264 289
264 310
265 224
265 238
265 247
265 259
265 263
265 283
265 292
265 307
265 308
266 235
266 239
266 260
266 277
266 285
266 305
266 306
267 229
267 248
267 253
267 261
267 264
267 284
267 286
268 244
268 255
268 256
268 263
268 281
268 290
268 291
268 293
269 243
269 251
269 252
269 272
269 278
269 300
269 302
269 315
270 225
270 226
270 230
270 250
270 259
270 275
270 292
270 294
270 309
271 233
271 241
271 257
271 273
271 295
271 299
271 303
272 228
272 251
272 252
272 269
272 276
272 300
272 315
273 232
273 246
273 271
273 274
273 295
273 299
273 311
274 243
274 245
274 246
274 273
274 278
274 298
274 299
274 311
275 226
275 250
275 260
275 270
275 285
275 294
275 304
276 231
276 240
276 251
276 272
276 277
276 300
276 306
276 320
277 240
277 266
277 276
277 285
277 305
277 306
278 243
278 245
278 252
278 269
278 274
278 298
278 302
278 312
279 254
279 257
279 261
279 297
279 303
279 318
280 237
280 258
280 262
280 264
280 284
280 287
280 288
280 289
280 301
280 317
280 319
281 244
281 255
281 256
281 268
281 290
281 291
281 313
282 242
282 249
282 262
282 287
282 296
282 314
283 247
283 263
283 265
283 292
283 293
283 307
283 308
284 248
284 258
284 264
284 267
284 280
284 288
284 289
284 310
284 319
284 321
285 260
285 266
285 275
285 277
285 304
285 305
285 306
285 324
286 253
286 261
286 267
286 297
286 316
286 321
286 323
287 262
287 280
287 282
287 288
287 296
287 301
287 314
287 317
287 342
288 258
288 262
288 280
288 284
288 287
288 289
288 301
288 314
288 317
288 319
289 258
289 264
289 280
289 284
289 288
289 301
289 310
289 317
289 319
290 255
290 268
290 281
290 291
290 313
290 328
290 336
291 256
291 263
291 268
291 281
291 290
291 293
291 313
291 325
291 326
291 336
292 259
292 265
292 270
292 283
292 294
292 307
292 308
292 309
292 337
292 339
293 263
293 268
293 283
293 291
293 307
293 308
293 325
293 326
294 270
294 275
294 292
294 304
294 309
294 337
294 338
295 271
295 273
295 299
295 303
295 322
295 327
295 330
296 282
296 287
296 301
296 314
296 341
297 261
297 279
297 286
297 303
297 316
297 318
297 322
298 274
298 278
298 299
298 302
298 311
298 312
298 329
298 331
298 334
299 271
299 273
299 274
299 295
299 298
299 311
299 330
299 334
300 269
300 272
300 276
300 302
300 315
300 320
300 332
300 333
300 340
301 262
301 280
301 287
301 288
301 289
301 296
301 314
301 317
301 319
301 342
301 344
302 269
302 278
302 298
302 300
302 312
302 315
302 329
302 340
303 271
303 279
303 295
303 297
303 318
303 322
303 327
304 275
304 285
304 294
304 305
304 335
304 338
304 343
305 266
305 277
305 285
305 304
305 306
305 324
305 335
305 343
306 266
306 276
306 277
306 285
306 305
306 320
306 324
306 332
306 335
307 265
307 283
307 292
307 293
307 308
307 309
307 326
307 337
307 339
308 263
308 265
308 283
308 292
308 293
308 307
308 326
308 339
309 270
309 292
309 294
309 307
309 337
309 338
309 339
310 264
310 284
310 289
310 319
310 321
310 345
311 273
311 274
311 298
311 299
311 312
311 330
311 331
311 334
312 278
312 298
312 302
312 311
312 315
312 329
312 331
313 281
313 290
313 291
313 328
313 336
314 282
314 287
314 288
314 296
314 301
314 317
314 341
314 342
314 344
315 269
315 272
315 300
315 302
315 312
315 320
315 329
315 333
315 340
316 286
316 297
316 318
316 322
316 323
316 348
316 349
317 280
317 287
317 288
317 289
317 301
317 314
317 319
317 342
317 344
318 279
318 297
318 303
318 316
318 322
318 323
318 348
318 349
319 280
319 284
319 288
319 289
319 301
319 310
319 317
319 321
319 344
319 345
319 350
320 276
320 300
320 306
320 315
320 324
320 332
320 333
321 284
321 286
321 310
321 319
321 323
321 345
321 346
322 295
322 297
322 303
322 316
322 318
322 327
322 348
322 367
323 286
323 316
323 318
323 321
323 346
323 348
323 349
324 285
324 305
324 306
324 320
324 332
324 335
324 359
325 291
325 293
325 326
325 336
325 347
326 291
326 293
326 307
326 308
326 325
326 339
326 347
326 354
327 295
327 303
327 322
327 330
327 351
327 367
328 290
328 313
328 336
328 353
328 369
329 298
329 302
329 312
329 315
329 331
329 340
329 352
329 358
330 295
330 299
330 311
330 327
330 334
330 351
330 368
331 298
331 311
331 312
331 329
331 334
331 352
331 370
332 300
332 306
332 320
332 324
332 333
332 340
332 359
332 362
333 300
333 315
333 320
333 332
333 340
333 357
333 362
334 298
334 299
334 311
334 330
334 331
334 351
334 368
334 370
335 304
335 305
335 306
335 324
335 343
335 359
335 365
335 376
335 378
336 290
336 291
336 313
336 325
336 328
336 353
336 369
336 373
337 292
337 294
337 307
337 309
337 338
337 339
337 355
337 360
337 363
338 294
338 304
338 309
338 337
338 343
338 363
338 364
339 292
339 307
339 308
339 309
339 326
339 337
339 347
339 354
339 355
339 360
340 300
340 302
340 315
340 329
340 332
340 333
340 352
340 357
340 358
340 362
341 296
341 314
341 342
341 356
342 287
342 301
342 314
342 317
342 341
342 344
342 356
342 361
343 304
343 305
343 335
343 338
343 364
343 365
344 301
344 314
344 317
344 319
344 342
344 350
344 356
344 361
344 371
345 310
345 319
345 321
345 346
345 350
345 371
345 372
345 375
345 390
346 321
346 323
346 345
346 349
346 372
346 375
346 381
347 325
347 326
347 339
347 354
347 355
347 373
347 374
347 389
347 392
348 316
348 318
348 322
348 323
348 349
348 366
348 367
348 372
348 381
348 386
349 316
349 318
349 323
349 346
349 348
349 366
349 372
349 381
350 319
350 344
350 345
350 361
350 371
350 375
350 390
350 398
351 327
351 330
351 334
351 367
351 368
351 377
351 380
352 329
352 331
352 340
352 357
352 358
352 370
352 379
352 384
352 387
352 400
353 328
353 336
353 369
353 382
353 388
354 326
354 339
354 347
354 355
354 360
354 374
354 392
354 393
355 337
355 339
355 347
355 354
355 360
355 363
355 374
355 385
355 392
355 393
356 341
356 342
356 344
356 361
356 391
357 333
357 340
357 352
357 358
357 362
357 379
357 383
357 384
357 403
358 329
358 340
358 352
358 357
358 379
358 383
358 384
358 387
358 400
359 324
359 332
359 335
359 362
359 365
359 376
359 378
359 394
360 337
360 339
360 354
360 355
360 363
360 385
360 393
361 342
361 344
361 350
361 356
361 371
361 391
361 396
361 398
362 332
362 333
362 340
362 357
362 359
362 376
362 383
362 384
362 394
362 403
363 337
363 338
363 355
363 360
363 364
363 385
363 395
364 338
364 343
364 363
364 365
364 378
364 395
365 335
365 343
365 359
365 364
365 376
365 378
365 397
366 348
366 349
366 367
366 377
366 381
366 386
366 399
367 322
367 327
367 348
367 351
367 366
367 377
367 380
367 386
367 402
368 330
368 334
368 351
368 370
368 377
368 380
368 404
368 407
368 408
369 328
369 336
369 353
369 373
369 382
369 388
369 389
369 411
370 331
370 334
370 352
370 368
370 379
370 387
370 406
370 407
370 408
371 344
371 345
371 350
371 361
371 375
371 390
371 396
371 398
372 345
372 346
372 348
372 349
372 375
372 381
372 399
372 401
372 405
373 336
373 347
373 369
373 374
373 388
373 389
373 412
374 347
374 354
374 355
374 373
374 389
374 392
374 416
375 345
375 346
375 350
375 371
375 372
375 390
375 398
375 401
375 410
376 335
376 359
376 362
376 365
376 378
376 394
376 397
376 417
377 351
377 366
377 367
377 368
377 380
377 386
377 402
377 404
377 429
378 335
378 359
378 364
378 365
378 376
378 394
378 397
378 414
378 417
379 352
379 357
379 358
379 370
379 384
379 387
379 400
379 406
379 407
379 413
380 351
380 367
380 368
380 377
380 402
380 404
380 408
380 429
381 346
381 348
381 349
381 366
381 372
381 386
381 399
381 401
381 405
382 353
382 369
382 388
382 411
382 415
383 357
383 358
383 362
383 384
383 394
383 400
383 403
383 413
383 421
384 352
384 357
384 358
384 362
384 379
384 383
384 400
384 403
384 413
384 421
385 355
385 360
385 363
385 392
385 393
385 395
385 424
385 425
385 427
386 348
386 366
386 367
386 377
386 381
386 399
386 402
386 422
386 431
387 352
387 358
387 370
387 379
387 400
387 406
387 407
387 408
387 434
388 353
388 369
388 373
388 382
388 389
388 411
388 412
388 415
389 347
389 369
389 373
389 374
389 388
389 392
389 411
389 412
389 416
390 345
390 350
390 371
390 375
390 398
390 401
390 410
390 426
390 440
391 356
391 361
391 396
391 409
391 423
391 428
391 433
392 347
392 354
392 355
392 374
392 385
392 389
392 393
392 416
392 419
392 424
393 354
393 355
393 360
393 385
393 392
393 416
393 419
393 424
393 427
393 437
394 359
394 362
394 376
394 378
394 383
394 403
394 417
394 418
394 421
395 363
395 364
395 385
395 420
395 425
395 427
395 441
396 361
396 371
396 391
396 398
396 409
396 426
396 428
396 433
397 365
397 376
397 378
397 414
397 417
397 420
397 436
398 350
398 361
398 371
398 375
398 390
398 396
398 410
398 426
398 428
398 440
399 366
399 372
399 381
399 386
399 401
399 405
399 422
399 431
399 432
400 352
400 358
400 379
400 383
400 384
400 387
400 403
400 406
400 413
400 435
400 438
401 372
401 375
401 381
401 390
401 399
401 405
401 410
401 432
401 439
402 367
402 377
402 380
402 386
402 404
402 422
402 429
402 442
402 444
403 357
403 362
403 383
403 384
403 394
403 400
403 413
403 418
403 421
403 438
404 368
404 377
404 380
404 402
404 408
404 429
404 430
404 442
404 444
405 372
405 381
405 399
405 401
405 422
405 431
405 432
405 439
406 370
406 379
406 387
406 400
406 407
406 408
406 413
406 430
406 434
406 435
406 449
407 368
407 370
407 379
407 387
407 406
407 408
407 430
407 434
407 449
407 453
408 368
408 370
408 380
408 387
408 404
408 406
408 407
408 429
408 430
408 434
408 444
408 453
409 391
409 396
409 423
409 428
409 433
409 445
409 459
410 375
410 390
410 398
410 401
410 426
410 439
410 440
410 452
411 369
411 382
411 388
411 389
411 412
411 415
411 450
411 454
412 373
412 388
412 389
412 411
412 416
412 443
412 446
412 450
413 379
413 383
413 384
413 400
413 403
413 406
413 421
413 435
413 438
413 456
414 378
414 397
414 417
414 420
414 436
414 441
414 451
414 455
415 382
415 388
415 411
415 454
416 374
416 389
416 392
416 393
416 412
416 419
416 424
416 443
416 446
416 447
417 376
417 378
417 394
417 397
417 414
417 418
417 436
417 448
417 451
417 455
418 394
418 403
418 417
418 421
418 436
418 448
418 451
418 463
419 392
419 393
419 416
419 424
419 427
419 437
419 443
419 446
419 447
419 457
420 395
420 397
420 414
420 425
420 436
420 441
420 455
420 460
420 461
421 383
421 384
421 394
421 403
421 413
421 418
421 438
421 448
421 456
421 463
422 386
422 399
422 402
422 405
422 431
422 432
422 442
422 464
423 391
423 409
423 428
423 433
423 445
423 459
424 385
424 392
424 393
424 416
424 419
424 425
424 427
424 437
424 447
424 457
424 462
425 385
425 395
425 420
425 424
425 427
425 437
425 441
425 460
425 461
425 462
426 390
426 396
426 398
426 410
426 428
426 440
426 452
426 458
426 465
426 466
427 385
427 393
427 395
427 419
427 424
427 425
427 437
427 441
427 447
427 457
427 460
427 462
428 391
428 396
428 398
428 409
428 423
428 426
428 433
428 440
428 445
428 458
428 459
428 465
429 377
429 380
429 402
429 404
429 408
429 430
429 442
429 444
429 467
430 404
430 406
430 407
430 408
430 429
430 434
430 444
430 449
430 453
430 467
431 386
431 399
431 405
431 422
431 432
431 442
431 464
431 468
431 472
432 399
432 401
432 405
432 422
432 431
432 439
432 468
432 469
433 391
433 396
433 409
433 423
433 428
433 445
433 458
433 459
434 387
434 406
434 407
434 408
434 430
434 435
434 449
434 453
434 473
435 400
435 406
435 413
435 434
435 438
435 449
435 456
435 473
435 474
436 397
436 414
436 417
436 418
436 420
436 448
436 451
436 455
436 478
437 393
437 419
437 424
437 425
437 427
437 441
437 447
437 457
437 460
437 462
437 479
438 400
438 403
438 413
438 421
438 435
438 456
438 463
438 474
439 401
439 405
439 410
439 432
439 452
439 466
439 468
439 469
440 390
440 398
440 410
440 426
440 428
440 452
440 458
440 465
440 466
440 481
441 395
441 414
441 420
441 425
441 427
441 437
441 455
441 460
441 461
441 477
442 402
442 404
442 422
442 429
442 431
442 444
442 464
442 467
442 476
442 480
443 412
443 416
443 419
443 446
443 447
443 457
443 471
444 402
444 404
444 408
444 429
444 430
444 442
444 453
444 467
444 480
445 409
445 423
445 428
445 433
445 458
445 459
446 412
446 416
446 419
446 443
446 450
446 471
447 416
447 419
447 424
447 427
447 437
447 443
447 457
447 462
447 471
447 479
448 417
448 418
448 421
448 436
448 451
448 463
448 475
448 478
449 406
449 407
449 430
449 434
449 435
449 453
449 473
449 474
450 411
450 412
450 446
450 454
450 470
451 414
451 417
451 418
451 436
451 448
451 455
451 463
451 475
451 478
452 410
452 426
452 439
452 440
452 465
452 466
452 469
452 481
453 407
453 408
453 430
453 434
453 444
453 449
453 467
453 473
454 411
454 415
454 450
454 470
455 414
455 417
455 420
455 436
455 441
455 451
455 461
455 477
455 478
456 413
456 421
456 435
456 438
456 463
456 474
456 475
457 419
457 424
457 427
457 437
457 443
457 447
457 462
457 471
457 479
458 426
458 428
458 433
458 440
458 445
458 459
458 465
458 481
459 409
459 423
459 428
459 433
459 445
459 458
459 465
460 420
460 425
460 427
460 437
460 441
460 461
460 462
460 477
461 420
461 425
461 441
461 455
461 460
461 477
462 424
462 425
462 427
462 437
462 447
462 457
462 460
462 471
462 477
462 479
463 418
463 421
463 438
463 448
463 451
463 456
463 475
464 422
464 431
464 442
464 468
464 472
464 476
464 480
465 426
465 428
465 440
465 452
465 458
465 459
465 466
465 481
466 426
466 439
466 440
466 452
466 465
466 469
466 481
467 429
467 430
467 442
467 444
467 453
467 476
467 480
468 431
468 432
468 439
468 464
468 469
468 472
469 432
469 439
469 452
469 466
469 468
470 450
470 454
471 443
471 446
471 447
471 457
471 462
471 479
472 431
472 464
472 468
472 476
472 480
473 434
473 435
473 449
473 453
473 474
474 435
474 438
474 449
474 456
474 473
475 448
475 451
475 456
475 463
475 478
476 442
476 464
476 467
476 472
476 480
477 441
477 455
477 460
477 461
477 462
478 436
478 448
478 451
478 455
478 475
479 437
479 447
479 457
479 462
479 471
480 442
480 444
480 464
480 467
480 472
480 476
481 440
481 452
481 458
481 465
481 466
