1 10
1 14
1 18
1 27
1 31
1 37
2 15
2 23
2 33
2 38
3 4
3 5
3 8
3 24
3 30
3 36
3 42
4 3
4 5
4 8
4 13
4 24
4 36
4 42
4 43
5 3
5 4
5 13
5 24
5 28
5 36
5 43
6 7
6 9
6 25
6 44
6 45
6 54
7 6
7 9
7 16
7 25
7 41
7 44
7 45
8 3
8 4
8 11
8 24
8 29
8 30
8 42
8 48
9 6
9 7
9 25
9 45
9 54
10 1
10 18
10 19
10 27
10 31
10 37
10 50
11 8
11 29
11 30
11 34
11 48
12 17
12 21
12 35
13 4
13 5
13 19
13 28
13 36
13 43
13 47
14 1
14 18
14 21
14 27
14 35
14 37
14 40
15 2
15 20
15 23
15 33
15 38
15 53
16 7
16 26
16 41
16 44
16 46
16 55
16 58
17 12
17 26
17 35
17 46
18 1
18 10
18 14
18 27
18 31
18 37
18 40
18 59
19 10
19 13
19 28
19 31
19 47
19 50
19 52
20 15
20 22
20 32
20 33
20 39
20 49
20 53
21 12
21 14
21 27
21 35
21 40
22 20
22 32
22 33
22 39
22 49
22 51
22 57
23 2
23 15
23 33
23 38
23 53
24 3
24 4
24 5
24 8
24 30
24 36
24 42
24 56
24 64
25 6
25 7
25 9
25 44
25 45
25 54
25 62
26 16
26 17
26 41
26 46
26 55
27 1
27 10
27 14
27 18
27 21
27 37
27 40
27 59
28 5
28 13
28 19
28 31
28 36
28 43
28 47
28 50
28 52
28 60
28 67
29 8
29 11
29 30
29 32
29 34
29 48
29 51
29 63
29 65
30 3
30 8
30 11
30 24
30 29
30 34
30 42
30 48
30 63
30 64
31 1
31 10
31 18
31 19
31 28
31 37
31 47
31 50
31 52
31 59
31 66
31 67
32 20
32 22
32 29
32 34
32 39
32 49
32 51
32 57
32 71
33 2
33 15
33 20
33 22
33 23
33 38
33 39
33 49
33 53
33 70
33 74
34 11
34 29
34 30
34 32
34 39
34 48
34 51
34 57
34 63
34 65
34 71
35 12
35 14
35 17
35 21
35 40
35 61
35 68
35 69
35 73
36 3
36 4
36 5
36 13
36 24
36 28
36 42
36 43
36 47
36 56
36 60
37 1
37 10
37 14
37 18
37 27
37 31
37 40
37 50
37 59
37 66
37 78
37 80
38 2
38 15
38 23
38 33
38 53
38 70
38 75
38 81
39 20
39 22
39 32
39 33
39 34
39 49
39 51
39 57
39 71
39 79
40 14
40 18
40 21
40 27
40 35
40 37
40 68
40 69
40 80
40 85
41 7
41 16
41 26
41 44
41 45
41 46
41 55
41 58
41 72
42 3
42 4
42 8
42 24
42 30
42 36
42 48
42 56
42 63
42 64
42 83
43 4
43 5
43 13
43 28
43 36
43 47
43 56
43 60
44 6
44 7
44 16
44 25
44 41
44 45
44 54
44 55
44 58
44 62
44 77
44 88
45 6
45 7
45 9
45 25
45 41
45 44
45 54
45 58
45 62
45 77
45 82
46 16
46 17
46 26
46 41
46 55
46 61
46 72
46 76
47 13
47 19
47 28
47 31
47 36
47 43
47 50
47 52
47 60
47 66
47 67
47 86
48 8
48 11
48 29
48 30
48 34
48 42
48 51
48 63
48 64
48 65
48 90
48 91
49 20
49 22
49 32
49 33
49 39
49 51
49 53
49 57
49 71
49 74
49 79
49 89
50 10
50 19
50 28
50 31
50 37
50 47
50 52
50 59
50 66
50 67
50 78
50 86
51 22
51 29
51 32
51 34
51 39
51 48
51 49
51 57
51 63
51 65
51 71
51 89
51 93
52 19
52 28
52 31
52 47
52 50
52 59
52 60
52 66
52 67
52 78
52 86
53 15
53 20
53 23
53 33
53 38
53 49
53 70
53 74
53 79
53 81
53 87
54 6
54 9
54 25
54 44
54 45
54 58
54 62
54 77
54 82
54 84
54 88
55 16
55 26
55 41
55 44
55 46
55 58
55 61
55 72
55 76
55 97
55 98
55 99
56 24
56 36
56 42
56 43
56 60
56 64
56 83
56 94
57 22
57 32
57 34
57 39
57 49
57 51
57 65
57 71
57 79
57 89
57 93
58 16
58 41
58 44
58 45
58 54
58 55
58 72
58 77
58 82
58 88
58 99
59 18
59 27
59 31
59 37
59 50
59 52
59 66
59 78
59 80
59 100
59 102
60 28
60 36
60 43
60 47
60 52
60 56
60 67
60 94
60 101
61 35
61 46
61 55
61 68
61 72
61 73
61 76
61 92
61 96
61 97
61 98
62 25
62 44
62 45
62 54
62 77
62 82
62 84
62 88
62 103
63 29
63 30
63 34
63 42
63 48
63 51
63 64
63 65
63 90
63 91
63 93
63 95
64 24
64 30
64 42
64 48
64 56
64 63
64 83
64 90
64 95
65 29
65 34
65 48
65 51
65 57
65 63
65 71
65 90
65 91
65 93
66 31
66 37
66 47
66 50
66 52
66 59
66 67
66 78
66 86
66 100
66 102
66 106
67 28
67 31
67 47
67 50
67 52
67 60
67 66
67 78
67 86
67 100
67 101
67 104
67 106
68 35
68 40
68 61
68 69
68 73
68 85
68 92
68 96
68 105
68 114
69 35
69 40
69 68
69 73
69 80
69 85
69 92
69 105
70 33
70 38
70 53
70 74
70 75
70 79
70 81
70 87
71 32
71 34
71 39
71 49
71 51
71 57
71 65
71 79
71 89
71 93
72 41
72 46
72 55
72 58
72 61
72 76
72 88
72 96
72 97
72 98
72 99
73 35
73 61
73 68
73 69
73 76
73 85
73 92
73 96
73 98
73 110
73 115
74 33
74 49
74 53
74 70
74 79
74 81
74 87
75 38
75 70
75 81
75 87
75 117
76 46
76 55
76 61
76 72
76 73
76 92
76 96
76 97
76 98
76 99
76 110
77 44
77 45
77 54
77 58
77 62
77 82
77 84
77 88
77 99
77 103
77 108
78 37
78 50
78 52
78 59
78 66
78 67
78 80
78 86
78 100
78 102
78 106
78 109
79 39
79 49
79 53
79 57
79 70
79 71
79 74
79 89
80 37
80 40
80 59
80 69
80 78
80 85
80 100
80 102
80 105
80 109
80 118
81 38
81 53
81 70
81 74
81 75
81 87
81 117
82 45
82 54
82 58
82 62
82 77
82 84
82 88
82 103
82 108
82 111
82 120
83 42
83 56
83 64
83 90
83 94
83 95
83 107
83 112
84 54
84 62
84 77
84 82
84 103
84 111
84 120
85 40
85 68
85 69
85 73
85 80
85 92
85 102
85 105
85 109
85 114
85 115
85 118
86 47
86 50
86 52
86 66
86 67
86 78
86 100
86 101
86 104
86 106
87 53
87 70
87 74
87 75
87 81
87 117
88 44
88 54
88 58
88 62
88 72
88 77
88 82
88 97
88 99
88 103
88 108
88 113
88 125
89 49
89 51
89 57
89 71
89 79
89 93
89 124
90 48
90 63
90 64
90 65
90 83
90 91
90 93
90 95
90 112
91 48
91 63
91 65
91 90
91 93
91 95
91 123
92 61
92 68
92 69
92 73
92 76
92 85
92 96
92 98
92 105
92 110
92 114
92 115
93 51
93 57
93 63
93 65
93 71
93 89
93 90
93 91
93 123
94 56
94 60
94 83
94 101
94 104
94 107
94 112
94 116
95 63
95 64
95 83
95 90
95 91
95 107
95 112
96 61
96 68
96 72
96 73
96 76
96 92
96 97
96 98
96 110
96 115
96 121
97 55
97 61
97 72
97 76
97 88
97 96
97 98
97 99
97 108
97 113
97 119
97 121
98 55
98 61
98 72
98 73
98 76
98 92
98 96
98 97
98 99
98 110
98 119
98 121
99 55
99 58
99 72
99 76
99 77
99 88
99 97
99 98
99 108
99 113
99 119
99 125
100 59
100 66
100 67
100 78
100 80
100 86
100 102
100 104
100 106
100 109
101 60
101 67
101 86
101 94
101 104
101 106
101 107
101 116
102 59
102 66
102 78
102 80
102 85
102 100
102 105
102 106
102 109
102 118
103 62
103 77
103 82
103 84
103 88
103 108
103 111
103 120
103 126
103 130
104 67
104 86
104 94
104 100
104 101
104 106
104 116
105 68
105 69
105 80
105 85
105 92
105 102
105 109
105 114
105 115
105 118
106 66
106 67
106 78
106 86
106 100
106 101
106 102
106 104
107 83
107 94
107 95
107 101
107 112
107 116
107 132
107 134
108 77
108 82
108 88
108 97
108 99
108 103
108 113
108 119
108 120
108 125
108 126
109 78
109 80
109 85
109 100
109 102
109 105
109 118
109 135
110 73
110 76
110 92
110 96
110 98
110 114
110 115
110 119
110 121
111 82
111 84
111 103
111 120
111 126
111 130
112 83
112 90
112 94
112 95
112 107
112 116
112 133
112 134
113 88
113 97
113 99
113 108
113 119
113 121
113 125
113 126
114 68
114 85
114 92
114 105
114 110
114 115
114 118
114 141
114 144
115 73
115 85
115 92
115 96
115 105
115 110
115 114
115 121
115 144
116 94
116 101
116 104
116 107
116 112
116 132
116 134
116 137
117 75
117 81
117 87
117 127
117 128
117 142
118 80
118 85
118 102
118 105
118 109
118 114
118 135
118 141
119 97
119 98
119 99
119 108
119 110
119 113
119 121
119 125
119 150
120 82
120 84
120 103
120 108
120 111
120 125
120 126
120 130
120 153
121 96
121 97
121 98
121 110
121 113
121 115
121 119
121 149
121 150
122 124
122 127
122 128
122 129
122 143
122 152
122 157
123 91
123 93
123 124
123 131
123 139
123 148
124 89
124 122
124 123
124 129
124 148
124 157
124 159
125 88
125 99
125 108
125 113
125 119
125 120
125 126
125 146
125 155
126 103
126 108
126 111
126 113
126 120
126 125
126 130
126 146
126 153
127 117
127 122
127 128
127 142
127 143
127 160
127 161
128 117
128 122
128 127
128 129
128 142
128 143
128 152
128 161
129 122
129 124
129 128
129 143
129 152
129 157
129 159
130 103
130 111
130 120
130 126
130 153
131 123
131 133
131 139
131 145
131 166
132 107
132 116
132 134
132 137
132 140
132 145
132 147
132 151
132 165
133 112
133 131
133 134
133 139
133 145
133 168
134 107
134 112
134 116
134 132
134 133
134 137
134 145
134 147
134 165
135 109
135 118
135 136
135 138
135 141
135 156
135 158
135 171
135 176
136 135
136 138
136 140
136 151
136 156
136 175
136 176
137 116
137 132
137 134
137 140
137 147
137 151
137 165
137 169
137 182
138 135
138 136
138 156
138 158
138 171
138 175
138 176
139 123
139 131
139 133
139 148
139 162
139 163
139 166
140 132
140 136
140 137
140 147
140 151
140 156
140 169
140 175
140 180
141 114
141 118
141 135
141 144
141 154
141 158
141 164
141 171
141 178
142 117
142 127
142 128
142 143
142 160
142 161
143 122
143 127
143 128
143 129
143 142
143 152
143 157
143 160
143 161
143 181
143 184
144 114
144 115
144 141
144 149
144 154
144 158
144 164
144 170
144 174
144 178
145 131
145 132
145 133
145 134
145 147
145 165
145 168
145 187
146 125
146 126
146 153
146 155
146 173
146 177
147 132
147 134
147 137
147 140
147 145
147 151
147 165
147 169
147 182
147 188
148 123
148 124
148 139
148 157
148 159
148 162
148 163
148 167
148 183
149 121
149 144
149 150
149 154
149 155
149 170
149 174
149 179
150 119
150 121
150 149
150 154
150 155
150 174
150 179
151 132
151 136
151 137
151 140
151 147
151 156
151 169
151 175
151 180
151 182
151 194
152 122
152 128
152 129
152 143
152 157
152 159
152 161
152 167
152 181
152 185
153 120
153 126
153 130
153 146
153 172
153 173
153 177
153 190
154 141
154 144
154 149
154 150
154 164
154 170
154 174
155 125
155 146
155 149
155 150
155 173
155 179
155 192
155 196
156 135
156 136
156 138
156 140
156 151
156 169
156 175
156 176
156 180
156 193
156 197
157 122
157 124
157 129
157 143
157 148
157 152
157 159
157 162
157 167
157 181
157 185
158 135
158 138
158 141
158 144
158 164
158 171
158 176
158 178
158 186
159 124
159 129
159 148
159 152
159 157
159 162
159 163
159 167
159 183
159 185
159 195
160 127
160 142
160 143
160 161
160 181
160 184
160 199
160 206
161 127
161 128
161 142
161 143
161 152
161 160
161 167
161 181
161 184
161 207
162 139
162 148
162 157
162 159
162 163
162 166
162 167
162 183
162 195
163 139
163 148
163 159
163 162
163 166
163 183
163 191
163 195
163 211
164 141
164 144
164 154
164 158
164 170
164 171
164 178
164 186
164 200
164 202
164 204
165 132
165 134
165 137
165 145
165 147
165 168
165 169
165 182
165 187
165 188
165 203
165 208
166 131
166 139
166 162
166 163
166 168
166 183
166 187
166 191
166 198
166 211
166 216
167 148
167 152
167 157
167 159
167 161
167 162
167 181
167 185
167 195
167 214
168 133
168 145
168 165
168 166
168 187
168 191
168 198
168 203
168 209
168 216
169 137
169 140
169 147
169 151
169 156
169 165
169 175
169 180
169 182
169 188
169 193
169 194
169 212
170 144
170 149
170 154
170 164
170 174
170 178
170 179
170 200
170 201
170 202
170 219
171 135
171 138
171 141
171 158
171 164
171 175
171 176
171 178
171 186
171 197
171 204
171 205
172 153
172 177
172 189
172 190
173 146
173 153
173 155
173 177
173 190
173 196
173 217
173 218
174 144
174 149
174 150
174 154
174 170
174 179
174 192
174 200
174 201
175 136
175 138
175 140
175 151
175 156
175 169
175 171
175 176
175 180
175 193
175 194
175 197
175 205
176 135
176 136
176 138
176 156
176 158
176 171
176 175
176 180
176 186
176 193
176 197
176 205
177 146
177 153
177 172
177 173
177 189
177 190
177 217
177 222
178 141
178 144
178 158
178 164
178 170
178 171
178 186
178 202
178 204
178 221
179 149
179 150
179 155
179 170
179 174
179 192
179 196
179 201
179 225
180 140
180 151
180 156
180 169
180 175
180 176
180 182
180 193
180 194
180 197
180 212
181 143
181 152
181 157
181 160
181 161
181 167
181 184
181 185
181 207
181 210
181 220
182 137
182 147
182 151
182 165
182 169
182 180
182 188
182 194
182 203
182 208
182 212
182 223
183 148
183 159
183 162
183 163
183 166
183 191
183 195
183 211
183 213
183 215
183 229
184 143
184 160
184 161
184 181
184 185
184 199
184 206
184 207
184 210
184 220
185 152
185 157
185 159
185 167
185 181
185 184
185 195
185 207
185 214
185 215
185 220
185 237
186 158
186 164
186 171
186 176
186 178
186 197
186 202
186 204
186 205
186 221
186 231
186 235
186 240
187 145
187 165
187 166
187 168
187 188
187 191
187 198
187 203
187 208
187 209
187 216
187 232
187 233
187 241
188 147
188 165
188 169
188 182
188 187
188 194
188 203
188 208
188 212
188 223
188 232
188 233
188 246
189 172
189 177
189 190
189 222
189 234
190 153
190 172
190 173
190 177
190 189
190 196
190 217
190 218
190 222
190 234
190 244
191 163
191 166
191 168
191 183
191 187
191 198
191 209
191 211
191 213
191 216
191 229
191 236
192 155
192 174
192 179
192 196
192 201
192 218
192 224
192 225
192 230
192 238
193 156
193 169
193 175
193 176
193 180
193 194
193 197
193 205
193 212
193 223
193 228
193 243
193 252
194 151
194 169
194 175
194 180
194 182
194 188
194 193
194 208
194 212
194 223
194 243
194 245
195 159
195 162
195 163
195 167
195 183
195 185
195 211
195 213
195 214
195 215
195 229
195 248
196 155
196 173
196 179
196 190
196 192
196 217
196 218
196 224
196 238
196 247
197 156
197 171
197 175
197 176
197 180
197 186
197 193
197 205
197 228
197 231
197 240
197 251
198 166
198 168
198 187
198 191
198 203
198 209
198 211
198 216
198 233
198 241
199 160
199 184
199 206
199 210
199 227
199 242
199 249
200 164
200 170
200 174
200 201
200 202
200 204
200 219
200 225
200 226
200 230
200 239
200 250
201 170
201 174
201 179
201 192
201 200
201 219
201 224
201 225
201 226
201 230
201 238
201 250
202 164
202 170
202 178
202 186
202 200
202 204
202 219
202 221
202 226
202 235
202 239
203 165
203 168
203 182
203 187
203 188
203 198
203 208
203 209
203 232
203 233
203 241
203 246
204 164
204 171
204 178
204 186
204 200
204 202
204 219
204 221
204 235
204 239
204 240
205 171
205 175
205 176
205 186
205 193
205 197
205 221
205 228
205 231
205 240
205 251
206 160
206 184
206 199
206 207
206 210
206 227
206 242
206 249
207 161
207 181
207 184
207 185
207 206
207 210
207 214
207 220
207 237
207 242
207 258
207 262
208 165
208 182
208 187
208 188
208 194
208 203
208 212
208 223
208 232
208 233
208 245
208 246
209 168
209 187
209 191
209 198
209 203
209 211
209 216
209 232
209 233
209 236
209 241
209 254
209 257
210 181
210 184
210 199
210 206
210 207
210 220
210 227
210 242
210 249
210 262
211 163
211 166
211 183
211 191
211 195
211 198
211 209
211 213
211 215
211 216
211 229
211 236
211 253
211 254
211 261
212 169
212 180
212 182
212 188
212 193
212 194
212 208
212 223
212 228
212 243
212 245
212 246
212 252
213 183
213 191
213 195
213 211
213 214
213 215
213 216
213 229
213 236
213 248
213 253
213 267
214 167
214 185
214 195
214 207
214 213
214 215
214 220
214 229
214 237
214 248
214 258
214 264
215 183
215 185
215 195
215 211
215 213
215 214
215 229
215 236
215 248
215 253
215 264
215 267
216 166
216 168
216 187
216 191
216 198
216 209
216 211
216 213
216 229
216 233
216 236
216 241
216 253
216 254
216 257
216 261
217 173
217 177
217 190
217 196
217 218
217 222
217 234
217 244
217 247
217 256
217 263
217 268
218 173
218 190
218 192
218 196
218 217
218 222
218 224
218 238
218 244
218 247
218 256
218 263
219 170
219 200
219 201
219 202
219 204
219 221
219 226
219 230
219 235
219 239
219 250
219 260
219 275
220 181
220 184
220 185
220 207
220 210
220 214
220 237
220 258
220 264
221 178
221 186
221 202
221 204
221 205
221 219
221 231
221 235
221 239
221 240
221 260
221 266
221 277
222 177
222 189
222 190
222 217
222 218
222 234
222 244
222 255
222 256
222 268
222 281
223 182
223 188
223 193
223 194
223 208
223 212
223 232
223 243
223 245
223 246
223 252
223 274
223 278
224 192
224 196
224 201
224 218
224 225
224 230
224 238
224 247
224 259
224 263
224 265
225 179
225 192
225 200
225 201
225 224
225 226
225 230
225 238
225 250
225 259
225 265
225 270
226 200
226 201
226 202
226 219
226 225
226 230
226 235
226 239
226 250
226 259
226 260
226 270
226 275
227 199
227 206
227 210
227 242
227 249
227 262
227 282
228 193
228 197
228 205
228 212
228 231
228 240
228 243
228 251
228 252
228 269
228 272
228 276
229 183
229 191
229 195
229 211
229 213
229 214
229 215
229 216
229 236
229 248
229 253
229 254
229 261
229 267
229 286
230 192
230 200
230 201
230 219
230 224
230 225
230 226
230 238
230 250
230 259
230 260
230 270
230 275
231 186
231 197
231 205
231 221
231 228
231 235
231 240
231 251
231 252
231 272
231 276
231 277
232 187
232 188
232 203
232 208
232 209
232 223
232 233
232 241
232 245
232 246
232 271
232 273
232 274
233 187
233 188
233 198
233 203
233 208
233 209
233 216
233 232
233 241
233 246
233 254
233 257
233 271
233 273
234 189
234 190
234 217
234 222
234 244
234 255
234 256
234 268
234 281
235 186
235 202
235 204
235 219
235 221
235 226
235 231
235 239
235 240
235 250
235 260
235 266
235 275
235 277
235 285
236 191
236 209
236 211
236 213
236 215
236 216
236 229
236 241
236 253
236 254
236 257
236 261
236 267
236 279
237 185
237 207
237 214
237 220
237 248
237 258
237 262
237 264
237 280
237 284
238 192
238 196
238 201
238 218
238 224
238 225
238 230
238 247
238 259
238 263
238 265
238 270
238 283
239 200
239 202
239 204
239 219
239 221
239 226
239 235
239 240
239 250
239 260
239 266
239 275
239 277
239 285
240 186
240 197
240 204
240 205
240 221
240 228
240 231
240 235
240 239
240 251
240 266
240 272
240 276
240 277
241 187
241 198
241 203
241 209
241 216
241 232
241 233
241 236
241 254
241 257
241 261
241 271
241 273
241 279
242 199
242 206
242 207
242 210
242 227
242 249
242 262
242 282
242 287
243 193
243 194
243 212
243 223
243 228
243 245
243 246
243 252
243 269
243 274
243 278
244 190
244 217
244 218
244 222
244 234
244 247
244 255
244 256
244 263
244 268
244 281
244 290
244 291
245 194
245 208
245 212
245 223
245 232
245 243
245 246
245 252
245 269
245 273
245 274
245 278
245 298
246 188
246 203
246 208
246 212
246 223
246 232
246 233
246 243
246 245
246 271
246 273
246 274
246 278
246 299
247 196
247 217
247 218
247 224
247 238
247 244
247 256
247 259
247 263
247 265
247 268
247 283
247 293
248 195
248 213
248 214
248 215
248 229
248 237
248 253
248 258
248 264
248 267
248 284
248 286
249 199
249 206
249 210
249 227
249 242
249 262
249 282
249 287
249 296
250 200
250 201
250 219
250 225
250 226
250 230
250 235
250 239
250 259
250 260
250 270
250 275
250 294
251 197
251 205
251 228
251 231
251 240
251 252
251 269
251 272
251 276
251 277
251 300
252 193
252 212
252 223
252 228
252 231
252 243
252 245
252 251
252 269
252 272
252 276
252 278
252 300
252 302
253 211
253 213
253 215
253 216
253 229
253 236
253 248
253 254
253 261
253 264
253 267
253 279
253 286
254 209
254 211
254 216
254 229
254 233
254 236
254 241
254 253
254 257
254 261
254 271
254 279
254 297
254 303
255 222
255 234
255 244
255 256
255 268
255 281
255 290
255 291
256 217
256 218
256 222
256 234
256 244
256 247
256 255
256 263
256 268
256 281
256 290
256 291
256 293
257 209
257 216
257 233
257 236
257 241
257 254
257 261
257 271
257 273
257 279
257 295
257 297
257 303
258 207
258 214
258 220
258 237
258 248
258 262
258 264
258 280
258 284
258 288
258 289
258 310
259 224
259 225
259 226
259 230
259 238
259 247
259 250
259 265
259 270
259 275
259 283
259 292
259 294
259 307
259 309
260 219
260 221
260 226
260 230
260 235
260 239
260 250
260 266
260 270
260 275
260 277
260 285
260 294
260 304
260 305
261 211
261 216
261 229
261 236
261 241
261 253
261 254
261 257
261 267
261 279
261 286
261 297
261 316
261 318
262 207
262 210
262 227
262 237
262 242
262 249
262 258
262 280
262 282
262 287
262 288
262 289
262 296
262 301
262 314
262 317
263 217
263 218
263 224
263 238
263 244
263 247
263 256
263 265
263 268
263 281
263 283
263 291
263 293
263 307
263 308
264 214
264 215
264 220
264 237
264 248
264 253
264 258
264 267
264 280
264 284
264 286
264 288
264 289
264 310
264 319
265 224
265 225
265 238
265 247
265 259
265 263
265 270
265 283
265 292
265 293
265 307
265 308
265 309
266 221
266 235
266 239
266 240
266 260
266 275
266 276
266 277
266 285
266 304
266 305
266 306
267 213
267 215
267 229
267 236
267 248
267 253
267 261
267 264
267 284
267 286
267 310
267 316
267 321
267 323
268 217
268 222
268 234
268 244
268 247
268 255
268 256
268 263
268 281
268 290
268 291
268 293
268 313
268 325
269 228
269 243
269 245
269 251
269 252
269 272
269 274
269 276
269 278
269 300
269 302
269 312
269 315
270 225
270 226
270 230
270 238
270 250
270 259
270 260
270 265
270 275
270 292
270 294
270 309
271 232
271 233
271 241
271 246
271 254
271 257
271 273
271 274
271 279
271 295
271 299
271 303
272 228
272 231
272 240
272 251
272 252
272 269
272 276
272 277
272 278
272 300
272 302
272 315
272 320
273 232
273 233
273 241
273 245
273 246
273 257
273 271
273 274
273 295
273 298
273 299
273 311
274 223
274 232
274 243
274 245
274 246
274 269
274 271
274 273
274 278
274 298
274 299
274 311
274 312
275 219
275 226
275 230
275 235
275 239
275 250
275 259
275 260
275 266
275 270
275 285
275 294
275 304
275 305
276 228
276 231
276 240
276 251
276 252
276 266
276 269
276 272
276 277
276 300
276 306
276 315
276 320
277 221
277 231
277 235
277 239
277 240
277 251
277 260
277 266
277 272
277 276
277 285
277 305
277 306
277 320
277 324
278 223
278 243
278 245
278 246
278 252
278 269
278 272
278 274
278 298
278 302
278 311
278 312
278 315
278 329
279 236
279 241
279 253
279 254
279 257
279 261
279 271
279 286
279 295
279 297
279 303
279 316
279 318
279 322
280 237
280 258
280 262
280 264
280 284
280 287
280 288
280 289
280 301
280 310
280 317
280 319
281 222
281 234
281 244
281 255
281 256
281 263
281 268
281 290
281 291
281 293
281 313
281 325
281 328
281 336
282 227
282 242
282 249
282 262
282 287
282 296
282 301
282 314
282 341
283 238
283 247
283 259
283 263
283 265
283 292
283 293
283 307
283 308
283 309
283 326
283 339
284 237
284 248
284 258
284 264
284 267
284 280
284 286
284 288
284 289
284 310
284 317
284 319
284 321
285 235
285 239
285 260
285 266
285 275
285 277
285 304
285 305
285 306
285 324
285 335
285 343
286 229
286 248
286 253
286 261
286 264
286 267
286 279
286 284
286 297
286 310
286 316
286 318
286 321
286 323
287 242
287 249
287 262
287 280
287 282
287 288
287 289
287 296
287 301
287 314
287 317
287 341
287 342
288 258
288 262
288 264
288 280
288 284
288 287
288 289
288 301
288 310
288 314
288 317
288 319
288 342
288 344
289 258
289 262
289 264
289 280
289 284
289 287
289 288
289 301
289 310
289 317
289 319
289 321
290 244
290 255
290 256
290 268
290 281
290 291
290 313
290 325
290 328
290 336
291 244
291 255
291 256
291 263
291 268
291 281
291 290
291 293
291 308
291 313
291 325
291 326
291 328
291 336
292 259
292 265
292 270
292 283
292 294
292 307
292 308
292 309
292 337
292 339
293 247
293 256
293 263
293 265
293 268
293 281
293 283
293 291
293 307
293 308
293 325
293 326
293 339
293 347
294 250
294 259
294 260
294 270
294 275
294 292
294 304
294 305
294 309
294 337
294 338
294 343
295 257
295 271
295 273
295 279
295 297
295 299
295 303
295 311
295 322
295 327
295 330
295 334
296 249
296 262
296 282
296 287
296 301
296 314
296 341
296 342
297 254
297 257
297 261
297 279
297 286
297 295
297 303
297 316
297 318
297 322
297 323
297 327
297 348
298 245
298 273
298 274
298 278
298 299
298 302
298 311
298 312
298 329
298 330
298 331
298 334
299 246
299 271
299 273
299 274
299 295
299 298
299 303
299 311
299 312
299 327
299 330
299 331
299 334
300 251
300 252
300 269
300 272
300 276
300 302
300 306
300 312
300 315
300 320
300 329
300 332
300 333
300 340
301 262
301 280
301 282
301 287
301 288
301 289
301 296
301 314
301 317
301 319
301 341
301 342
301 344
302 252
302 269
302 272
302 278
302 298
302 300
302 311
302 312
302 315
302 329
302 331
302 333
302 340
303 254
303 257
303 271
303 279
303 295
303 297
303 299
303 316
303 318
303 322
303 327
303 330
304 260
304 266
304 275
304 285
304 294
304 305
304 306
304 324
304 335
304 338
304 343
305 260
305 266
305 275
305 277
305 285
305 294
305 304
305 306
305 320
305 324
305 335
305 338
305 343
306 266
306 276
306 277
306 285
306 300
306 304
306 305
306 320
306 324
306 332
306 333
306 335
307 259
307 263
307 265
307 283
307 292
307 293
307 308
307 309
307 326
307 337
307 339
307 347
307 354
307 355
308 263
308 265
308 283
308 291
308 292
308 293
308 307
308 309
308 325
308 326
308 339
308 347
308 354
309 259
309 265
309 270
309 283
309 292
309 294
309 307
309 308
309 337
309 338
309 339
309 360
310 258
310 264
310 267
310 280
310 284
310 286
310 288
310 289
310 317
310 319
310 321
310 323
310 345
310 346
310 350
311 273
311 274
311 278
311 295
311 298
311 299
311 302
311 312
311 329
311 330
311 331
311 334
312 269
312 274
312 278
312 298
312 299
312 300
312 302
312 311
312 315
312 329
312 331
312 334
312 340
312 352
312 358
313 268
313 281
313 290
313 291
313 325
313 328
313 336
313 353
314 262
314 282
314 287
314 288
314 296
314 301
314 317
314 341
314 342
314 344
314 356
315 269
315 272
315 276
315 278
315 300
315 302
315 312
315 320
315 329
315 332
315 333
315 340
315 357
315 358
316 261
316 267
316 279
316 286
316 297
316 303
316 318
316 321
316 322
316 323
316 346
316 348
316 349
316 366
317 262
317 280
317 284
317 287
317 288
317 289
317 301
317 310
317 314
317 319
317 342
317 344
317 350
317 361
318 261
318 279
318 286
318 297
318 303
318 316
318 322
318 323
318 327
318 348
318 349
318 366
318 367
319 264
319 280
319 284
319 288
319 289
319 301
319 310
319 317
319 321
319 344
319 345
319 350
319 361
319 371
320 272
320 276
320 277
320 300
320 305
320 306
320 315
320 324
320 332
320 333
320 335
320 340
320 359
320 362
321 267
321 284
321 286
321 289
321 310
321 316
321 319
321 323
321 345
321 346
321 349
321 350
321 372
321 375
322 279
322 295
322 297
322 303
322 316
322 318
322 327
322 330
322 348
322 351
322 366
322 367
322 377
323 267
323 286
323 297
323 310
323 316
323 318
323 321
323 345
323 346
323 348
323 349
323 372
323 381
324 277
324 285
324 304
324 305
324 306
324 320
324 332
324 333
324 335
324 343
324 359
324 362
324 365
324 376
324 378
325 268
325 281
325 290
325 291
325 293
325 308
325 313
325 326
325 328
325 336
325 347
325 369
325 373
325 374
326 283
326 291
326 293
326 307
326 308
326 325
326 336
326 339
326 347
326 354
326 355
326 373
326 374
327 295
327 297
327 299
327 303
327 318
327 322
327 330
327 334
327 351
327 367
327 368
327 377
327 380
328 281
328 290
328 291
328 313
328 325
328 336
328 353
328 369
328 382
329 278
329 298
329 300
329 302
329 311
329 312
329 315
329 331
329 333
329 334
329 340
329 352
329 357
329 358
329 379
330 295
330 298
330 299
330 303
330 311
330 322
330 327
330 331
330 334
330 351
330 368
330 370
330 377
330 380
331 298
331 299
331 302
331 311
331 312
331 329
331 330
331 334
331 352
331 358
331 368
331 370
331 379
331 387
332 300
332 306
332 315
332 320
332 324
332 333
332 335
332 340
332 357
332 359
332 362
332 376
333 300
333 302
333 306
333 315
333 320
333 324
333 329
333 332
333 340
333 357
333 358
333 359
333 362
333 383
333 384
334 295
334 298
334 299
334 311
334 312
334 327
334 329
334 330
334 331
334 351
334 352
334 368
334 370
334 380
335 285
335 304
335 305
335 306
335 320
335 324
335 332
335 338
335 343
335 359
335 364
335 365
335 376
335 378
336 281
336 290
336 291
336 313
336 325
336 326
336 328
336 347
336 353
336 369
336 373
336 382
336 388
337 292
337 294
337 307
337 309
337 338
337 339
337 354
337 355
337 360
337 363
337 364
337 385
338 294
338 304
338 305
338 309
338 335
338 337
338 343
338 360
338 363
338 364
338 365
339 283
339 292
339 293
339 307
339 308
339 309
339 326
339 337
339 347
339 354
339 355
339 360
339 374
340 300
340 302
340 312
340 315
340 320
340 329
340 332
340 333
340 352
340 357
340 358
340 362
340 379
340 383
340 384
341 282
341 287
341 296
341 301
341 314
341 342
341 344
341 356
342 287
342 288
342 296
342 301
342 314
342 317
342 341
342 344
342 356
342 361
342 371
342 391
343 285
343 294
343 304
343 305
343 324
343 335
343 338
343 363
343 364
343 365
343 378
344 288
344 301
344 314
344 317
344 319
344 341
344 342
344 345
344 350
344 356
344 361
344 371
344 391
344 396
345 310
345 319
345 321
345 323
345 344
345 346
345 350
345 361
345 371
345 372
345 375
345 390
346 310
346 316
346 321
346 323
346 345
346 348
346 349
346 350
346 372
346 375
346 381
346 390
346 401
347 293
347 307
347 308
347 325
347 326
347 336
347 339
347 354
347 355
347 369
347 373
347 374
347 389
347 392
348 297
348 316
348 318
348 322
348 323
348 346
348 349
348 366
348 367
348 372
348 377
348 381
348 386
348 399
349 316
349 318
349 321
349 323
349 346
349 348
349 366
349 367
349 372
349 381
349 386
349 399
349 401
349 405
350 310
350 317
350 319
350 321
350 344
350 345
350 346
350 361
350 371
350 375
350 390
350 398
351 322
351 327
351 330
351 334
351 366
351 367
351 368
351 370
351 377
351 380
351 386
351 402
351 404
352 312
352 329
352 331
352 334
352 340
352 357
352 358
352 370
352 379
352 383
352 384
352 387
352 400
352 406
353 313
353 328
353 336
353 369
353 373
353 382
353 388
353 411
353 415
354 307
354 308
354 326
354 337
354 339
354 347
354 355
354 360
354 373
354 374
354 385
354 389
354 392
354 393
354 416
354 419
355 307
355 326
355 337
355 339
355 347
355 354
355 360
355 363
355 374
355 385
355 392
355 393
355 419
355 424
356 314
356 341
356 342
356 344
356 361
356 391
356 396
356 409
356 423
357 315
357 329
357 332
357 333
357 340
357 352
357 358
357 362
357 379
357 383
357 384
357 400
357 403
357 413
358 312
358 315
358 329
358 331
358 333
358 340
358 352
358 357
358 362
358 370
358 379
358 383
358 384
358 387
358 400
358 403
358 406
358 413
359 320
359 324
359 332
359 333
359 335
359 362
359 365
359 376
359 378
359 383
359 394
359 397
359 417
359 418
360 309
360 337
360 338
360 339
360 354
360 355
360 363
360 364
360 385
360 392
360 393
360 395
360 424
360 427
361 317
361 319
361 342
361 344
361 345
361 350
361 356
361 371
361 390
361 391
361 396
361 398
361 409
361 428
362 320
362 324
362 332
362 333
362 340
362 357
362 358
362 359
362 376
362 383
362 384
362 394
362 403
362 418
362 421
363 337
363 338
363 343
363 355
363 360
363 364
363 385
363 393
363 395
363 425
363 427
364 335
364 337
364 338
364 343
364 360
364 363
364 365
364 378
364 385
364 395
364 397
364 420
364 425
365 324
365 335
365 338
365 343
365 359
365 364
365 376
365 378
365 395
365 397
365 414
365 420
366 316
366 318
366 322
366 348
366 349
366 351
366 367
366 372
366 377
366 381
366 386
366 399
366 402
366 405
366 422
367 318
367 322
367 327
367 348
367 349
367 351
367 366
367 377
367 380
367 381
367 386
367 399
367 402
367 404
367 422
368 327
368 330
368 331
368 334
368 351
368 370
368 377
368 380
368 387
368 402
368 404
368 407
368 408
368 430
369 325
369 328
369 336
369 347
369 353
369 373
369 374
369 382
369 388
369 389
369 411
369 412
369 415
370 330
370 331
370 334
370 351
370 352
370 358
370 368
370 379
370 380
370 387
370 406
370 407
370 408
371 319
371 342
371 344
371 345
371 350
371 361
371 375
371 390
371 396
371 398
371 410
371 426
371 428
372 321
372 323
372 345
372 346
372 348
372 349
372 366
372 375
372 381
372 390
372 399
372 401
372 405
372 410
372 432
373 325
373 326
373 336
373 347
373 353
373 354
373 369
373 374
373 382
373 388
373 389
373 392
373 411
373 412
373 416
374 325
374 326
374 339
374 347
374 354
374 355
374 369
374 373
374 389
374 392
374 393
374 412
374 416
374 419
375 321
375 345
375 346
375 350
375 371
375 372
375 381
375 390
375 398
375 401
375 405
375 410
375 426
376 324
376 332
376 335
376 359
376 362
376 365
376 378
376 394
376 397
376 414
376 417
376 418
377 322
377 327
377 330
377 348
377 351
377 366
377 367
377 368
377 380
377 386
377 402
377 404
377 422
377 429
378 324
378 335
378 343
378 359
378 364
378 365
378 376
378 394
378 397
378 414
378 417
378 418
378 420
378 436
379 329
379 331
379 340
379 352
379 357
379 358
379 370
379 383
379 384
379 387
379 400
379 406
379 407
379 413
379 434
379 435
380 327
380 330
380 334
380 351
380 367
380 368
380 370
380 377
380 386
380 402
380 404
380 407
380 408
380 429
380 430
381 323
381 346
381 348
381 349
381 366
381 367
381 372
381 375
381 386
381 399
381 401
381 405
381 422
381 431
381 432
382 328
382 336
382 353
382 369
382 373
382 388
382 411
382 415
383 333
383 340
383 352
383 357
383 358
383 359
383 362
383 379
383 384
383 394
383 400
383 403
383 413
383 418
383 421
383 438
384 333
384 340
384 352
384 357
384 358
384 362
384 379
384 383
384 387
384 400
384 403
384 406
384 413
384 421
384 435
384 438
385 337
385 354
385 355
385 360
385 363
385 364
385 392
385 393
385 395
385 419
385 424
385 425
385 427
385 437
386 348
386 349
386 351
386 366
386 367
386 377
386 380
386 381
386 399
386 402
386 404
386 405
386 422
386 429
386 431
387 331
387 352
387 358
387 368
387 370
387 379
387 384
387 400
387 406
387 407
387 408
387 413
387 430
387 434
387 435
387 449
388 336
388 353
388 369
388 373
388 382
388 389
388 411
388 412
388 415
389 347
389 354
389 369
389 373
389 374
389 388
389 392
389 411
389 412
389 416
389 419
389 443
389 446
390 345
390 346
390 350
390 361
390 371
390 372
390 375
390 396
390 398
390 401
390 410
390 426
390 439
390 440
390 452
391 342
391 344
391 356
391 361
391 396
391 409
391 423
391 428
391 433
391 445
392 347
392 354
392 355
392 360
392 373
392 374
392 385
392 389
392 393
392 412
392 416
392 419
392 424
392 427
392 443
392 447
393 354
393 355
393 360
393 363
393 374
393 385
393 392
393 395
393 416
393 419
393 424
393 425
393 427
393 437
393 447
393 457
394 359
394 362
394 376
394 378
394 383
394 397
394 403
394 414
394 417
394 418
394 421
394 436
394 448
394 451
395 360
395 363
395 364
395 365
395 385
395 393
395 397
395 414
395 420
395 425
395 427
395 437
395 441
395 460
396 344
396 356
396 361
396 371
396 390
396 391
396 398
396 409
396 423
396 426
396 428
396 433
396 440
396 445
396 458
397 359
397 364
397 365
397 376
397 378
397 394
397 395
397 414
397 417
397 418
397 420
397 436
397 441
397 455
398 350
398 361
398 371
398 375
398 390
398 396
398 409
398 410
398 426
398 428
398 440
398 452
398 465
399 348
399 349
399 366
399 367
399 372
399 381
399 386
399 401
399 405
399 422
399 431
399 432
399 439
399 464
400 352
400 357
400 358
400 379
400 383
400 384
400 387
400 403
400 406
400 407
400 413
400 421
400 434
400 435
400 438
400 449
400 456
401 346
401 349
401 372
401 375
401 381
401 390
401 399
401 405
401 410
401 431
401 432
401 439
401 452
402 351
402 366
402 367
402 368
402 377
402 380
402 386
402 404
402 408
402 422
402 429
402 430
402 431
402 442
402 444
403 357
403 358
403 362
403 383
403 384
403 394
403 400
403 413
403 418
403 421
403 435
403 438
403 448
403 456
403 463
404 351
404 367
404 368
404 377
404 380
404 386
404 402
404 407
404 408
404 422
404 429
404 430
404 442
404 444
404 467
405 349
405 366
405 372
405 375
405 381
405 386
405 399
405 401
405 410
405 422
405 431
405 432
405 439
405 468
406 352
406 358
406 370
406 379
406 384
406 387
406 400
406 407
406 408
406 413
406 430
406 434
406 435
406 438
406 449
406 453
407 368
407 370
407 379
407 380
407 387
407 400
407 404
407 406
407 408
407 429
407 430
407 434
407 435
407 444
407 449
407 453
408 368
408 370
408 380
408 387
408 402
408 404
408 406
408 407
408 429
408 430
408 434
408 444
408 449
408 453
409 356
409 361
409 391
409 396
409 398
409 423
409 426
409 428
409 433
409 445
409 458
409 459
410 371
410 372
410 375
410 390
410 398
410 401
410 405
410 426
410 432
410 439
410 440
410 452
410 466
410 469
411 353
411 369
411 373
411 382
411 388
411 389
411 412
411 415
411 446
411 450
411 454
411 470
412 369
412 373
412 374
412 388
412 389
412 392
412 411
412 415
412 416
412 419
412 443
412 446
412 450
412 454
413 357
413 358
413 379
413 383
413 384
413 387
413 400
413 403
413 406
413 421
413 434
413 435
413 438
413 456
413 463
414 365
414 376
414 378
414 394
414 395
414 397
414 417
414 418
414 420
414 436
414 441
414 451
414 455
414 461
415 353
415 369
415 382
415 388
415 411
415 412
415 450
415 454
415 470
416 354
416 373
416 374
416 389
416 392
416 393
416 412
416 419
416 424
416 443
416 446
416 447
416 450
416 471
417 359
417 376
417 378
417 394
417 397
417 414
417 418
417 420
417 421
417 436
417 448
417 451
417 455
418 359
418 362
418 376
418 378
418 383
418 394
418 397
418 403
418 414
418 417
418 421
418 436
418 448
418 451
418 463
419 354
419 355
419 374
419 385
419 389
419 392
419 393
419 412
419 416
419 424
419 427
419 437
419 443
419 446
419 447
419 457
419 462
419 471
420 364
420 365
420 378
420 395
420 397
420 414
420 417
420 425
420 427
420 436
420 441
420 455
420 460
420 461
421 362
421 383
421 384
421 394
421 400
421 403
421 413
421 417
421 418
421 435
421 438
421 448
421 451
421 456
421 463
421 475
422 366
422 367
422 377
422 381
422 386
422 399
422 402
422 404
422 405
422 429
422 431
422 432
422 442
422 464
422 472
423 356
423 391
423 396
423 409
423 428
423 433
423 445
423 459
424 355
424 360
424 385
424 392
424 393
424 416
424 419
424 425
424 427
424 437
424 443
424 447
424 457
424 462
424 471
424 479
425 363
425 364
425 385
425 393
425 395
425 420
425 424
425 427
425 437
425 441
425 457
425 460
425 461
425 462
425 477
426 371
426 375
426 390
426 396
426 398
426 409
426 410
426 428
426 439
426 440
426 452
426 458
426 465
426 466
426 481
427 360
427 363
427 385
427 392
427 393
427 395
427 419
427 420
427 424
427 425
427 437
427 441
427 447
427 457
427 460
427 462
427 479
428 361
428 371
428 391
428 396
428 398
428 409
428 423
428 426
428 433
428 440
428 445
428 458
428 459
428 465
429 377
429 380
429 386
429 402
429 404
429 407
429 408
429 422
429 430
429 442
429 444
429 453
429 467
429 480
430 368
430 380
430 387
430 402
430 404
430 406
430 407
430 408
430 429
430 434
430 442
430 444
430 449
430 453
430 467
431 381
431 386
431 399
431 401
431 402
431 405
431 422
431 432
431 442
431 464
431 468
431 472
431 476
432 372
432 381
432 399
432 401
432 405
432 410
432 422
432 431
432 439
432 452
432 464
432 468
432 469
432 472
433 391
433 396
433 409
433 423
433 428
433 445
433 458
433 459
434 379
434 387
434 400
434 406
434 407
434 408
434 413
434 430
434 435
434 438
434 444
434 449
434 453
434 473
434 474
435 379
435 384
435 387
435 400
435 403
435 406
435 407
435 413
435 421
435 434
435 438
435 449
435 456
435 473
435 474
436 378
436 394
436 397
436 414
436 417
436 418
436 420
436 441
436 448
436 451
436 455
436 461
436 478
437 385
437 393
437 395
437 419
437 424
437 425
437 427
437 441
437 447
437 457
437 460
437 461
437 462
437 471
437 479
438 383
438 384
438 400
438 403
438 406
438 413
438 421
438 434
438 435
438 449
438 456
438 463
438 473
438 474
439 390
439 399
439 401
439 405
439 410
439 426
439 432
439 440
439 452
439 466
439 468
439 469
440 390
440 396
440 398
440 410
440 426
440 428
440 439
440 452
440 458
440 465
440 466
440 481
441 395
441 397
441 414
441 420
441 425
441 427
441 436
441 437
441 455
441 460
441 461
441 462
441 477
442 402
442 404
442 422
442 429
442 430
442 431
442 444
442 464
442 467
442 472
442 476
442 480
443 389
443 392
443 412
443 416
443 419
443 424
443 446
443 447
443 450
443 457
443 471
443 479
444 402
444 404
444 407
444 408
444 429
444 430
444 434
444 442
444 449
444 453
444 467
444 476
444 480
445 391
445 396
445 409
445 423
445 428
445 433
445 458
445 459
446 389
446 411
446 412
446 416
446 419
446 443
446 447
446 450
446 454
446 471
447 392
447 393
447 416
447 419
447 424
447 427
447 437
447 443
447 446
447 457
447 462
447 471
447 479
448 394
448 403
448 417
448 418
448 421
448 436
448 451
448 455
448 456
448 463
448 475
448 478
449 387
449 400
449 406
449 407
449 408
449 430
449 434
449 435
449 438
449 444
449 453
449 467
449 473
449 474
450 411
450 412
450 415
450 416
450 443
450 446
450 454
450 470
451 394
451 414
451 417
451 418
451 421
451 436
451 448
451 455
451 463
451 475
451 478
452 390
452 398
452 401
452 410
452 426
452 432
452 439
452 440
452 465
452 466
452 468
452 469
452 481
453 406
453 407
453 408
453 429
453 430
453 434
453 444
453 449
453 467
453 473
454 411
454 412
454 415
454 446
454 450
454 470
455 397
455 414
455 417
455 420
455 436
455 441
455 448
455 451
455 460
455 461
455 477
455 478
456 400
456 403
456 413
456 421
456 435
456 438
456 448
456 463
456 473
456 474
456 475
457 393
457 419
457 424
457 425
457 427
457 437
457 443
457 447
457 460
457 462
457 471
457 479
458 396
458 409
458 426
458 428
458 433
458 440
458 445
458 459
458 465
458 466
458 481
459 409
459 423
459 428
459 433
459 445
459 458
459 465
459 481
460 395
460 420
460 425
460 427
460 437
460 441
460 455
460 457
460 461
460 462
460 477
460 479
461 414
461 420
461 425
461 436
461 437
461 441
461 455
461 460
461 462
461 477
462 419
462 424
462 425
462 427
462 437
462 441
462 447
462 457
462 460
462 461
462 471
462 477
462 479
463 403
463 413
463 418
463 421
463 438
463 448
463 451
463 456
463 475
463 478
464 399
464 422
464 431
464 432
464 442
464 468
464 472
464 476
464 480
465 398
465 426
465 428
465 440
465 452
465 458
465 459
465 466
465 481
466 410
466 426
466 439
466 440
466 452
466 458
466 465
466 469
466 481
467 404
467 429
467 430
467 442
467 444
467 449
467 453
467 476
467 480
468 405
468 431
468 432
468 439
468 452
468 464
468 469
468 472
468 476
469 410
469 432
469 439
469 452
469 466
469 468
469 472
469 481
470 411
470 415
470 450
470 454
471 416
471 419
471 424
471 437
471 443
471 446
471 447
471 457
471 462
471 479
472 422
472 431
472 432
472 442
472 464
472 468
472 469
472 476
472 480
473 434
473 435
473 438
473 449
473 453
473 456
473 474
474 434
474 435
474 438
474 449
474 456
474 473
475 421
475 448
475 451
475 456
475 463
475 478
476 431
476 442
476 444
476 464
476 467
476 468
476 472
476 480
477 425
477 441
477 455
477 460
477 461
477 462
477 479
478 436
478 448
478 451
478 455
478 463
478 475
479 424
479 427
479 437
479 443
479 447
479 457
479 460
479 462
479 471
479 477
480 429
480 442
480 444
480 464
480 467
480 472
480 476
481 426
481 440
481 452
481 458
481 459
481 465
481 466
481 469
