1 4
1 19
1 23
1 31
1 44
1 46
1 50
1 60
2 4
2 5
2 8
2 12
2 19
2 22
2 24
2 33
2 46
2 47
2 49
2 65
3 12
3 13
3 14
3 16
3 36
3 38
3 48
3 63
3 64
4 1
4 2
4 19
4 23
4 44
4 46
4 49
4 50
4 67
5 2
5 8
5 12
5 13
5 19
5 22
5 24
5 33
5 43
5 46
5 47
5 49
5 58
5 72
6 18
6 20
6 25
6 27
6 29
6 35
6 45
6 51
6 69
7 11
7 18
7 21
7 26
7 35
7 37
7 42
7 53
7 56
7 73
8 2
8 5
8 12
8 13
8 14
8 22
8 24
8 33
8 38
8 43
8 47
8 49
8 58
8 62
9 10
9 15
9 17
9 30
9 32
9 39
9 40
10 9
10 30
10 32
10 39
10 68
10 70
11 7
11 21
11 26
11 31
11 37
11 57
11 59
11 71
12 2
12 3
12 5
12 8
12 13
12 14
12 22
12 24
12 33
12 36
12 38
12 43
12 47
12 58
12 62
12 63
13 3
13 5
13 8
13 12
13 14
13 16
13 22
13 24
13 36
13 38
13 43
13 48
13 62
13 63
13 64
14 3
14 8
14 12
14 13
14 16
14 24
14 36
14 38
14 43
14 48
14 62
14 63
14 64
15 9
15 17
15 20
15 28
15 32
15 34
15 40
15 41
15 52
15 54
15 61
15 66
15 76
16 3
16 13
16 14
16 36
16 38
16 48
16 63
16 64
17 9
17 15
17 28
17 30
17 32
17 34
17 39
17 40
17 52
17 66
18 6
18 7
18 21
18 25
18 26
18 27
18 35
18 42
18 45
18 53
18 56
18 69
18 73
18 78
19 1
19 2
19 4
19 5
19 22
19 23
19 33
19 46
19 47
19 49
19 50
19 65
19 67
19 72
20 6
20 15
20 25
20 28
20 29
20 34
20 41
20 51
20 54
20 55
20 61
20 77
21 7
21 11
21 18
21 26
21 35
21 37
21 42
21 53
21 56
21 71
21 73
21 78
22 2
22 5
22 8
22 12
22 13
22 19
22 24
22 33
22 43
22 46
22 47
22 49
22 58
22 62
22 65
22 72
23 1
23 4
23 19
23 31
23 44
23 46
23 50
23 59
23 60
23 67
23 74
24 2
24 5
24 8
24 12
24 13
24 14
24 22
24 33
24 36
24 38
24 43
24 47
24 49
24 58
24 62
24 63
24 72
25 6
25 18
25 20
25 27
25 29
25 35
25 45
25 51
25 53
25 55
25 69
25 75
26 7
26 11
26 18
26 21
26 31
26 37
26 42
26 56
26 57
26 59
26 71
26 73
26 79
27 6
27 18
27 25
27 29
27 35
27 42
27 45
27 51
27 53
27 69
27 75
28 15
28 17
28 20
28 29
28 34
28 40
28 41
28 52
28 54
28 55
28 61
28 76
28 77
28 82
29 6
29 20
29 25
29 27
29 28
29 35
29 41
29 45
29 51
29 54
29 55
29 69
29 75
29 77
30 9
30 10
30 17
30 32
30 39
30 40
30 68
30 70
30 80
30 84
31 1
31 11
31 23
31 26
31 37
31 44
31 57
31 59
31 60
31 71
31 79
31 81
32 9
32 10
32 15
32 17
32 30
32 34
32 39
32 40
32 52
32 66
32 70
32 80
33 2
33 5
33 8
33 12
33 19
33 22
33 24
33 43
33 46
33 47
33 49
33 58
33 62
33 65
33 72
33 88
34 15
34 17
34 20
34 28
34 32
34 40
34 41
34 52
34 54
34 61
34 66
34 76
34 82
34 85
35 6
35 7
35 18
35 21
35 25
35 27
35 29
35 42
35 45
35 51
35 53
35 56
35 69
35 78
35 90
36 3
36 12
36 13
36 14
36 16
36 24
36 38
36 43
36 48
36 62
36 63
36 64
36 83
36 86
37 7
37 11
37 21
37 26
37 31
37 42
37 56
37 57
37 59
37 71
37 73
37 79
37 87
37 89
37 93
38 3
38 8
38 12
38 13
38 14
38 16
38 24
38 36
38 43
38 48
38 58
38 62
38 63
38 64
38 83
38 86
39 9
39 10
39 17
39 30
39 32
39 40
39 66
39 68
39 70
39 80
39 84
40 9
40 15
40 17
40 28
40 30
40 32
40 34
40 39
40 52
40 61
40 66
40 70
40 76
40 80
40 85
41 15
41 20
41 28
41 29
41 34
41 51
41 52
41 54
41 55
41 61
41 75
41 76
41 77
41 82
41 97
42 7
42 18
42 21
42 26
42 27
42 35
42 37
42 45
42 53
42 56
42 69
42 71
42 73
42 78
42 87
42 95
42 98
43 5
43 8
43 12
43 13
43 14
43 22
43 24
43 33
43 36
43 38
43 47
43 49
43 58
43 62
43 63
43 64
43 72
43 83
43 88
43 99
44 1
44 4
44 23
44 31
44 50
44 57
44 59
44 60
44 67
44 74
44 81
44 91
44 100
45 6
45 18
45 25
45 27
45 29
45 35
45 42
45 51
45 53
45 55
45 69
45 75
45 78
45 90
46 1
46 2
46 4
46 5
46 19
46 22
46 23
46 33
46 47
46 49
46 50
46 65
46 67
46 72
46 74
46 91
46 92
46 94
46 96
47 2
47 5
47 8
47 12
47 19
47 22
47 24
47 33
47 43
47 46
47 49
47 58
47 62
47 65
47 67
47 72
47 88
47 94
47 96
48 3
48 13
48 14
48 16
48 36
48 38
48 63
48 64
48 83
48 86
48 101
49 2
49 4
49 5
49 8
49 19
49 22
49 24
49 33
49 43
49 46
49 47
49 50
49 58
49 65
49 67
49 72
49 88
49 92
49 94
49 96
50 1
50 4
50 19
50 23
50 44
50 46
50 49
50 59
50 60
50 65
50 67
50 74
50 81
50 91
50 92
50 94
50 100
51 6
51 20
51 25
51 27
51 29
51 35
51 41
51 45
51 54
51 55
51 69
51 75
51 77
51 90
51 105
51 108
52 15
52 17
52 28
52 32
52 34
52 40
52 41
52 54
52 61
52 66
52 76
52 80
52 82
52 85
52 97
52 103
52 104
53 7
53 18
53 21
53 25
53 27
53 35
53 42
53 45
53 56
53 69
53 73
53 78
53 90
53 95
53 98
54 15
54 20
54 28
54 29
54 34
54 41
54 51
54 52
54 55
54 61
54 75
54 76
54 77
54 82
54 85
54 97
54 110
55 20
55 25
55 28
55 29
55 41
55 45
55 51
55 54
55 61
55 69
55 75
55 77
55 82
55 108
55 110
56 7
56 18
56 21
56 26
56 35
56 37
56 42
56 53
56 57
56 69
56 71
56 73
56 78
56 79
56 87
56 93
56 95
56 98
57 11
57 26
57 31
57 37
57 44
57 56
57 59
57 60
57 71
57 73
57 79
57 81
57 87
57 89
57 93
57 100
57 107
58 5
58 8
58 12
58 22
58 24
58 33
58 38
58 43
58 47
58 49
58 62
58 63
58 65
58 72
58 88
58 96
58 99
58 106
59 11
59 23
59 26
59 31
59 37
59 44
59 50
59 57
59 60
59 71
59 74
59 79
59 81
59 89
59 93
59 100
59 117
60 1
60 23
60 31
60 44
60 50
60 57
60 59
60 67
60 74
60 81
60 89
60 91
60 92
60 100
60 118
61 15
61 20
61 28
61 34
61 40
61 41
61 52
61 54
61 55
61 66
61 76
61 77
61 82
61 85
61 97
61 104
61 110
61 114
61 115
62 8
62 12
62 13
62 14
62 22
62 24
62 33
62 36
62 38
62 43
62 47
62 58
62 63
62 64
62 72
62 83
62 86
62 88
62 99
62 106
63 3
63 12
63 13
63 14
63 16
63 24
63 36
63 38
63 43
63 48
63 58
63 62
63 64
63 83
63 86
63 99
63 101
64 3
64 13
64 14
64 16
64 36
64 38
64 43
64 48
64 62
64 63
64 83
64 86
64 101
65 2
65 19
65 22
65 33
65 46
65 47
65 49
65 50
65 58
65 67
65 72
65 74
65 88
65 91
65 92
65 94
65 96
65 106
65 112
65 120
66 15
66 17
66 32
66 34
66 39
66 40
66 52
66 61
66 70
66 76
66 80
66 82
66 84
66 85
66 97
66 103
66 104
66 109
67 4
67 19
67 23
67 44
67 46
67 47
67 49
67 50
67 60
67 65
67 72
67 74
67 91
67 92
67 94
67 96
67 120
68 10
68 30
68 39
68 70
68 80
68 84
68 102
68 111
69 6
69 18
69 25
69 27
69 29
69 35
69 42
69 45
69 51
69 53
69 55
69 56
69 75
69 78
69 90
69 95
69 105
69 113
69 116
70 10
70 30
70 32
70 39
70 40
70 66
70 68
70 80
70 84
70 102
70 103
70 109
70 111
71 11
71 21
71 26
71 31
71 37
71 42
71 56
71 57
71 59
71 73
71 78
71 79
71 81
71 87
71 89
71 93
71 98
71 107
71 119
71 125
72 5
72 19
72 22
72 24
72 33
72 43
72 46
72 47
72 49
72 58
72 62
72 65
72 67
72 88
72 92
72 94
72 96
72 99
72 106
72 112
73 7
73 18
73 21
73 26
73 37
73 42
73 53
73 56
73 57
73 71
73 78
73 79
73 87
73 89
73 93
73 95
73 98
73 107
73 121
73 126
74 23
74 44
74 46
74 50
74 59
74 60
74 65
74 67
74 81
74 91
74 92
74 94
74 100
74 118
74 127
74 129
75 25
75 27
75 29
75 41
75 45
75 51
75 54
75 55
75 69
75 77
75 90
75 105
75 108
75 110
75 113
75 124
76 15
76 28
76 34
76 40
76 41
76 52
76 54
76 61
76 66
76 80
76 82
76 85
76 97
76 103
76 104
76 109
76 114
76 115
77 20
77 28
77 29
77 41
77 51
77 54
77 55
77 61
77 75
77 82
77 97
77 105
77 108
77 110
77 115
77 124
78 18
78 21
78 35
78 42
78 45
78 53
78 56
78 69
78 71
78 73
78 87
78 90
78 93
78 95
78 98
78 107
78 113
78 116
78 121
78 126
79 26
79 31
79 37
79 56
79 57
79 59
79 71
79 73
79 81
79 87
79 89
79 93
79 98
79 100
79 107
79 117
79 119
79 125
80 30
80 32
80 39
80 40
80 52
80 66
80 68
80 70
80 76
80 84
80 85
80 102
80 103
80 104
80 109
80 111
80 123
81 31
81 44
81 50
81 57
81 59
81 60
81 71
81 74
81 79
81 89
81 91
81 93
81 100
81 117
81 118
81 119
81 129
82 28
82 34
82 41
82 52
82 54
82 55
82 61
82 66
82 76
82 77
82 85
82 97
82 104
82 108
82 110
82 114
82 115
83 36
83 38
83 43
83 48
83 62
83 63
83 64
83 86
83 99
83 101
83 122
83 128
83 132
84 30
84 39
84 66
84 68
84 70
84 80
84 102
84 103
84 109
84 111
84 123
85 34
85 40
85 52
85 54
85 61
85 66
85 76
85 80
85 82
85 97
85 103
85 104
85 109
85 114
85 115
85 123
86 36
86 38
86 48
86 62
86 63
86 64
86 83
86 101
86 122
86 132
87 37
87 42
87 56
87 57
87 71
87 73
87 78
87 79
87 89
87 93
87 95
87 98
87 107
87 119
87 121
87 125
87 126
88 33
88 43
88 47
88 49
88 58
88 62
88 65
88 72
88 94
88 96
88 99
88 106
88 112
88 120
88 130
88 131
88 133
89 37
89 57
89 59
89 60
89 71
89 73
89 79
89 81
89 87
89 93
89 100
89 107
89 117
89 118
89 119
89 125
90 35
90 45
90 51
90 53
90 69
90 75
90 78
90 95
90 98
90 105
90 108
90 113
90 116
90 121
90 124
91 44
91 46
91 50
91 60
91 65
91 67
91 74
91 81
91 92
91 94
91 100
91 117
91 118
91 120
91 127
91 129
92 46
92 49
92 50
92 60
92 65
92 67
92 72
92 74
92 91
92 94
92 96
92 100
92 112
92 118
92 120
92 127
92 129
92 130
93 37
93 56
93 57
93 59
93 71
93 73
93 78
93 79
93 81
93 87
93 89
93 98
93 107
93 117
93 119
93 125
93 126
94 46
94 47
94 49
94 50
94 65
94 67
94 72
94 74
94 88
94 91
94 92
94 96
94 106
94 112
94 120
94 127
94 130
94 131
95 42
95 53
95 56
95 69
95 73
95 78
95 87
95 90
95 98
95 105
95 107
95 113
95 116
95 121
95 126
96 46
96 47
96 49
96 58
96 65
96 67
96 72
96 88
96 92
96 94
96 99
96 106
96 112
96 120
96 130
96 131
97 41
97 52
97 54
97 61
97 66
97 76
97 77
97 82
97 85
97 103
97 104
97 108
97 110
97 114
97 115
98 42
98 53
98 56
98 71
98 73
98 78
98 79
98 87
98 90
98 93
98 95
98 107
98 113
98 116
98 121
98 125
98 126
99 43
99 58
99 62
99 63
99 72
99 83
99 88
99 96
99 106
99 112
99 122
99 128
99 131
99 133
100 44
100 50
100 57
100 59
100 60
100 74
100 79
100 81
100 89
100 91
100 92
100 117
100 118
100 119
100 127
100 129
101 48
101 63
101 64
101 83
101 86
101 122
101 128
101 132
101 134
102 68
102 70
102 80
102 84
102 103
102 109
102 111
102 123
102 135
103 52
103 66
103 70
103 76
103 80
103 84
103 85
103 97
103 102
103 104
103 109
103 114
103 123
103 136
104 52
104 61
104 66
104 76
104 80
104 82
104 85
104 97
104 103
104 109
104 110
104 114
104 115
104 123
104 138
105 51
105 69
105 75
105 77
105 90
105 95
105 108
105 113
105 116
105 124
106 58
106 62
106 65
106 72
106 88
106 94
106 96
106 99
106 112
106 120
106 128
106 130
106 131
106 133
107 57
107 71
107 73
107 78
107 79
107 87
107 89
107 93
107 95
107 98
107 117
107 119
107 121
107 125
107 126
107 137
107 143
108 51
108 55
108 75
108 77
108 82
108 90
108 97
108 105
108 110
108 113
108 115
108 124
108 141
109 66
109 70
109 76
109 80
109 84
109 85
109 102
109 103
109 104
109 111
109 114
109 123
109 135
109 136
109 139
110 54
110 55
110 61
110 75
110 77
110 82
110 97
110 104
110 108
110 114
110 115
110 124
110 141
111 68
111 70
111 80
111 84
111 102
111 109
111 123
111 135
112 65
112 72
112 88
112 92
112 94
112 96
112 99
112 106
112 120
112 127
112 130
112 131
112 133
113 69
113 75
113 78
113 90
113 95
113 98
113 105
113 108
113 116
113 121
113 124
113 148
114 61
114 76
114 82
114 85
114 97
114 103
114 104
114 109
114 110
114 115
114 138
114 142
115 61
115 76
115 77
115 82
115 85
115 97
115 104
115 108
115 110
115 114
115 124
115 141
115 142
115 147
116 69
116 78
116 90
116 95
116 98
116 105
116 113
116 121
116 126
116 140
116 150
117 59
117 79
117 81
117 89
117 91
117 93
117 100
117 107
117 118
117 119
117 125
117 127
117 129
117 146
118 60
118 74
118 81
118 89
118 91
118 92
118 100
118 117
118 119
118 127
118 129
119 71
119 79
119 81
119 87
119 89
119 93
119 100
119 107
119 117
119 118
119 125
119 126
119 129
119 146
120 65
120 67
120 88
120 91
120 92
120 94
120 96
120 106
120 112
120 127
120 129
120 130
120 131
120 144
121 73
121 78
121 87
121 90
121 95
121 98
121 107
121 113
121 116
121 125
121 126
121 137
121 140
121 150
122 83
122 86
122 99
122 101
122 128
122 132
122 133
122 134
122 145
123 80
123 84
123 85
123 102
123 103
123 104
123 109
123 111
123 135
123 136
123 139
124 75
124 77
124 90
124 105
124 108
124 110
124 113
124 115
124 141
124 148
124 151
125 71
125 79
125 87
125 89
125 93
125 98
125 107
125 117
125 119
125 121
125 126
125 137
125 143
125 146
125 158
126 73
126 78
126 87
126 93
126 95
126 98
126 107
126 116
126 119
126 121
126 125
126 137
126 140
126 143
127 74
127 91
127 92
127 94
127 100
127 112
127 117
127 118
127 120
127 129
127 130
127 144
127 149
128 83
128 99
128 101
128 106
128 122
128 131
128 132
128 133
128 134
128 145
128 152
129 74
129 81
129 91
129 92
129 100
129 117
129 118
129 119
129 120
129 127
129 149
129 160
130 88
130 92
130 94
130 96
130 106
130 112
130 120
130 127
130 131
130 133
130 144
130 153
130 154
130 157
131 88
131 94
131 96
131 99
131 106
131 112
131 120
131 128
131 130
131 133
131 153
131 154
131 155
132 83
132 86
132 101
132 122
132 128
132 134
132 145
132 163
133 88
133 99
133 106
133 112
133 122
133 128
133 130
133 131
133 134
133 145
133 152
133 153
133 154
133 155
133 167
134 101
134 122
134 128
134 132
134 133
134 145
134 152
134 163
134 166
134 169
135 102
135 109
135 111
135 123
135 136
135 139
135 168
135 170
135 183
136 103
136 109
136 123
136 135
136 138
136 139
136 156
136 168
136 170
136 172
136 173
136 183
137 107
137 121
137 125
137 126
137 140
137 143
137 146
137 150
137 158
137 162
137 174
137 185
138 104
138 114
138 136
138 139
138 142
138 156
138 159
138 170
138 172
138 173
138 184
139 109
139 123
139 135
139 136
139 138
139 142
139 156
139 168
139 170
139 172
139 173
139 197
140 116
140 121
140 126
140 137
140 143
140 148
140 150
140 162
140 171
140 174
140 185
140 189
141 108
141 110
141 115
141 124
141 142
141 147
141 148
141 151
141 159
141 164
141 175
141 176
141 178
141 193
142 114
142 115
142 138
142 139
142 141
142 147
142 156
142 159
142 173
142 175
142 184
142 193
142 198
142 200
143 107
143 125
143 126
143 137
143 140
143 146
143 158
143 162
143 174
143 182
143 185
143 186
143 196
144 120
144 127
144 130
144 149
144 153
144 154
144 157
144 165
144 179
144 180
144 187
145 122
145 128
145 132
145 133
145 134
145 152
145 155
145 163
145 166
145 167
145 169
145 188
145 201
145 202
146 117
146 119
146 125
146 137
146 143
146 149
146 158
146 160
146 161
146 177
146 182
146 186
147 115
147 141
147 142
147 151
147 156
147 159
147 164
147 175
147 178
147 184
147 193
147 200
147 204
148 113
148 124
148 140
148 141
148 150
148 151
148 162
148 164
148 171
148 176
148 178
148 191
148 194
149 127
149 129
149 144
149 146
149 157
149 160
149 161
149 165
149 177
149 180
149 181
149 187
149 207
150 116
150 121
150 137
150 140
150 148
150 151
150 162
150 164
150 171
150 174
150 176
150 189
150 191
150 194
151 124
151 141
151 147
151 148
151 150
151 159
151 164
151 171
151 176
151 178
151 191
151 193
151 204
151 211
152 128
152 133
152 134
152 145
152 153
152 154
152 155
152 163
152 166
152 167
152 169
152 179
152 192
152 195
152 201
153 130
153 131
153 133
153 144
153 152
153 154
153 155
153 157
153 165
153 167
153 179
153 180
153 192
153 209
153 210
154 130
154 131
154 133
154 144
154 152
154 153
154 155
154 157
154 167
154 179
154 192
154 195
154 210
154 212
155 131
155 133
155 145
155 152
155 153
155 154
155 157
155 166
155 167
155 179
155 192
155 195
155 212
156 136
156 138
156 139
156 142
156 147
156 159
156 170
156 172
156 173
156 175
156 184
156 197
156 198
156 200
157 130
157 144
157 149
157 153
157 154
157 155
157 165
157 179
157 180
157 187
157 192
157 208
157 209
157 210
158 125
158 137
158 143
158 146
158 160
158 161
158 174
158 177
158 182
158 185
158 186
158 205
159 138
159 141
159 142
159 147
159 151
159 156
159 173
159 175
159 178
159 184
159 193
159 198
159 200
159 204
160 129
160 146
160 149
160 158
160 161
160 165
160 177
160 180
160 181
160 186
160 187
160 206
160 207
160 217
161 146
161 149
161 158
161 160
161 177
161 181
161 182
161 186
161 187
161 206
161 207
161 217
162 137
162 140
162 143
162 148
162 150
162 164
162 171
162 174
162 176
162 185
162 189
162 191
162 194
162 196
162 214
163 132
163 134
163 145
163 152
163 166
163 169
163 188
163 199
163 201
163 202
164 141
164 147
164 148
164 150
164 151
164 162
164 171
164 176
164 178
164 191
164 194
164 204
164 211
164 215
164 216
165 144
165 149
165 153
165 157
165 160
165 180
165 181
165 187
165 207
165 208
165 209
166 134
166 145
166 152
166 155
166 163
166 167
166 169
166 188
166 192
166 195
166 199
166 201
166 202
167 133
167 145
167 152
167 153
167 154
167 155
167 166
167 169
167 179
167 192
167 195
167 201
167 210
167 212
167 219
167 222
168 135
168 136
168 139
168 170
168 172
168 183
168 190
168 197
168 203
168 213
168 218
169 134
169 145
169 152
169 163
169 166
169 167
169 188
169 195
169 199
169 201
169 202
170 135
170 136
170 138
170 139
170 156
170 168
170 172
170 173
170 183
170 190
170 197
170 198
170 203
170 213
170 226
171 140
171 148
171 150
171 151
171 162
171 164
171 174
171 176
171 178
171 189
171 191
171 194
171 211
171 216
171 220
172 136
172 138
172 139
172 156
172 168
172 170
172 173
172 183
172 184
172 197
172 198
172 200
172 203
172 226
172 227
173 136
173 138
173 139
173 142
173 156
173 159
173 170
173 172
173 175
173 183
173 184
173 197
173 198
173 200
173 203
173 221
173 227
174 137
174 140
174 143
174 150
174 158
174 162
174 171
174 182
174 185
174 189
174 194
174 196
174 205
174 214
175 141
175 142
175 147
175 156
175 159
175 173
175 178
175 184
175 193
175 198
175 200
175 204
175 215
175 221
175 223
175 231
176 141
176 148
176 150
176 151
176 162
176 164
176 171
176 178
176 191
176 194
176 204
176 211
176 215
176 216
176 220
176 232
176 234
177 146
177 149
177 158
177 160
177 161
177 181
177 182
177 186
177 187
177 205
177 206
177 207
177 217
177 224
177 228
177 229
178 141
178 147
178 148
178 151
178 159
178 164
178 171
178 175
178 176
178 191
178 193
178 200
178 204
178 211
178 215
178 216
178 223
178 237
179 144
179 152
179 153
179 154
179 155
179 157
179 167
179 180
179 192
179 195
179 209
179 210
179 212
179 219
179 222
179 225
179 235
180 144
180 149
180 153
180 157
180 160
180 165
180 179
180 181
180 187
180 207
180 208
180 209
180 210
180 225
180 233
181 149
181 160
181 161
181 165
181 177
181 180
181 186
181 187
181 206
181 207
181 208
181 209
181 217
181 224
181 228
181 233
181 241
182 143
182 146
182 158
182 161
182 174
182 177
182 185
182 186
182 196
182 205
182 206
182 224
182 228
182 229
183 135
183 136
183 168
183 170
183 172
183 173
183 190
183 197
183 203
183 213
183 218
183 226
183 227
183 230
184 138
184 142
184 147
184 156
184 159
184 172
184 173
184 175
184 193
184 197
184 198
184 200
184 203
184 204
184 221
184 223
184 227
184 231
184 244
185 137
185 140
185 143
185 158
185 162
185 174
185 182
185 186
185 189
185 196
185 205
185 214
185 229
185 242
186 143
186 146
186 158
186 160
186 161
186 177
186 181
186 182
186 185
186 196
186 205
186 206
186 207
186 217
186 224
186 228
186 229
187 144
187 149
187 157
187 160
187 161
187 165
187 177
187 180
187 181
187 206
187 207
187 208
187 209
187 217
187 225
187 233
187 241
188 145
188 163
188 166
188 169
188 199
188 201
188 202
189 140
189 150
189 162
189 171
189 174
189 185
189 191
189 194
189 196
189 214
189 220
189 236
189 238
189 242
190 168
190 170
190 183
190 197
190 203
190 213
190 218
190 226
190 230
191 148
191 150
191 151
191 162
191 164
191 171
191 176
191 178
191 189
191 194
191 204
191 211
191 214
191 215
191 216
191 220
191 232
191 234
191 236
191 240
192 152
192 153
192 154
192 155
192 157
192 166
192 167
192 179
192 195
192 201
192 209
192 210
192 212
192 219
192 222
192 225
192 235
192 245
193 141
193 142
193 147
193 151
193 159
193 175
193 178
193 184
193 198
193 200
193 204
193 211
193 215
193 221
193 223
193 231
193 237
193 247
194 148
194 150
194 162
194 164
194 171
194 174
194 176
194 189
194 191
194 196
194 211
194 214
194 216
194 220
194 232
194 234
194 236
194 238
195 152
195 154
195 155
195 166
195 167
195 169
195 179
195 192
195 201
195 202
195 210
195 212
195 219
195 222
195 245
195 248
195 249
196 143
196 162
196 174
196 182
196 185
196 186
196 189
196 194
196 205
196 214
196 220
196 229
196 236
196 238
196 242
196 246
197 139
197 156
197 168
197 170
197 172
197 173
197 183
197 184
197 190
197 198
197 200
197 203
197 213
197 221
197 226
197 227
197 230
197 239
197 243
198 142
198 156
198 159
198 170
198 172
198 173
198 175
198 184
198 193
198 197
198 200
198 203
198 221
198 226
198 227
198 231
198 239
198 243
198 244
199 163
199 166
199 169
199 188
199 201
199 202
200 142
200 147
200 156
200 159
200 172
200 173
200 175
200 178
200 184
200 193
200 197
200 198
200 204
200 221
200 223
200 227
200 231
200 237
200 243
200 244
200 247
201 145
201 152
201 163
201 166
201 167
201 169
201 188
201 192
201 195
201 199
201 202
201 212
201 222
201 248
201 249
201 253
202 145
202 163
202 166
202 169
202 188
202 195
202 199
202 201
202 222
202 249
202 253
203 168
203 170
203 172
203 173
203 183
203 184
203 190
203 197
203 198
203 213
203 218
203 221
203 226
203 227
203 230
203 239
203 243
203 261
203 262
204 147
204 151
204 159
204 164
204 175
204 176
204 178
204 184
204 191
204 193
204 200
204 211
204 215
204 216
204 221
204 223
204 231
204 232
204 237
204 240
204 247
205 158
205 174
205 177
205 182
205 185
205 186
205 196
205 206
205 214
205 224
205 228
205 229
205 242
205 246
205 250
205 264
206 160
206 161
206 177
206 181
206 182
206 186
206 187
206 205
206 207
206 208
206 217
206 224
206 228
206 229
206 233
206 241
206 250
206 251
206 252
207 149
207 160
207 161
207 165
207 177
207 180
207 181
207 186
207 187
207 206
207 208
207 209
207 217
207 224
207 228
207 233
207 241
207 251
207 252
207 257
208 157
208 165
208 180
208 181
208 187
208 206
208 207
208 209
208 210
208 217
208 225
208 233
208 235
208 241
208 252
208 257
208 258
209 153
209 157
209 165
209 179
209 180
209 181
209 187
209 192
209 207
209 208
209 210
209 212
209 219
209 225
209 233
209 235
209 241
209 257
209 258
209 259
210 153
210 154
210 157
210 167
210 179
210 180
210 192
210 195
210 208
210 209
210 212
210 219
210 222
210 225
210 235
210 245
210 258
210 259
211 151
211 164
211 171
211 176
211 178
211 191
211 193
211 194
211 204
211 215
211 216
211 220
211 223
211 232
211 234
211 236
211 237
211 240
211 256
211 268
212 154
212 155
212 167
212 179
212 192
212 195
212 201
212 209
212 210
212 219
212 222
212 235
212 245
212 248
212 249
212 265
212 266
213 168
213 170
213 183
213 190
213 197
213 203
213 218
213 226
213 227
213 230
213 239
213 260
213 262
214 162
214 174
214 185
214 189
214 191
214 194
214 196
214 205
214 220
214 234
214 236
214 238
214 242
214 246
214 254
214 255
214 271
215 164
215 175
215 176
215 178
215 191
215 193
215 204
215 211
215 216
215 220
215 223
215 231
215 232
215 234
215 237
215 240
215 247
215 256
215 268
215 277
216 164
216 171
216 176
216 178
216 191
216 194
216 204
216 211
216 215
216 220
216 223
216 232
216 234
216 236
216 237
216 240
216 254
216 256
216 267
216 268
217 160
217 161
217 177
217 181
217 186
217 187
217 206
217 207
217 208
217 224
217 228
217 229
217 233
217 241
217 250
217 251
217 252
217 257
217 274
218 168
218 183
218 190
218 203
218 213
218 226
218 230
218 239
218 260
218 262
219 167
219 179
219 192
219 195
219 209
219 210
219 212
219 222
219 225
219 235
219 245
219 248
219 249
219 258
219 259
219 265
219 266
219 279
220 171
220 176
220 189
220 191
220 194
220 196
220 211
220 214
220 215
220 216
220 232
220 234
220 236
220 238
220 240
220 242
220 254
220 255
220 256
220 267
220 268
220 271
220 278
221 173
221 175
221 184
221 193
221 197
221 198
221 200
221 203
221 204
221 223
221 227
221 231
221 237
221 239
221 243
221 244
221 247
221 263
221 270
221 272
222 167
222 179
222 192
222 195
222 201
222 202
222 210
222 212
222 219
222 245
222 248
222 249
222 253
222 265
222 266
222 269
223 175
223 178
223 184
223 193
223 200
223 204
223 211
223 215
223 216
223 221
223 231
223 232
223 237
223 240
223 244
223 247
223 256
223 272
223 276
223 277
224 177
224 181
224 182
224 186
224 205
224 206
224 207
224 217
224 228
224 229
224 246
224 250
224 251
224 252
224 264
224 280
225 179
225 180
225 187
225 192
225 208
225 209
225 210
225 219
225 233
225 235
225 241
225 245
225 257
225 258
225 259
225 275
226 170
226 172
226 183
226 190
226 197
226 198
226 203
226 213
226 218
226 227
226 230
226 239
226 243
226 260
226 261
226 262
226 263
227 172
227 173
227 183
227 184
227 197
227 198
227 200
227 203
227 213
227 221
227 226
227 230
227 231
227 239
227 243
227 244
227 261
227 262
227 263
227 270
228 177
228 181
228 182
228 186
228 205
228 206
228 207
228 217
228 224
228 229
228 233
228 241
228 250
228 251
228 252
228 257
228 264
228 274
228 280
228 281
229 177
229 182
229 185
229 186
229 196
229 205
229 206
229 217
229 224
229 228
229 242
229 246
229 250
229 251
229 264
229 280
230 183
230 190
230 197
230 203
230 213
230 218
230 226
230 227
230 239
230 243
230 260
230 261
230 262
230 263
230 283
231 175
231 184
231 193
231 198
231 200
231 204
231 215
231 221
231 223
231 227
231 237
231 243
231 244
231 247
231 263
231 270
231 272
231 276
232 176
232 191
232 194
232 204
232 211
232 215
232 216
232 220
232 223
232 234
232 236
232 237
232 240
232 254
232 255
232 256
232 267
232 268
232 277
232 278
232 284
233 180
233 181
233 187
233 206
233 207
233 208
233 209
233 217
233 225
233 228
233 235
233 241
233 251
233 252
233 257
233 258
233 259
233 274
233 275
233 287
233 288
233 289
234 176
234 191
234 194
234 211
234 214
234 215
234 216
234 220
234 232
234 236
234 238
234 240
234 254
234 255
234 256
234 267
234 268
234 271
234 277
234 278
234 284
235 179
235 192
235 208
235 209
235 210
235 212
235 219
235 225
235 233
235 245
235 248
235 257
235 258
235 259
235 266
235 275
235 279
235 286
235 289
236 189
236 191
236 194
236 196
236 211
236 214
236 216
236 220
236 232
236 234
236 238
236 240
236 242
236 254
236 255
236 256
236 267
236 268
236 271
236 273
236 278
236 284
236 291
237 178
237 193
237 200
237 204
237 211
237 215
237 216
237 221
237 223
237 231
237 232
237 240
237 244
237 247
237 256
237 268
237 272
237 276
237 277
237 301
238 189
238 194
238 196
238 214
238 220
238 234
238 236
238 242
238 246
238 254
238 255
238 267
238 271
238 273
238 278
238 291
238 293
239 197
239 198
239 203
239 213
239 218
239 221
239 226
239 227
239 230
239 243
239 244
239 260
239 261
239 262
239 263
239 270
239 283
239 285
239 292
239 297
239 303
240 191
240 204
240 211
240 215
240 216
240 220
240 223
240 232
240 234
240 236
240 237
240 247
240 254
240 256
240 267
240 268
240 276
240 277
240 284
240 304
241 181
241 187
241 206
241 207
241 208
241 209
241 217
241 225
241 228
241 233
241 250
241 251
241 252
241 257
241 258
241 274
241 275
241 280
241 281
241 287
241 288
241 289
242 185
242 189
242 196
242 205
242 214
242 220
242 229
242 236
242 238
242 246
242 254
242 255
242 264
242 271
242 273
242 278
242 290
242 291
242 293
243 197
243 198
243 200
243 203
243 221
243 226
243 227
243 230
243 231
243 239
243 244
243 261
243 262
243 263
243 270
243 272
243 285
243 292
243 303
243 305
244 184
244 198
244 200
244 221
244 223
244 227
244 231
244 237
244 239
244 243
244 247
244 261
244 263
244 270
244 272
244 276
244 292
244 299
244 305
245 192
245 195
245 210
245 212
245 219
245 222
245 225
245 235
245 248
245 249
245 258
245 259
245 265
245 266
245 269
245 279
245 286
245 294
245 309
246 196
246 205
246 214
246 224
246 229
246 238
246 242
246 250
246 255
246 264
246 271
246 273
246 280
246 290
246 291
246 293
246 307
246 311
247 193
247 200
247 204
247 215
247 221
247 223
247 231
247 237
247 240
247 244
247 256
247 263
247 268
247 270
247 272
247 276
247 277
247 299
247 301
247 304
247 308
248 195
248 201
248 212
248 219
248 222
248 235
248 245
248 249
248 253
248 259
248 265
248 266
248 269
248 279
248 294
248 298
248 309
249 195
249 201
249 202
249 212
249 219
249 222
249 245
249 248
249 253
249 265
249 266
249 269
249 294
249 295
249 298
249 309
250 205
250 206
250 217
250 224
250 228
250 229
250 241
250 246
250 251
250 252
250 264
250 274
250 280
250 281
250 290
250 296
250 307
251 206
251 207
251 217
251 224
251 228
251 229
251 233
251 241
251 250
251 252
251 257
251 264
251 274
251 275
251 280
251 281
251 287
251 288
251 296
251 315
252 206
252 207
252 208
252 217
252 224
252 228
252 233
252 241
252 250
252 251
252 257
252 258
252 274
252 275
252 280
252 281
252 287
252 288
252 289
252 296
252 310
252 315
253 201
253 202
253 222
253 248
253 249
253 265
253 269
253 282
253 295
253 298
253 300
254 214
254 216
254 220
254 232
254 234
254 236
254 238
254 240
254 242
254 255
254 256
254 267
254 268
254 271
254 273
254 278
254 284
254 291
254 306
254 313
255 214
255 220
255 232
255 234
255 236
255 238
255 242
255 246
255 254
255 267
255 268
255 271
255 273
255 278
255 284
255 291
255 293
255 306
256 211
256 215
256 216
256 220
256 223
256 232
256 234
256 236
256 237
256 240
256 247
256 254
256 267
256 268
256 276
256 277
256 278
256 284
256 304
256 314
257 207
257 208
257 209
257 217
257 225
257 228
257 233
257 235
257 241
257 251
257 252
257 258
257 259
257 274
257 275
257 281
257 286
257 287
257 288
257 289
257 310
258 208
258 209
258 210
258 219
258 225
258 233
258 235
258 241
258 245
258 252
258 257
258 259
258 266
258 274
258 275
258 279
258 286
258 287
258 288
258 289
259 209
259 210
259 219
259 225
259 233
259 235
259 245
259 248
259 257
259 258
259 265
259 266
259 275
259 279
259 286
259 288
259 289
259 294
260 213
260 218
260 226
260 230
260 239
260 261
260 262
260 283
260 285
260 297
260 302
260 312
261 203
261 226
261 227
261 230
261 239
261 243
261 244
261 260
261 262
261 263
261 270
261 283
261 285
261 292
261 297
261 303
261 305
261 312
261 317
261 318
262 203
262 213
262 218
262 226
262 227
262 230
262 239
262 243
262 260
262 261
262 263
262 283
262 285
262 292
262 297
262 302
262 303
262 312
262 317
262 318
263 221
263 226
263 227
263 230
263 231
263 239
263 243
263 244
263 247
263 261
263 262
263 270
263 272
263 285
263 292
263 299
263 303
263 305
263 316
263 318
264 205
264 224
264 228
264 229
264 242
264 246
264 250
264 251
264 273
264 280
264 281
264 290
264 293
264 296
264 307
264 311
264 323
264 324
265 212
265 219
265 222
265 245
265 248
265 249
265 253
265 259
265 266
265 269
265 279
265 294
265 298
265 309
265 319
265 321
265 335
266 212
266 219
266 222
266 235
266 245
266 248
266 249
266 258
266 259
266 265
266 269
266 279
266 286
266 294
266 309
266 319
267 216
267 220
267 232
267 234
267 236
267 238
267 240
267 254
267 255
267 256
267 268
267 271
267 276
267 277
267 278
267 284
267 291
267 304
267 306
267 313
267 314
267 326
267 330
267 332
268 211
268 215
268 216
268 220
268 232
268 234
268 236
268 237
268 240
268 247
268 254
268 255
268 256
268 267
268 271
268 276
268 277
268 278
268 284
268 301
268 304
268 313
268 314
268 325
268 326
268 330
269 222
269 245
269 248
269 249
269 253
269 265
269 266
269 282
269 294
269 295
269 298
269 309
269 320
269 321
269 338
270 221
270 227
270 231
270 239
270 243
270 244
270 247
270 261
270 263
270 272
270 276
270 285
270 292
270 299
270 301
270 303
270 305
270 308
270 316
270 318
270 328
271 214
271 220
271 234
271 236
271 238
271 242
271 246
271 254
271 255
271 267
271 268
271 273
271 278
271 284
271 291
271 293
271 306
271 311
271 313
271 332
272 221
272 223
272 231
272 237
272 243
272 244
272 247
272 263
272 270
272 276
272 277
272 292
272 299
272 301
272 304
272 305
272 308
272 316
272 328
272 333
272 334
273 236
273 238
273 242
273 246
273 254
273 255
273 264
273 271
273 278
273 290
273 291
273 293
273 306
273 307
273 311
273 323
273 342
274 217
274 228
274 233
274 241
274 250
274 251
274 252
274 257
274 258
274 275
274 280
274 281
274 287
274 288
274 289
274 296
274 310
274 315
274 329
274 337
274 340
275 225
275 233
275 235
275 241
275 251
275 252
275 257
275 258
275 259
275 274
275 281
275 286
275 287
275 288
275 289
275 310
275 315
275 329
275 340
276 223
276 231
276 237
276 240
276 244
276 247
276 256
276 267
276 268
276 270
276 272
276 277
276 299
276 301
276 304
276 308
276 314
276 325
276 330
276 333
276 334
277 215
277 223
277 232
277 234
277 237
277 240
277 247
277 256
277 267
277 268
277 272
277 276
277 278
277 284
277 301
277 304
277 308
277 313
277 314
277 325
277 330
277 334
278 220
278 232
278 234
278 236
278 238
278 242
278 254
278 255
278 256
278 267
278 268
278 271
278 273
278 277
278 284
278 291
278 306
278 313
278 314
278 326
278 332
278 344
279 219
279 235
279 245
279 248
279 258
279 259
279 265
279 266
279 286
279 289
279 294
279 309
279 319
279 327
279 341
280 224
280 228
280 229
280 241
280 246
280 250
280 251
280 252
280 264
280 274
280 281
280 287
280 290
280 293
280 296
280 307
280 310
280 315
280 323
280 324
280 331
280 337
280 339
280 349
281 228
281 241
281 250
281 251
281 252
281 257
281 264
281 274
281 275
281 280
281 287
281 288
281 290
281 296
281 307
281 310
281 315
281 324
281 329
281 331
281 337
281 339
281 349
282 253
282 269
282 295
282 298
282 300
282 320
282 321
282 322
282 336
282 348
283 230
283 239
283 260
283 261
283 262
283 285
283 297
283 302
283 303
283 312
283 317
283 346
283 347
283 355
284 232
284 234
284 236
284 240
284 254
284 255
284 256
284 267
284 268
284 271
284 277
284 278
284 291
284 304
284 306
284 313
284 314
284 325
284 326
284 330
284 332
284 344
285 239
285 243
285 260
285 261
285 262
285 263
285 270
285 283
285 292
285 297
285 302
285 303
285 305
285 312
285 316
285 317
285 318
285 347
285 350
285 357
286 235
286 245
286 257
286 258
286 259
286 266
286 275
286 279
286 288
286 289
286 294
286 310
286 319
286 327
286 340
286 341
286 343
286 356
287 233
287 241
287 251
287 252
287 257
287 258
287 274
287 275
287 280
287 281
287 288
287 289
287 296
287 310
287 315
287 329
287 331
287 337
287 340
287 352
288 233
288 241
288 251
288 252
288 257
288 258
288 259
288 274
288 275
288 281
288 286
288 287
288 289
288 310
288 315
288 327
288 329
288 337
288 340
288 343
288 352
289 233
289 235
289 241
289 252
289 257
289 258
289 259
289 274
289 275
289 279
289 286
289 287
289 288
289 294
289 310
289 315
289 327
289 329
289 340
289 341
289 343
289 352
290 242
290 246
290 250
290 264
290 273
290 280
290 281
290 291
290 293
290 296
290 307
290 311
290 323
290 324
290 331
290 339
290 345
290 351
291 236
291 238
291 242
291 246
291 254
291 255
291 267
291 271
291 273
291 278
291 284
291 290
291 293
291 306
291 307
291 311
291 313
291 323
291 326
291 332
291 342
291 344
292 239
292 243
292 244
292 261
292 262
292 263
292 270
292 272
292 285
292 297
292 299
292 303
292 305
292 308
292 312
292 316
292 317
292 318
292 328
292 350
292 357
292 359
293 238
293 242
293 246
293 255
293 264
293 271
293 273
293 280
293 290
293 291
293 296
293 306
293 307
293 311
293 323
293 324
293 342
293 345
293 351
294 245
294 248
294 249
294 259
294 265
294 266
294 269
294 279
294 286
294 289
294 298
294 309
294 319
294 321
294 327
294 335
294 341
294 353
294 354
294 356
295 249
295 253
295 269
295 282
295 298
295 300
295 309
295 320
295 321
295 322
295 336
295 338
295 348
295 360
296 250
296 251
296 252
296 264
296 274
296 280
296 281
296 287
296 290
296 293
296 307
296 310
296 311
296 315
296 323
296 324
296 329
296 331
296 337
296 339
296 345
296 349
296 351
297 239
297 260
297 261
297 262
297 283
297 285
297 292
297 302
297 303
297 312
297 317
297 318
297 346
297 347
297 350
297 355
298 248
298 249
298 253
298 265
298 269
298 282
298 294
298 295
298 300
298 309
298 320
298 321
298 322
298 335
298 336
298 338
298 354
298 358
298 360
299 244
299 247
299 263
299 270
299 272
299 276
299 292
299 301
299 303
299 304
299 305
299 308
299 316
299 318
299 325
299 328
299 333
299 334
299 359
299 362
300 253
300 282
300 295
300 298
300 320
300 321
300 322
300 336
300 348
301 237
301 247
301 268
301 270
301 272
301 276
301 277
301 299
301 304
301 305
301 308
301 314
301 316
301 325
301 328
301 330
301 333
301 334
301 361
301 364
302 260
302 262
302 283
302 285
302 297
302 303
302 312
302 317
302 346
302 347
302 355
303 239
303 243
303 261
303 262
303 263
303 270
303 283
303 285
303 292
303 297
303 299
303 302
303 305
303 312
303 316
303 317
303 318
303 328
303 347
303 350
303 357
303 359
303 363
303 367
304 240
304 247
304 256
304 267
304 268
304 272
304 276
304 277
304 284
304 299
304 301
304 308
304 313
304 314
304 325
304 326
304 330
304 333
304 334
304 361
305 243
305 244
305 261
305 263
305 270
305 272
305 285
305 292
305 299
305 301
305 303
305 308
305 316
305 317
305 318
305 328
305 333
305 334
305 350
305 357
305 359
305 362
305 368
306 254
306 255
306 267
306 271
306 273
306 278
306 284
306 291
306 293
306 311
306 313
306 326
306 332
306 342
306 344
306 366
306 369
307 246
307 250
307 264
307 273
307 280
307 281
307 290
307 291
307 293
307 296
307 311
307 315
307 323
307 324
307 331
307 339
307 345
307 349
307 351
308 247
308 270
308 272
308 276
308 277
308 292
308 299
308 301
308 304
308 305
308 316
308 325
308 328
308 333
308 334
308 359
308 361
308 362
308 364
309 245
309 248
309 249
309 265
309 266
309 269
309 279
309 294
309 295
309 298
309 319
309 320
309 321
309 335
309 336
309 338
309 353
309 354
309 356
309 358
309 360
309 377
310 252
310 257
310 274
310 275
310 280
310 281
310 286
310 287
310 288
310 289
310 296
310 315
310 327
310 329
310 331
310 337
310 340
310 341
310 343
310 349
310 352
311 246
311 264
311 271
311 273
311 290
311 291
311 293
311 296
311 306
311 307
311 323
311 324
311 339
311 342
311 344
311 345
311 351
311 372
311 383
312 260
312 261
312 262
312 283
312 285
312 292
312 297
312 302
312 303
312 317
312 318
312 346
312 347
312 350
312 355
312 357
312 363
312 367
312 370
313 254
313 267
313 268
313 271
313 277
313 278
313 284
313 291
313 304
313 306
313 314
313 325
313 326
313 330
313 332
313 344
313 365
313 366
313 373
313 375
314 256
314 267
314 268
314 276
314 277
314 278
314 284
314 301
314 304
314 313
314 325
314 326
314 330
314 332
314 333
314 334
314 344
314 361
314 365
314 373
314 375
314 381
315 251
315 252
315 274
315 275
315 280
315 281
315 287
315 288
315 289
315 296
315 307
315 310
315 324
315 329
315 331
315 337
315 339
315 340
315 349
315 352
315 371
315 374
315 382
316 263
316 270
316 272
316 285
316 292
316 299
316 301
316 303
316 305
316 308
316 317
316 318
316 328
316 333
316 350
316 357
316 359
316 362
316 363
316 367
316 368
316 387
317 261
317 262
317 283
317 285
317 292
317 297
317 302
317 303
317 305
317 312
317 316
317 318
317 346
317 347
317 350
317 355
317 357
317 359
317 363
317 367
317 370
317 388
318 261
318 262
318 263
318 270
318 285
318 292
318 297
318 299
318 303
318 305
318 312
318 316
318 317
318 328
318 347
318 350
318 357
318 359
318 363
318 367
318 368
319 265
319 266
319 279
319 286
319 294
319 309
319 321
319 327
319 335
319 338
319 341
319 343
319 353
319 354
319 356
319 358
319 377
319 380
320 269
320 282
320 295
320 298
320 300
320 309
320 321
320 322
320 335
320 336
320 338
320 348
320 358
320 360
320 384
320 386
321 265
321 269
321 282
321 294
321 295
321 298
321 300
321 309
321 319
321 320
321 322
321 335
321 336
321 338
321 348
321 353
321 354
321 358
321 360
321 377
321 384
321 386
322 282
322 295
322 298
322 300
322 320
322 321
322 336
322 338
322 348
322 360
322 384
323 264
323 273
323 280
323 290
323 291
323 293
323 296
323 307
323 311
323 324
323 331
323 339
323 342
323 345
323 349
323 351
323 372
323 376
323 383
324 264
324 280
324 281
324 290
324 293
324 296
324 307
324 311
324 315
324 323
324 331
324 337
324 339
324 342
324 345
324 349
324 351
324 371
324 372
324 374
324 376
324 383
324 396
325 268
325 276
325 277
325 284
325 299
325 301
325 304
325 308
325 313
325 314
325 326
325 328
325 330
325 333
325 334
325 361
325 362
325 364
325 365
325 373
325 375
325 378
325 381
326 267
326 268
326 278
326 284
326 291
326 304
326 306
326 313
326 314
326 325
326 330
326 332
326 342
326 344
326 365
326 366
326 369
326 373
326 375
326 392
327 279
327 286
327 288
327 289
327 294
327 310
327 319
327 329
327 340
327 341
327 343
327 352
327 353
327 354
327 356
327 379
327 380
327 385
328 270
328 272
328 292
328 299
328 301
328 303
328 305
328 308
328 316
328 318
328 325
328 333
328 334
328 350
328 357
328 359
328 361
328 362
328 364
328 367
328 368
328 387
329 274
329 275
329 281
329 287
329 288
329 289
329 296
329 310
329 315
329 327
329 331
329 337
329 339
329 340
329 343
329 349
329 352
329 371
329 374
329 379
329 382
329 390
330 267
330 268
330 276
330 277
330 284
330 301
330 304
330 313
330 314
330 325
330 326
330 332
330 333
330 334
330 344
330 361
330 364
330 365
330 366
330 373
330 375
330 378
330 381
330 398
331 280
331 281
331 287
331 290
331 296
331 307
331 310
331 315
331 323
331 324
331 329
331 337
331 339
331 345
331 349
331 351
331 352
331 371
331 374
331 376
332 267
332 271
332 278
332 284
332 291
332 306
332 313
332 314
332 326
332 330
332 342
332 344
332 365
332 366
332 369
332 373
332 375
332 392
332 393
333 272
333 276
333 299
333 301
333 304
333 305
333 308
333 314
333 316
333 325
333 328
333 330
333 334
333 357
333 359
333 361
333 362
333 364
333 368
333 378
333 381
333 387
334 272
334 276
334 277
334 299
334 301
334 304
334 305
334 308
334 314
334 325
334 328
334 330
334 333
334 361
334 362
334 364
334 373
334 378
334 381
335 265
335 294
335 298
335 309
335 319
335 320
335 321
335 336
335 338
335 353
335 354
335 356
335 358
335 360
335 377
335 386
335 391
336 282
336 295
336 298
336 300
336 309
336 320
336 321
336 322
336 335
336 338
336 348
336 358
336 360
336 384
336 386
337 274
337 280
337 281
337 287
337 288
337 296
337 310
337 315
337 324
337 329
337 331
337 339
337 340
337 343
337 349
337 351
337 352
337 371
337 374
337 379
337 382
337 390
337 402
338 269
338 295
338 298
338 309
338 319
338 320
338 321
338 322
338 335
338 336
338 348
338 353
338 354
338 358
338 360
338 377
338 384
338 386
339 280
339 281
339 290
339 296
339 307
339 311
339 315
339 323
339 324
339 329
339 331
339 337
339 345
339 349
339 351
339 371
339 374
339 376
339 383
339 396
339 397
339 402
340 274
340 275
340 286
340 287
340 288
340 289
340 310
340 315
340 327
340 329
340 337
340 341
340 343
340 352
340 371
340 379
340 380
340 382
340 385
340 390
340 405
340 406
341 279
341 286
341 289
341 294
341 310
341 319
341 327
341 340
341 343
341 352
341 353
341 354
341 356
341 379
341 380
341 385
341 405
341 407
341 409
342 273
342 291
342 293
342 306
342 311
342 323
342 324
342 326
342 332
342 344
342 345
342 351
342 366
342 369
342 372
342 383
342 392
342 393
342 400
343 286
343 288
343 289
343 310
343 319
343 327
343 329
343 337
343 340
343 341
343 352
343 353
343 356
343 379
343 380
343 382
343 385
343 405
343 406
343 407
343 409
344 278
344 284
344 291
344 306
344 311
344 313
344 314
344 326
344 330
344 332
344 342
344 365
344 366
344 369
344 372
344 375
344 392
344 393
344 400
345 290
345 293
345 296
345 307
345 311
345 323
345 324
345 331
345 339
345 342
345 349
345 351
345 369
345 372
345 374
345 376
345 383
345 396
345 397
345 400
346 283
346 297
346 302
346 312
346 317
346 347
346 350
346 355
346 363
346 370
346 388
346 389
346 394
346 399
347 283
347 285
347 297
347 302
347 303
347 312
347 317
347 318
347 346
347 350
347 355
347 357
347 363
347 367
347 370
347 388
347 389
347 394
347 395
347 399
347 401
348 282
348 295
348 300
348 320
348 321
348 322
348 336
348 338
348 358
348 360
348 384
348 386
348 413
349 280
349 281
349 296
349 307
349 310
349 315
349 323
349 324
349 329
349 331
349 337
349 339
349 345
349 351
349 352
349 371
349 374
349 376
349 382
349 390
349 396
349 402
350 285
350 292
350 297
350 303
350 305
350 312
350 316
350 317
350 318
350 328
350 346
350 347
350 355
350 357
350 359
350 363
350 367
350 368
350 370
350 387
350 388
350 394
350 395
350 399
350 401
350 419
351 290
351 293
351 296
351 307
351 311
351 323
351 324
351 331
351 337
351 339
351 342
351 345
351 349
351 371
351 372
351 374
351 376
351 383
351 396
351 397
351 402
352 287
352 288
352 289
352 310
352 315
352 327
352 329
352 331
352 337
352 340
352 341
352 343
352 349
352 371
352 374
352 379
352 382
352 385
352 390
352 405
352 406
352 414
353 294
353 309
353 319
353 321
353 327
353 335
353 338
353 341
353 343
353 354
353 356
353 358
353 360
353 377
353 380
353 385
353 391
353 409
353 411
353 415
354 294
354 298
354 309
354 319
354 321
354 327
354 335
354 338
354 341
354 353
354 356
354 358
354 360
354 377
354 380
354 386
354 391
354 411
354 415
354 416
355 283
355 297
355 302
355 312
355 317
355 346
355 347
355 350
355 363
355 370
355 388
355 389
355 394
355 399
355 422
356 286
356 294
356 309
356 319
356 327
356 335
356 341
356 343
356 353
356 354
356 358
356 377
356 380
356 385
356 391
356 407
356 409
356 411
356 415
357 285
357 292
357 303
357 305
357 312
357 316
357 317
357 318
357 328
357 333
357 347
357 350
357 359
357 362
357 363
357 367
357 368
357 387
357 388
357 395
357 401
357 403
357 404
357 419
357 421
358 298
358 309
358 319
358 320
358 321
358 335
358 336
358 338
358 348
358 353
358 354
358 356
358 360
358 377
358 384
358 386
358 391
358 415
358 416
358 417
359 292
359 299
359 303
359 305
359 308
359 316
359 317
359 318
359 328
359 333
359 350
359 357
359 362
359 363
359 364
359 367
359 368
359 387
359 388
359 395
359 401
359 403
359 404
359 408
359 421
360 295
360 298
360 309
360 320
360 321
360 322
360 335
360 336
360 338
360 348
360 353
360 354
360 358
360 377
360 384
360 386
360 391
360 413
360 416
360 417
361 301
361 304
361 308
361 314
361 325
361 328
361 330
361 333
361 334
361 362
361 364
361 365
361 373
361 375
361 378
361 381
361 398
361 408
361 410
361 412
361 426
361 429
362 299
362 305
362 308
362 316
362 325
362 328
362 333
362 334
362 357
362 359
362 361
362 364
362 367
362 368
362 378
362 381
362 387
362 395
362 403
362 404
362 408
362 412
362 424
362 425
363 303
363 312
363 316
363 317
363 318
363 346
363 347
363 350
363 355
363 357
363 359
363 367
363 368
363 370
363 388
363 389
363 394
363 395
363 399
363 401
363 419
363 421
363 422
363 434
363 436
364 301
364 308
364 325
364 328
364 330
364 333
364 334
364 359
364 361
364 362
364 368
364 373
364 378
364 381
364 387
364 403
364 404
364 408
364 410
364 412
364 425
364 426
365 313
365 314
365 325
365 326
365 330
365 332
365 344
365 361
365 366
365 369
365 373
365 375
365 378
365 381
365 392
365 393
365 398
365 410
365 420
365 423
365 427
365 428
365 429
365 440
366 306
366 313
366 326
366 330
366 332
366 342
366 344
366 365
366 369
366 372
366 373
366 375
366 392
366 393
366 398
366 400
366 420
366 423
366 428
367 303
367 312
367 316
367 317
367 318
367 328
367 347
367 350
367 357
367 359
367 362
367 363
367 368
367 370
367 387
367 388
367 394
367 395
367 399
367 401
367 403
367 404
367 419
367 421
367 436
368 305
368 316
368 318
368 328
368 333
368 350
368 357
368 359
368 362
368 363
368 364
368 367
368 387
368 388
368 395
368 401
368 403
368 404
368 408
368 419
368 421
368 424
369 306
369 326
369 332
369 342
369 344
369 345
369 365
369 366
369 372
369 375
369 383
369 392
369 393
369 397
369 400
369 418
369 420
369 423
369 428
369 437
370 312
370 317
370 346
370 347
370 350
370 355
370 363
370 367
370 388
370 389
370 394
370 399
370 401
370 419
370 422
370 434
371 315
371 324
371 329
371 331
371 337
371 339
371 340
371 349
371 351
371 352
371 374
371 376
371 379
371 382
371 390
371 396
371 402
371 406
371 414
371 432
371 435
372 311
372 323
372 324
372 342
372 344
372 345
372 351
372 366
372 369
372 376
372 383
372 392
372 393
372 396
372 397
372 400
372 418
372 423
372 431
372 437
372 444
373 313
373 314
373 325
373 326
373 330
373 332
373 334
373 361
373 364
373 365
373 366
373 375
373 378
373 381
373 392
373 393
373 398
373 410
373 412
373 420
373 426
373 427
373 429
373 440
373 447
374 315
374 324
374 329
374 331
374 337
374 339
374 345
374 349
374 351
374 352
374 371
374 376
374 382
374 383
374 390
374 396
374 397
374 402
374 414
374 430
374 432
374 435
374 448
375 313
375 314
375 325
375 326
375 330
375 332
375 344
375 361
375 365
375 366
375 369
375 373
375 378
375 381
375 392
375 393
375 398
375 410
375 412
375 420
375 423
375 427
375 428
375 429
375 440
376 323
376 324
376 331
376 339
376 345
376 349
376 351
376 371
376 372
376 374
376 383
376 390
376 396
376 397
376 400
376 402
376 418
376 430
376 431
376 432
376 448
377 309
377 319
377 321
377 335
377 338
377 353
377 354
377 356
377 358
377 360
377 380
377 384
377 386
377 391
377 409
377 411
377 415
377 416
377 417
377 441
377 446
378 325
378 330
378 333
378 334
378 361
378 362
378 364
378 365
378 373
378 375
378 381
378 387
378 398
378 403
378 404
378 408
378 410
378 412
378 425
378 426
378 427
378 429
378 447
378 449
379 327
379 329
379 337
379 340
379 341
379 343
379 352
379 371
379 380
379 382
379 385
379 390
379 405
379 406
379 407
379 409
379 414
379 435
379 438
379 439
380 319
380 327
380 340
380 341
380 343
380 353
380 354
380 356
380 377
380 379
380 382
380 385
380 391
380 405
380 406
380 407
380 409
380 411
380 415
380 433
380 438
380 439
380 451
381 314
381 325
381 330
381 333
381 334
381 361
381 362
381 364
381 365
381 373
381 375
381 378
381 398
381 408
381 410
381 412
381 420
381 425
381 426
381 427
381 429
381 440
381 447
381 449
382 315
382 329
382 337
382 340
382 343
382 349
382 352
382 371
382 374
382 379
382 380
382 385
382 390
382 402
382 405
382 406
382 407
382 414
382 435
382 438
383 311
383 323
383 324
383 339
383 342
383 345
383 351
383 369
383 372
383 374
383 376
383 393
383 396
383 397
383 400
383 418
383 430
383 431
383 437
383 444
384 320
384 321
384 322
384 336
384 338
384 348
384 358
384 360
384 377
384 386
384 413
384 416
384 417
384 446
384 452
385 327
385 340
385 341
385 343
385 352
385 353
385 356
385 379
385 380
385 382
385 390
385 391
385 405
385 406
385 407
385 409
385 411
385 414
385 433
385 438
385 439
385 451
386 320
386 321
386 335
386 336
386 338
386 348
386 354
386 358
386 360
386 377
386 384
386 391
386 413
386 415
386 416
386 417
386 446
386 452
387 316
387 328
387 333
387 350
387 357
387 359
387 362
387 364
387 367
387 368
387 378
387 395
387 401
387 403
387 404
387 408
387 412
387 419
387 421
387 424
387 425
387 442
387 445
388 317
388 346
388 347
388 350
388 355
388 357
388 359
388 363
388 367
388 368
388 370
388 389
388 394
388 395
388 399
388 401
388 403
388 419
388 421
388 422
388 434
388 436
388 453
389 346
389 347
389 355
389 363
389 370
389 388
389 394
389 399
389 422
389 434
389 453
390 329
390 337
390 340
390 349
390 352
390 371
390 374
390 376
390 379
390 382
390 385
390 402
390 405
390 406
390 414
390 432
390 435
390 438
390 455
390 461
391 335
391 353
391 354
391 356
391 358
391 360
391 377
391 380
391 385
391 386
391 407
391 409
391 411
391 415
391 416
391 417
391 433
391 441
391 446
392 326
392 332
392 342
392 344
392 365
392 366
392 369
392 372
392 373
392 375
392 393
392 398
392 400
392 418
392 420
392 423
392 427
392 428
392 429
392 437
392 440
392 443
392 450
393 332
393 342
393 344
393 365
393 366
393 369
393 372
393 373
393 375
393 383
393 392
393 398
393 400
393 418
393 420
393 423
393 427
393 428
393 437
393 440
393 443
393 450
393 458
394 346
394 347
394 350
394 355
394 363
394 367
394 370
394 388
394 389
394 399
394 401
394 419
394 422
394 434
394 436
394 453
395 347
395 350
395 357
395 359
395 362
395 363
395 367
395 368
395 387
395 388
395 399
395 401
395 403
395 404
395 408
395 419
395 421
395 424
395 434
395 436
395 442
395 457
395 459
396 324
396 339
396 345
396 349
396 351
396 371
396 372
396 374
396 376
396 383
396 397
396 400
396 402
396 418
396 430
396 431
396 432
396 444
396 448
396 454
396 455
397 339
397 345
397 351
397 369
397 372
397 374
397 376
397 383
397 396
397 400
397 402
397 418
397 430
397 431
397 432
397 437
397 444
397 448
397 454
397 456
398 330
398 361
398 365
398 366
398 373
398 375
398 378
398 381
398 392
398 393
398 410
398 412
398 420
398 423
398 426
398 427
398 428
398 429
398 440
398 443
398 447
399 346
399 347
399 350
399 355
399 363
399 367
399 370
399 388
399 389
399 394
399 395
399 401
399 419
399 421
399 422
399 434
399 436
399 453
400 342
400 344
400 345
400 366
400 369
400 372
400 376
400 383
400 392
400 393
400 396
400 397
400 418
400 420
400 423
400 428
400 430
400 431
400 437
400 443
400 444
400 450
400 456
400 458
401 347
401 350
401 357
401 359
401 363
401 367
401 368
401 370
401 387
401 388
401 394
401 395
401 399
401 403
401 404
401 419
401 421
401 422
401 424
401 434
401 436
401 442
401 457
401 459
402 337
402 339
402 349
402 351
402 371
402 374
402 376
402 382
402 390
402 396
402 397
402 414
402 430
402 432
402 435
402 448
402 454
402 455
403 357
403 359
403 362
403 364
403 367
403 368
403 378
403 387
403 388
403 395
403 401
403 404
403 408
403 412
403 419
403 421
403 424
403 425
403 436
403 442
403 445
403 449
403 457
403 459
404 357
404 359
404 362
404 364
404 367
404 368
404 378
404 387
404 395
404 401
404 403
404 408
404 410
404 412
404 419
404 421
404 424
404 425
404 426
404 442
404 445
404 449
404 459
405 340
405 341
405 343
405 352
405 379
405 380
405 382
405 385
405 390
405 406
405 407
405 409
405 411
405 414
405 433
405 438
405 439
405 451
405 461
405 462
406 340
406 343
406 352
406 371
406 379
406 380
406 382
406 385
406 390
406 405
406 407
406 409
406 414
406 433
406 435
406 438
406 439
406 451
406 461
406 462
407 341
407 343
407 356
407 379
407 380
407 382
407 385
407 391
407 405
407 406
407 409
407 411
407 414
407 415
407 433
407 438
407 439
407 441
407 451
407 462
408 359
408 361
408 362
408 364
408 368
408 378
408 381
408 387
408 395
408 403
408 404
408 410
408 412
408 421
408 424
408 425
408 426
408 429
408 442
408 445
408 447
408 449
409 341
409 343
409 353
409 356
409 377
409 379
409 380
409 385
409 391
409 405
409 406
409 407
409 411
409 415
409 433
409 438
409 439
409 441
409 451
410 361
410 364
410 365
410 373
410 375
410 378
410 381
410 398
410 404
410 408
410 412
410 420
410 425
410 426
410 427
410 429
410 440
410 445
410 447
410 449
411 353
411 354
411 356
411 377
411 380
411 385
411 391
411 405
411 407
411 409
411 415
411 416
411 417
411 433
411 439
411 441
411 446
411 451
412 361
412 362
412 364
412 373
412 375
412 378
412 381
412 387
412 398
412 403
412 404
412 408
412 410
412 424
412 425
412 426
412 427
412 429
412 440
412 445
412 447
412 449
413 348
413 360
413 384
413 386
413 416
413 417
413 446
413 452
414 352
414 371
414 374
414 379
414 382
414 385
414 390
414 402
414 405
414 406
414 407
414 432
414 435
414 438
414 439
414 448
414 455
414 461
414 462
415 353
415 354
415 356
415 358
415 377
415 380
415 386
415 391
415 407
415 409
415 411
415 416
415 417
415 433
415 441
415 446
415 460
416 354
416 358
416 360
416 377
416 384
416 386
416 391
416 411
416 413
416 415
416 417
416 433
416 441
416 446
416 452
416 460
417 358
417 360
417 377
417 384
417 386
417 391
417 411
417 413
417 415
417 416
417 441
417 446
417 452
417 460
418 369
418 372
418 376
418 383
418 392
418 393
418 396
418 397
418 400
418 423
418 428
418 430
418 431
418 437
418 443
418 444
418 450
418 454
418 456
418 458
419 350
419 357
419 363
419 367
419 368
419 370
419 387
419 388
419 394
419 395
419 399
419 401
419 403
419 404
419 421
419 422
419 424
419 434
419 436
419 442
419 453
419 457
419 459
420 365
420 366
420 369
420 373
420 375
420 381
420 392
420 393
420 398
420 400
420 410
420 423
420 427
420 428
420 429
420 437
420 440
420 443
420 447
420 450
421 357
421 359
421 363
421 367
421 368
421 387
421 388
421 395
421 399
421 401
421 403
421 404
421 408
421 419
421 424
421 425
421 434
421 436
421 442
421 445
421 457
421 459
422 355
422 363
422 370
422 388
422 389
422 394
422 399
422 401
422 419
422 434
422 436
422 453
423 365
423 366
423 369
423 372
423 375
423 392
423 393
423 398
423 400
423 418
423 420
423 427
423 428
423 431
423 437
423 440
423 443
423 444
423 450
423 456
423 458
424 362
424 368
424 387
424 395
424 401
424 403
424 404
424 408
424 412
424 419
424 421
424 425
424 426
424 436
424 442
424 445
424 449
424 457
424 459
425 362
425 364
425 378
425 381
425 387
425 403
425 404
425 408
425 410
425 412
425 421
425 424
425 426
425 429
425 442
425 445
425 447
425 449
425 459
426 361
426 364
426 373
426 378
426 381
426 398
426 404
426 408
426 410
426 412
426 424
426 425
426 427
426 429
426 440
426 442
426 445
426 447
426 449
427 365
427 373
427 375
427 378
427 381
427 392
427 393
427 398
427 410
427 412
427 420
427 423
427 426
427 428
427 429
427 440
427 443
427 447
427 449
427 450
428 365
428 366
428 369
428 375
428 392
428 393
428 398
428 400
428 418
428 420
428 423
428 427
428 429
428 437
428 440
428 443
428 450
428 458
429 361
429 365
429 373
429 375
429 378
429 381
429 392
429 398
429 408
429 410
429 412
429 420
429 425
429 426
429 427
429 428
429 440
429 443
429 447
429 449
430 374
430 376
430 383
430 396
430 397
430 400
430 402
430 418
430 431
430 432
430 435
430 437
430 444
430 448
430 454
430 455
430 456
431 372
431 376
431 383
431 396
431 397
431 400
431 418
431 423
431 430
431 432
431 437
431 444
431 448
431 450
431 454
431 456
431 458
432 371
432 374
432 376
432 390
432 396
432 397
432 402
432 414
432 430
432 431
432 435
432 444
432 448
432 454
432 455
433 380
433 385
433 391
433 405
433 406
433 407
433 409
433 411
433 415
433 416
433 438
433 439
433 441
433 451
433 462
434 363
434 370
434 388
434 389
434 394
434 395
434 399
434 401
434 419
434 421
434 422
434 436
434 453
434 457
435 371
435 374
435 379
435 382
435 390
435 402
435 406
435 414
435 430
435 432
435 438
435 448
435 454
435 455
435 461
435 462
436 363
436 367
436 388
436 394
436 395
436 399
436 401
436 403
436 419
436 421
436 422
436 424
436 434
436 442
436 453
436 457
436 459
437 369
437 372
437 383
437 392
437 393
437 397
437 400
437 418
437 420
437 423
437 428
437 430
437 431
437 443
437 444
437 450
437 454
437 456
437 458
438 379
438 380
438 382
438 385
438 390
438 405
438 406
438 407
438 409
438 414
438 433
438 435
438 439
438 451
438 461
438 462
439 379
439 380
439 385
439 405
439 406
439 407
439 409
439 411
439 414
439 433
439 438
439 441
439 451
439 461
439 462
440 365
440 373
440 375
440 381
440 392
440 393
440 398
440 410
440 412
440 420
440 423
440 426
440 427
440 428
440 429
440 443
440 447
440 450
441 377
441 391
441 407
441 409
441 411
441 415
441 416
441 417
441 433
441 439
441 446
441 451
441 460
442 387
442 395
442 401
442 403
442 404
442 408
442 419
442 421
442 424
442 425
442 426
442 436
442 445
442 449
442 457
442 459
443 392
443 393
443 398
443 400
443 418
443 420
443 423
443 427
443 428
443 429
443 437
443 440
443 450
443 458
444 372
444 383
444 396
444 397
444 400
444 418
444 423
444 430
444 431
444 432
444 437
444 448
444 450
444 454
444 456
444 458
445 387
445 403
445 404
445 408
445 410
445 412
445 421
445 424
445 425
445 426
445 442
445 447
445 449
445 457
445 459
446 377
446 384
446 386
446 391
446 411
446 413
446 415
446 416
446 417
446 441
446 452
446 460
447 373
447 378
447 381
447 398
447 408
447 410
447 412
447 420
447 425
447 426
447 427
447 429
447 440
447 445
447 449
448 374
448 376
448 396
448 397
448 402
448 414
448 430
448 431
448 432
448 435
448 444
448 454
448 455
448 456
449 378
449 381
449 403
449 404
449 408
449 410
449 412
449 424
449 425
449 426
449 427
449 429
449 442
449 445
449 447
450 392
450 393
450 400
450 418
450 420
450 423
450 427
450 428
450 431
450 437
450 440
450 443
450 444
450 456
450 458
451 380
451 385
451 405
451 406
451 407
451 409
451 411
451 433
451 438
451 439
451 441
451 461
451 462
452 384
452 386
452 413
452 416
452 417
452 446
452 460
453 388
453 389
453 394
453 399
453 419
453 422
453 434
453 436
453 457
454 396
454 397
454 402
454 418
454 430
454 431
454 432
454 435
454 437
454 444
454 448
454 455
454 456
454 458
455 390
455 396
455 402
455 414
455 430
455 432
455 435
455 448
455 454
455 461
456 397
456 400
456 418
456 423
456 430
456 431
456 437
456 444
456 448
456 450
456 454
456 458
457 395
457 401
457 403
457 419
457 421
457 424
457 434
457 436
457 442
457 445
457 453
457 459
458 393
458 400
458 418
458 423
458 428
458 431
458 437
458 443
458 444
458 450
458 454
458 456
459 395
459 401
459 403
459 404
459 419
459 421
459 424
459 425
459 436
459 442
459 445
459 457
460 415
460 416
460 417
460 441
460 446
460 452
461 390
461 405
461 406
461 414
461 435
461 438
461 439
461 451
461 455
461 462
462 405
462 406
462 407
462 414
462 433
462 435
462 438
462 439
462 451
462 461
