1 3
1 10
1 11
1 12
1 13
1 14
1 36
1 48
2 4
2 8
2 9
2 30
2 31
2 37
2 52
2 56
2 58
3 1
3 9
3 10
3 12
3 13
3 14
3 36
3 48
3 50
3 60
4 2
4 7
4 28
4 31
4 37
4 56
4 58
5 6
5 7
5 26
5 27
5 28
5 53
5 55
6 5
6 7
6 26
6 27
6 28
6 32
6 53
7 4
7 5
7 6
7 26
7 28
7 37
7 55
8 2
8 9
8 10
8 30
8 31
8 43
8 50
8 52
8 57
9 2
9 3
9 8
9 10
9 12
9 30
9 43
9 50
9 52
9 57
10 1
10 3
10 8
10 9
10 12
10 13
10 43
10 48
10 50
10 60
11 1
11 13
11 14
11 36
11 59
11 62
12 1
12 3
12 9
12 10
12 13
12 14
12 36
12 48
12 50
12 60
12 61
13 1
13 3
13 10
13 11
13 12
13 14
13 36
13 48
13 59
13 61
13 62
14 1
14 3
14 11
14 12
14 13
14 36
14 59
14 62
15 16
15 18
15 22
15 23
15 35
15 39
15 40
15 47
15 65
15 66
15 67
16 15
16 18
16 22
16 35
16 39
16 40
16 41
16 66
16 67
17 20
17 24
17 29
17 42
17 44
17 49
17 51
17 54
17 80
18 15
18 16
18 23
18 25
18 35
18 39
18 46
18 47
18 65
18 67
18 70
19 24
19 32
19 33
19 34
19 38
19 42
19 63
19 68
19 72
19 74
20 17
20 21
20 25
20 29
20 44
20 45
20 51
20 54
20 64
21 20
21 25
21 29
21 44
21 45
21 46
21 54
21 64
21 73
22 15
22 16
22 39
22 40
22 41
22 66
22 76
23 15
23 18
23 25
23 35
23 45
23 46
23 47
23 65
23 69
23 70
24 17
24 19
24 34
24 38
24 42
24 49
24 51
24 63
24 68
24 71
25 18
25 20
25 21
25 23
25 44
25 45
25 46
25 47
25 64
25 69
25 70
25 73
26 5
26 6
26 7
26 27
26 28
26 32
26 53
26 55
26 77
26 82
27 5
27 6
27 26
27 28
27 32
27 33
27 53
27 55
27 75
27 82
28 4
28 5
28 6
28 7
28 26
28 27
28 37
28 53
28 55
28 56
28 77
28 78
29 17
29 20
29 21
29 44
29 45
29 49
29 51
29 54
29 64
29 80
29 84
30 2
30 8
30 9
30 31
30 43
30 50
30 52
30 57
30 58
30 81
30 87
31 2
31 4
31 8
31 30
31 37
31 52
31 56
31 57
31 58
31 79
31 81
32 6
32 19
32 26
32 27
32 33
32 38
32 53
32 74
32 75
32 88
32 89
33 19
33 27
33 32
33 34
33 38
33 53
33 63
33 72
33 74
33 75
33 88
33 89
34 19
34 24
34 33
34 38
34 42
34 49
34 63
34 68
34 71
34 72
34 74
34 83
35 15
35 16
35 18
35 23
35 39
35 40
35 46
35 47
35 65
35 66
35 67
35 70
35 85
35 91
36 1
36 3
36 11
36 12
36 13
36 14
36 48
36 59
36 60
36 61
36 62
36 95
36 98
37 2
37 4
37 7
37 28
37 31
37 52
37 55
37 56
37 58
37 77
37 78
37 79
38 19
38 24
38 32
38 33
38 34
38 42
38 63
38 68
38 72
38 74
38 83
38 88
38 97
39 15
39 16
39 18
39 22
39 35
39 40
39 41
39 47
39 65
39 66
39 67
39 76
39 85
39 92
40 15
40 16
40 22
40 35
40 39
40 41
40 66
40 67
40 76
40 85
40 92
41 16
41 22
41 39
41 40
41 66
41 76
41 92
42 17
42 19
42 24
42 34
42 38
42 49
42 51
42 63
42 68
42 71
42 72
42 83
42 90
43 8
43 9
43 10
43 30
43 48
43 50
43 52
43 57
43 60
43 86
43 87
43 100
44 17
44 20
44 21
44 25
44 29
44 45
44 51
44 54
44 64
44 73
44 84
45 20
45 21
45 23
45 25
45 29
45 44
45 46
45 54
45 64
45 69
45 73
45 96
46 18
46 21
46 23
46 25
46 35
46 45
46 47
46 65
46 67
46 69
46 70
46 73
46 91
46 101
47 15
47 18
47 23
47 25
47 35
47 39
47 46
47 65
47 67
47 69
47 70
47 73
47 91
47 101
48 1
48 3
48 10
48 12
48 13
48 36
48 43
48 50
48 60
48 61
48 62
48 86
48 93
48 95
49 17
49 24
49 29
49 34
49 42
49 51
49 54
49 63
49 68
49 71
49 80
49 83
49 90
50 3
50 8
50 9
50 10
50 12
50 30
50 43
50 48
50 57
50 60
50 61
50 86
50 87
50 93
51 17
51 20
51 24
51 29
51 42
51 44
51 49
51 54
51 68
51 71
51 80
51 84
51 90
52 2
52 8
52 9
52 30
52 31
52 37
52 43
52 56
52 57
52 58
52 81
52 87
52 94
52 100
53 5
53 6
53 26
53 27
53 28
53 32
53 33
53 55
53 75
53 77
53 82
53 89
53 102
54 17
54 20
54 21
54 29
54 44
54 45
54 49
54 51
54 64
54 80
54 84
55 5
55 7
55 26
55 27
55 28
55 37
55 53
55 56
55 77
55 78
55 79
55 82
55 99
56 2
56 4
56 28
56 31
56 37
56 52
56 55
56 58
56 78
56 79
56 81
56 103
57 8
57 9
57 30
57 31
57 43
57 50
57 52
57 58
57 81
57 86
57 87
57 94
57 100
58 2
58 4
58 30
58 31
58 37
58 52
58 56
58 57
58 78
58 79
58 81
58 94
58 103
59 11
59 13
59 14
59 36
59 61
59 62
59 98
60 3
60 10
60 12
60 36
60 43
60 48
60 50
60 61
60 86
60 87
60 93
60 95
61 12
61 13
61 36
61 48
61 50
61 59
61 60
61 62
61 86
61 93
61 95
61 98
61 121
62 11
62 13
62 14
62 36
62 48
62 59
62 61
62 95
62 98
63 19
63 24
63 33
63 34
63 38
63 42
63 49
63 68
63 71
63 72
63 74
63 83
63 88
63 90
63 97
63 108
63 112
63 114
64 20
64 21
64 25
64 29
64 44
64 45
64 54
64 69
64 73
64 84
64 96
64 106
64 110
65 15
65 18
65 23
65 35
65 39
65 46
65 47
65 66
65 67
65 69
65 70
65 85
65 91
65 101
65 104
65 107
66 15
66 16
66 22
66 35
66 39
66 40
66 41
66 65
66 67
66 76
66 85
66 91
66 92
66 104
66 107
67 15
67 16
67 18
67 35
67 39
67 40
67 46
67 47
67 65
67 66
67 69
67 70
67 76
67 85
67 91
67 92
67 101
67 104
67 107
68 19
68 24
68 34
68 38
68 42
68 49
68 51
68 63
68 71
68 72
68 74
68 80
68 83
68 90
68 97
68 105
68 108
68 112
69 23
69 25
69 45
69 46
69 47
69 64
69 65
69 67
69 70
69 73
69 91
69 96
69 101
69 107
70 18
70 23
70 25
70 35
70 46
70 47
70 65
70 67
70 69
70 73
70 85
70 91
70 96
70 101
70 107
71 24
71 34
71 42
71 49
71 51
71 63
71 68
71 72
71 80
71 83
71 90
71 105
71 108
71 111
71 112
72 19
72 33
72 34
72 38
72 42
72 63
72 68
72 71
72 74
72 75
72 83
72 88
72 89
72 97
72 112
72 114
73 21
73 25
73 44
73 45
73 46
73 47
73 64
73 69
73 70
73 84
73 96
73 101
73 110
74 19
74 32
74 33
74 34
74 38
74 63
74 68
74 72
74 75
74 83
74 88
74 89
74 97
74 112
74 114
74 117
75 27
75 32
75 33
75 53
75 72
75 74
75 82
75 88
75 89
75 97
75 102
75 117
75 118
76 22
76 39
76 40
76 41
76 66
76 67
76 85
76 92
76 104
76 127
76 130
77 26
77 28
77 37
77 53
77 55
77 78
77 79
77 82
77 99
77 102
77 109
77 116
77 118
77 119
77 122
78 28
78 37
78 55
78 56
78 58
78 77
78 79
78 81
78 82
78 99
78 103
78 109
78 116
78 119
78 122
78 123
79 31
79 37
79 55
79 56
79 58
79 77
79 78
79 81
79 99
79 103
79 115
79 116
79 119
79 123
80 17
80 29
80 49
80 51
80 54
80 68
80 71
80 84
80 90
80 105
80 106
80 108
80 110
80 111
81 30
81 31
81 52
81 56
81 57
81 58
81 78
81 79
81 87
81 94
81 100
81 103
81 113
81 115
81 123
81 124
82 26
82 27
82 53
82 55
82 75
82 77
82 78
82 88
82 89
82 99
82 102
82 109
82 116
82 117
82 118
82 122
83 34
83 38
83 42
83 49
83 63
83 68
83 71
83 72
83 74
83 90
83 97
83 105
83 108
83 112
83 114
84 29
84 44
84 51
84 54
84 64
84 73
84 80
84 90
84 96
84 105
84 106
84 110
84 111
84 132
84 134
85 35
85 39
85 40
85 65
85 66
85 67
85 70
85 76
85 91
85 92
85 104
85 107
85 127
85 129
85 130
86 43
86 48
86 50
86 57
86 60
86 61
86 87
86 93
86 94
86 95
86 100
86 113
86 120
86 126
86 128
86 131
87 30
87 43
87 50
87 52
87 57
87 60
87 81
87 86
87 93
87 94
87 100
87 113
87 120
87 124
87 126
87 128
88 32
88 33
88 38
88 63
88 72
88 74
88 75
88 82
88 89
88 97
88 102
88 112
88 114
88 117
88 136
88 144
89 32
89 33
89 53
89 72
89 74
89 75
89 82
89 88
89 97
89 102
89 109
89 114
89 117
89 118
89 136
89 138
90 42
90 49
90 51
90 63
90 68
90 71
90 80
90 83
90 84
90 105
90 106
90 108
90 111
90 112
90 135
91 35
91 46
91 47
91 65
91 66
91 67
91 69
91 70
91 85
91 101
91 104
91 107
91 129
91 137
92 39
92 40
92 41
92 66
92 67
92 76
92 85
92 104
92 127
92 130
92 139
93 48
93 50
93 60
93 61
93 86
93 87
93 95
93 98
93 100
93 113
93 120
93 121
93 126
93 128
93 131
93 133
94 52
94 57
94 58
94 81
94 86
94 87
94 100
94 103
94 113
94 115
94 120
94 124
94 126
95 36
95 48
95 60
95 61
95 62
95 86
95 93
95 98
95 120
95 121
95 125
95 128
95 131
95 133
96 45
96 64
96 69
96 70
96 73
96 84
96 101
96 106
96 110
96 132
96 147
97 38
97 63
97 68
97 72
97 74
97 75
97 83
97 88
97 89
97 112
97 114
97 117
97 136
97 144
97 145
98 36
98 59
98 61
98 62
98 93
98 95
98 121
98 125
98 131
98 133
99 55
99 77
99 78
99 79
99 82
99 102
99 103
99 109
99 116
99 118
99 119
99 122
99 123
99 141
99 149
100 43
100 52
100 57
100 81
100 86
100 87
100 93
100 94
100 113
100 115
100 120
100 124
100 126
100 128
100 148
101 46
101 47
101 65
101 67
101 69
101 70
101 73
101 91
101 96
101 107
101 129
101 137
102 53
102 75
102 77
102 82
102 88
102 89
102 99
102 109
102 116
102 117
102 118
102 122
102 136
102 138
102 141
102 142
103 56
103 58
103 78
103 79
103 81
103 94
103 99
103 115
103 116
103 119
103 123
103 149
103 151
103 152
104 65
104 66
104 67
104 76
104 85
104 91
104 92
104 107
104 127
104 129
104 130
104 137
104 139
104 140
105 68
105 71
105 80
105 83
105 84
105 90
105 106
105 108
105 111
105 134
105 135
105 146
105 150
106 64
106 80
106 84
106 90
106 96
106 105
106 110
106 111
106 132
106 134
106 146
107 65
107 66
107 67
107 69
107 70
107 85
107 91
107 101
107 104
107 129
107 130
107 137
107 140
108 63
108 68
108 71
108 80
108 83
108 90
108 105
108 111
108 112
108 135
108 143
108 150
109 77
109 78
109 82
109 89
109 99
109 102
109 116
109 117
109 118
109 119
109 122
109 138
109 141
109 142
109 149
109 156
109 159
110 64
110 73
110 80
110 84
110 96
110 106
110 111
110 132
110 134
110 146
110 147
111 71
111 80
111 84
111 90
111 105
111 106
111 108
111 110
111 132
111 134
111 135
111 146
111 150
112 63
112 68
112 71
112 72
112 74
112 83
112 88
112 90
112 97
112 108
112 114
112 135
112 143
112 144
112 145
113 81
113 86
113 87
113 93
113 94
113 100
113 115
113 120
113 124
113 126
113 128
113 148
113 154
114 63
114 72
114 74
114 83
114 88
114 89
114 97
114 112
114 117
114 136
114 143
114 144
114 145
114 155
115 79
115 81
115 94
115 100
115 103
115 113
115 119
115 123
115 124
115 126
115 148
115 152
115 154
115 162
116 77
116 78
116 79
116 82
116 99
116 102
116 103
116 109
116 118
116 119
116 122
116 123
116 141
116 142
116 149
116 151
116 159
117 74
117 75
117 82
117 88
117 89
117 97
117 102
117 109
117 114
117 118
117 122
117 136
117 138
117 142
117 144
117 155
117 156
118 75
118 77
118 82
118 89
118 99
118 102
118 109
118 116
118 117
118 122
118 136
118 138
118 141
118 142
118 156
118 159
119 77
119 78
119 79
119 99
119 103
119 109
119 115
119 116
119 122
119 123
119 141
119 149
119 151
119 152
120 86
120 87
120 93
120 94
120 95
120 100
120 113
120 121
120 124
120 126
120 128
120 131
120 148
120 153
120 167
121 61
121 93
121 95
121 98
121 120
121 125
121 128
121 131
121 133
121 153
121 158
122 77
122 78
122 82
122 99
122 102
122 109
122 116
122 117
122 118
122 119
122 138
122 141
122 142
122 149
122 151
122 156
122 159
123 78
123 79
123 81
123 99
123 103
123 115
123 116
123 119
123 124
123 149
123 151
123 152
123 160
124 81
124 87
124 94
124 100
124 113
124 115
124 120
124 123
124 126
124 148
124 152
124 154
124 162
124 164
125 95
125 98
125 121
125 131
125 133
125 157
125 158
125 168
125 169
126 86
126 87
126 93
126 94
126 100
126 113
126 115
126 120
126 124
126 128
126 131
126 148
126 153
126 154
126 164
126 167
127 76
127 85
127 92
127 104
127 130
127 139
127 140
128 86
128 87
128 93
128 95
128 100
128 113
128 120
128 121
128 126
128 131
128 133
128 148
128 153
128 158
128 167
128 171
129 85
129 91
129 101
129 104
129 107
129 130
129 137
129 139
129 140
129 161
130 76
130 85
130 92
130 104
130 107
130 127
130 129
130 137
130 139
130 140
130 161
131 86
131 93
131 95
131 98
131 120
131 121
131 125
131 126
131 128
131 133
131 153
131 158
131 167
131 171
132 84
132 96
132 106
132 110
132 111
132 134
132 146
132 147
133 93
133 95
133 98
133 121
133 125
133 128
133 131
133 153
133 157
133 158
133 168
133 169
134 84
134 105
134 106
134 110
134 111
134 132
134 135
134 146
134 147
134 150
135 90
135 105
135 108
135 111
135 112
135 134
135 143
135 145
135 146
135 150
135 165
135 166
136 88
136 89
136 97
136 102
136 114
136 117
136 118
136 138
136 142
136 144
136 145
136 155
136 156
136 170
136 172
137 91
137 101
137 104
137 107
137 129
137 130
137 139
137 140
137 161
137 163
137 174
137 175
138 89
138 102
138 109
138 117
138 118
138 122
138 136
138 141
138 142
138 144
138 155
138 156
138 159
138 170
138 172
138 176
139 92
139 104
139 127
139 129
139 130
139 137
139 140
139 161
139 177
139 184
140 104
140 107
140 127
140 129
140 130
140 137
140 139
140 161
140 174
141 99
141 102
141 109
141 116
141 118
141 119
141 122
141 138
141 142
141 149
141 151
141 156
141 159
141 176
141 178
141 179
142 102
142 109
142 116
142 117
142 118
142 122
142 136
142 138
142 141
142 149
142 155
142 156
142 159
142 172
142 176
142 178
143 108
143 112
143 114
143 135
143 144
143 145
143 150
143 165
143 166
143 173
144 88
144 97
144 112
144 114
144 117
144 136
144 138
144 143
144 145
144 155
144 156
144 170
144 172
144 173
145 97
145 112
145 114
145 135
145 136
145 143
145 144
145 155
145 165
145 170
145 173
146 105
146 106
146 110
146 111
146 132
146 134
146 135
146 147
146 150
146 166
146 181
146 182
146 185
147 96
147 110
147 132
147 134
147 146
147 163
147 182
147 187
147 189
148 100
148 113
148 115
148 120
148 124
148 126
148 128
148 153
148 154
148 162
148 164
148 167
148 188
148 192
149 99
149 103
149 109
149 116
149 119
149 122
149 123
149 141
149 142
149 151
149 152
149 159
149 160
149 178
149 179
149 183
150 105
150 108
150 111
150 134
150 135
150 143
150 146
150 165
150 166
150 185
150 186
150 194
151 103
151 116
151 119
151 122
151 123
151 141
151 149
151 152
151 159
151 160
151 162
151 179
151 183
152 103
152 115
152 119
152 123
152 124
152 149
152 151
152 154
152 160
152 162
152 180
152 183
153 120
153 121
153 126
153 128
153 131
153 133
153 148
153 158
153 164
153 167
153 169
153 171
153 198
154 113
154 115
154 124
154 126
154 148
154 152
154 160
154 162
154 164
154 167
154 180
154 188
154 192
155 114
155 117
155 136
155 138
155 142
155 144
155 145
155 156
155 170
155 172
155 173
155 176
155 190
155 196
156 109
156 117
156 118
156 122
156 136
156 138
156 141
156 142
156 144
156 155
156 159
156 170
156 172
156 176
156 178
156 196
157 125
157 133
157 158
157 168
157 169
158 121
158 125
158 128
158 131
158 133
158 153
158 157
158 167
158 168
158 169
158 171
158 198
158 200
159 109
159 116
159 118
159 122
159 138
159 141
159 142
159 149
159 151
159 156
159 172
159 176
159 178
159 179
159 183
159 202
160 123
160 149
160 151
160 152
160 154
160 162
160 180
160 183
160 188
161 129
161 130
161 137
161 139
161 140
161 174
161 175
161 184
161 193
161 201
162 115
162 124
162 148
162 151
162 152
162 154
162 160
162 164
162 180
162 188
162 192
163 137
163 147
163 174
163 175
163 182
163 187
163 189
163 193
163 208
163 213
164 124
164 126
164 148
164 153
164 154
164 162
164 167
164 171
164 180
164 188
164 191
164 192
165 135
165 143
165 145
165 150
165 166
165 173
165 186
165 194
165 197
165 203
165 204
165 207
165 222
166 135
166 143
166 146
166 150
166 165
166 181
166 185
166 186
166 194
166 197
166 203
166 204
167 120
167 126
167 128
167 131
167 148
167 153
167 154
167 158
167 164
167 171
167 188
167 191
167 192
167 198
167 215
167 216
168 125
168 133
168 157
168 158
168 169
168 200
168 214
169 125
169 133
169 153
169 157
169 158
169 168
169 171
169 198
169 200
169 214
170 136
170 138
170 144
170 145
170 155
170 156
170 172
170 173
170 176
170 190
170 196
170 199
170 225
171 128
171 131
171 153
171 158
171 164
171 167
171 169
171 191
171 192
171 198
171 200
171 215
171 216
172 136
172 138
172 142
172 144
172 155
172 156
172 159
172 170
172 176
172 178
172 190
172 196
172 199
172 205
172 225
172 226
173 143
173 144
173 145
173 155
173 165
173 170
173 186
173 190
173 197
173 199
173 207
173 223
174 137
174 140
174 161
174 163
174 175
174 184
174 187
174 193
174 201
174 208
174 213
175 137
175 161
175 163
175 174
175 187
175 189
175 193
175 208
175 213
175 217
176 138
176 141
176 142
176 155
176 156
176 159
176 170
176 172
176 178
176 179
176 190
176 196
176 202
176 205
176 226
176 232
177 139
177 184
177 195
177 206
177 209
178 141
178 142
178 149
178 156
178 159
178 172
178 176
178 179
178 183
178 196
178 202
178 205
178 226
178 229
178 232
178 234
179 141
179 149
179 151
179 159
179 176
179 178
179 183
179 202
179 205
179 219
179 229
180 152
180 154
180 160
180 162
180 164
180 183
180 188
180 192
180 218
180 219
180 220
180 221
181 146
181 166
181 182
181 185
181 189
181 194
181 203
181 210
181 211
181 212
182 146
182 147
182 163
182 181
182 185
182 187
182 189
182 210
182 211
182 212
182 217
183 149
183 151
183 152
183 159
183 160
183 178
183 179
183 180
183 202
183 219
183 220
183 221
183 229
184 139
184 161
184 174
184 177
184 195
184 201
184 206
184 209
184 235
184 236
185 146
185 150
185 166
185 181
185 182
185 186
185 194
185 203
185 204
185 210
185 211
185 224
186 150
186 165
186 166
186 173
186 185
186 194
186 197
186 203
186 204
186 207
186 222
186 224
187 147
187 163
187 174
187 175
187 182
187 189
187 193
187 208
187 210
187 212
187 213
187 217
188 148
188 154
188 160
188 162
188 164
188 167
188 180
188 191
188 192
188 215
188 218
188 220
188 221
188 231
188 238
189 147
189 163
189 175
189 181
189 182
189 187
189 210
189 211
189 212
189 213
189 217
189 240
190 155
190 170
190 172
190 173
190 176
190 196
190 199
190 205
190 207
190 223
190 225
190 226
191 164
191 167
191 171
191 188
191 192
191 198
191 215
191 216
191 227
191 231
191 233
192 148
192 154
192 162
192 164
192 167
192 171
192 180
192 188
192 191
192 198
192 215
192 216
192 218
192 220
192 231
192 233
193 161
193 163
193 174
193 175
193 187
193 201
193 208
193 213
193 217
193 239
194 150
194 165
194 166
194 181
194 185
194 186
194 197
194 203
194 204
194 211
194 222
194 224
194 242
195 177
195 184
195 201
195 206
195 209
195 235
195 236
196 155
196 156
196 170
196 172
196 176
196 178
196 190
196 199
196 202
196 205
196 223
196 225
196 226
196 232
196 234
197 165
197 166
197 173
197 186
197 194
197 199
197 203
197 204
197 207
197 222
197 223
197 224
197 247
198 153
198 158
198 167
198 169
198 171
198 191
198 192
198 200
198 214
198 215
198 216
198 227
198 228
198 230
198 233
198 252
199 170
199 172
199 173
199 190
199 196
199 197
199 207
199 223
199 225
200 158
200 168
200 169
200 171
200 198
200 214
200 216
200 227
200 228
200 230
200 244
200 248
201 161
201 174
201 184
201 193
201 195
201 206
201 208
201 209
201 235
201 236
201 239
201 246
202 159
202 176
202 178
202 179
202 183
202 196
202 205
202 219
202 221
202 226
202 229
202 232
202 234
203 165
203 166
203 181
203 185
203 186
203 194
203 197
203 204
203 211
203 222
203 224
203 241
203 242
203 255
204 165
204 166
204 185
204 186
204 194
204 197
204 203
204 207
204 211
204 222
204 224
204 242
205 172
205 176
205 178
205 179
205 190
205 196
205 202
205 225
205 226
205 229
205 232
205 234
206 177
206 184
206 195
206 201
206 209
206 235
206 236
206 246
206 251
207 165
207 173
207 186
207 190
207 197
207 199
207 204
207 222
207 223
207 224
207 225
207 247
207 263
208 163
208 174
208 175
208 187
208 193
208 201
208 212
208 213
208 217
208 239
208 243
208 254
208 258
209 177
209 184
209 195
209 201
209 206
209 235
209 236
209 251
210 181
210 182
210 185
210 187
210 189
210 211
210 212
210 213
210 217
210 240
210 241
210 243
210 257
210 259
211 181
211 182
211 185
211 189
211 194
211 203
211 204
211 210
211 212
211 224
211 240
211 241
211 242
211 255
211 257
211 259
212 181
212 182
212 187
212 189
212 208
212 210
212 211
212 213
212 217
212 240
212 241
212 243
212 257
212 265
213 163
213 174
213 175
213 187
213 189
213 193
213 208
213 210
213 212
213 217
213 239
213 243
213 254
214 168
214 169
214 198
214 200
214 227
214 228
214 230
214 244
214 248
215 167
215 171
215 188
215 191
215 192
215 198
215 216
215 218
215 227
215 228
215 231
215 233
215 245
215 249
215 250
215 252
216 167
216 171
216 191
216 192
216 198
216 200
216 215
216 227
216 228
216 230
216 231
216 233
216 244
216 249
216 250
216 252
217 175
217 182
217 187
217 189
217 193
217 208
217 210
217 212
217 213
217 239
217 240
217 243
217 254
217 257
217 265
218 180
218 188
218 192
218 215
218 220
218 221
218 231
218 237
218 238
218 245
218 268
219 179
219 180
219 183
219 202
219 220
219 221
219 229
219 234
219 237
219 238
219 262
219 264
220 180
220 183
220 188
220 192
220 218
220 219
220 221
220 231
220 237
220 238
220 245
220 264
221 180
221 183
221 188
221 202
221 218
221 219
221 220
221 229
221 237
221 238
221 245
221 264
222 165
222 186
222 194
222 197
222 203
222 204
222 207
222 224
222 242
222 247
222 261
222 267
223 173
223 190
223 196
223 197
223 199
223 207
223 225
223 226
223 247
223 253
223 256
223 263
223 272
224 185
224 186
224 194
224 197
224 203
224 204
224 207
224 211
224 222
224 241
224 242
224 247
224 255
224 261
224 267
225 170
225 172
225 190
225 196
225 199
225 205
225 207
225 223
225 226
225 232
225 253
225 256
225 266
225 271
226 172
226 176
226 178
226 190
226 196
226 202
226 205
226 223
226 225
226 232
226 234
226 253
226 256
226 266
226 271
227 191
227 198
227 200
227 214
227 215
227 216
227 228
227 230
227 233
227 244
227 249
227 250
227 252
227 276
228 198
228 200
228 214
228 215
228 216
228 227
228 230
228 233
228 244
228 248
228 249
228 250
228 252
228 276
229 178
229 179
229 183
229 202
229 205
229 219
229 221
229 232
229 234
229 237
229 260
229 262
229 264
229 278
229 282
230 198
230 200
230 214
230 216
230 227
230 228
230 244
230 248
230 250
230 252
230 276
230 279
231 188
231 191
231 192
231 215
231 216
231 218
231 220
231 233
231 238
231 245
231 249
231 250
231 268
231 270
231 273
232 176
232 178
232 196
232 202
232 205
232 225
232 226
232 229
232 234
232 253
232 256
232 260
232 266
232 278
232 285
233 191
233 192
233 198
233 215
233 216
233 227
233 228
233 231
233 245
233 249
233 250
233 252
233 270
233 273
234 178
234 196
234 202
234 205
234 219
234 226
234 229
234 232
234 260
234 262
234 266
234 278
235 184
235 195
235 201
235 206
235 209
235 236
235 246
235 251
235 269
235 275
236 184
236 195
236 201
236 206
236 209
236 235
236 246
236 251
236 269
236 274
236 275
237 218
237 219
237 220
237 221
237 229
237 238
237 245
237 262
237 264
237 268
237 284
238 188
238 218
238 219
238 220
238 221
238 231
238 237
238 245
238 264
238 268
238 270
238 284
239 193
239 201
239 208
239 213
239 217
239 243
239 246
239 254
239 258
239 274
239 277
239 280
240 189
240 210
240 211
240 212
240 217
240 241
240 243
240 255
240 257
240 259
240 265
240 281
240 286
240 288
241 203
241 210
241 211
241 212
241 224
241 240
241 242
241 255
241 257
241 259
241 265
241 267
241 286
241 288
241 293
242 194
242 203
242 204
242 211
242 222
242 224
242 241
242 255
242 259
242 261
242 267
242 287
242 288
242 293
243 208
243 210
243 212
243 213
243 217
243 239
243 240
243 254
243 257
243 258
243 259
243 265
243 277
243 280
243 281
243 286
244 200
244 214
244 216
244 227
244 228
244 230
244 248
244 250
244 252
244 276
244 279
244 283
244 296
245 215
245 218
245 220
245 221
245 231
245 233
245 237
245 238
245 249
245 264
245 268
245 270
245 284
245 295
246 201
246 206
246 235
246 236
246 239
246 251
246 258
246 269
246 274
246 275
246 277
247 197
247 207
247 222
247 223
247 224
247 253
247 261
247 263
247 267
247 272
247 289
247 290
247 292
248 200
248 214
248 228
248 230
248 244
248 252
248 276
248 279
248 283
249 215
249 216
249 227
249 228
249 231
249 233
249 245
249 250
249 252
249 268
249 270
249 273
249 291
250 215
250 216
250 227
250 228
250 230
250 231
250 233
250 244
250 249
250 252
250 270
250 273
250 276
250 291
251 206
251 209
251 235
251 236
251 246
251 269
251 274
251 275
251 294
251 297
252 198
252 215
252 216
252 227
252 228
252 230
252 233
252 244
252 248
252 249
252 250
252 273
252 276
252 279
252 291
252 296
253 223
253 225
253 226
253 232
253 247
253 256
253 263
253 266
253 271
253 272
253 285
253 292
254 208
254 213
254 217
254 239
254 243
254 258
254 265
254 274
254 277
254 280
254 281
254 302
255 203
255 211
255 224
255 240
255 241
255 242
255 257
255 259
255 261
255 267
255 287
255 288
255 293
256 223
256 225
256 226
256 232
256 253
256 260
256 266
256 271
256 272
256 285
256 292
256 298
257 210
257 211
257 212
257 217
257 240
257 241
257 243
257 255
257 259
257 265
257 281
257 286
257 288
258 208
258 239
258 243
258 246
258 254
258 274
258 275
258 277
258 280
258 301
258 302
259 210
259 211
259 240
259 241
259 242
259 243
259 255
259 257
259 265
259 267
259 281
259 286
259 288
259 293
259 307
260 229
260 232
260 234
260 256
260 262
260 266
260 278
260 282
260 285
260 298
260 299
260 300
261 222
261 224
261 242
261 247
261 255
261 263
261 267
261 287
261 289
261 290
261 293
262 219
262 229
262 234
262 237
262 260
262 264
262 266
262 278
262 282
262 299
262 300
262 303
263 207
263 223
263 247
263 253
263 261
263 271
263 272
263 289
263 290
263 292
263 314
264 219
264 220
264 221
264 229
264 237
264 238
264 245
264 262
264 268
264 282
264 284
264 299
264 303
264 306
265 212
265 217
265 240
265 241
265 243
265 254
265 257
265 259
265 277
265 280
265 281
265 286
265 302
265 304
265 307
266 225
266 226
266 232
266 234
266 253
266 256
266 260
266 262
266 271
266 278
266 285
266 298
266 300
267 222
267 224
267 241
267 242
267 247
267 255
267 259
267 261
267 287
267 288
267 289
267 290
267 293
267 312
268 218
268 231
268 237
268 238
268 245
268 249
268 264
268 270
268 273
268 284
268 295
268 306
268 308
268 310
268 311
269 235
269 236
269 246
269 251
269 275
269 294
269 297
269 309
269 315
270 231
270 233
270 238
270 245
270 249
270 250
270 268
270 273
270 284
270 291
270 295
270 308
270 310
270 311
271 225
271 226
271 253
271 256
271 263
271 266
271 272
271 285
271 292
271 298
271 319
271 322
272 223
272 247
272 253
272 256
272 263
272 271
272 290
272 292
272 314
272 316
272 319
273 231
273 233
273 249
273 250
273 252
273 268
273 270
273 276
273 291
273 295
273 311
273 326
274 236
274 239
274 246
274 251
274 254
274 258
274 275
274 277
274 280
274 297
274 301
274 305
274 317
275 235
275 236
275 246
275 251
275 258
275 269
275 274
275 294
275 297
275 305
275 309
275 315
275 317
276 227
276 228
276 230
276 244
276 248
276 250
276 252
276 273
276 279
276 283
276 291
276 296
276 321
276 324
276 325
277 239
277 243
277 246
277 254
277 258
277 265
277 274
277 280
277 281
277 301
277 302
277 304
277 305
277 320
277 323
278 229
278 232
278 234
278 260
278 262
278 266
278 282
278 285
278 298
278 299
278 300
278 303
278 330
279 230
279 244
279 248
279 252
279 276
279 283
279 291
279 296
279 318
279 324
279 325
280 239
280 243
280 254
280 258
280 265
280 274
280 277
280 281
280 286
280 301
280 302
280 304
280 320
280 323
281 240
281 243
281 254
281 257
281 259
281 265
281 277
281 280
281 286
281 302
281 304
281 307
281 320
281 329
282 229
282 260
282 262
282 264
282 278
282 284
282 299
282 300
282 303
282 306
283 244
283 248
283 276
283 279
283 296
283 318
283 324
284 237
284 238
284 245
284 264
284 268
284 270
284 282
284 295
284 303
284 306
284 308
284 310
285 232
285 253
285 256
285 260
285 266
285 271
285 278
285 298
285 299
285 300
285 319
285 322
285 328
285 330
286 240
286 241
286 243
286 257
286 259
286 265
286 280
286 281
286 288
286 293
286 304
286 307
286 313
286 320
286 329
287 242
287 255
287 261
287 267
287 288
287 289
287 290
287 293
287 312
287 313
287 314
287 327
288 240
288 241
288 242
288 255
288 257
288 259
288 267
288 286
288 287
288 293
288 307
288 312
288 313
288 333
288 337
289 247
289 261
289 263
289 267
289 287
289 290
289 292
289 293
289 312
289 314
289 327
289 334
290 247
290 261
290 263
290 267
290 272
290 287
290 289
290 292
290 314
290 316
290 327
290 332
290 334
291 249
291 250
291 252
291 270
291 273
291 276
291 279
291 296
291 311
291 321
291 325
291 326
292 247
292 253
292 256
292 263
292 271
292 272
292 289
292 290
292 314
292 316
292 319
292 332
292 334
292 344
293 241
293 242
293 255
293 259
293 261
293 267
293 286
293 287
293 288
293 289
293 307
293 312
293 313
293 333
294 251
294 269
294 275
294 297
294 305
294 309
294 315
294 317
295 245
295 268
295 270
295 273
295 284
295 306
295 308
295 310
295 311
295 336
295 338
295 340
296 244
296 252
296 276
296 279
296 283
296 291
296 318
296 321
296 324
296 325
297 251
297 269
297 274
297 275
297 294
297 305
297 309
297 315
297 317
297 339
298 256
298 260
298 266
298 271
298 278
298 285
298 299
298 300
298 319
298 322
298 328
298 330
298 348
298 349
299 260
299 262
299 264
299 278
299 282
299 285
299 298
299 300
299 303
299 306
299 328
299 330
299 335
299 342
299 343
300 260
300 262
300 266
300 278
300 282
300 285
300 298
300 299
300 303
300 322
300 328
300 330
300 342
300 343
300 348
301 258
301 274
301 277
301 280
301 302
301 304
301 305
301 317
301 320
301 323
301 331
301 339
301 341
302 254
302 258
302 265
302 277
302 280
302 281
302 301
302 304
302 305
302 320
302 323
302 331
302 341
303 262
303 264
303 278
303 282
303 284
303 299
303 300
303 306
303 310
303 335
303 336
303 342
303 343
303 353
303 355
304 265
304 277
304 280
304 281
304 286
304 301
304 302
304 307
304 320
304 323
304 329
304 341
304 346
305 274
305 275
305 277
305 294
305 297
305 301
305 302
305 309
305 315
305 317
305 323
305 331
305 339
305 360
306 264
306 268
306 282
306 284
306 295
306 299
306 303
306 308
306 310
306 335
306 336
306 338
306 340
306 342
306 353
306 355
307 259
307 265
307 281
307 286
307 288
307 293
307 304
307 313
307 320
307 329
307 333
307 337
307 341
307 346
308 268
308 270
308 284
308 295
308 306
308 310
308 311
308 326
308 336
308 338
308 340
308 350
308 363
309 269
309 275
309 294
309 297
309 305
309 315
309 317
309 356
310 268
310 270
310 284
310 295
310 303
310 306
310 308
310 311
310 335
310 336
310 338
310 340
310 353
310 362
311 268
311 270
311 273
311 291
311 295
311 308
311 310
311 321
311 326
311 338
311 340
311 350
312 267
312 287
312 288
312 289
312 293
312 313
312 327
312 333
312 337
312 345
313 286
313 287
313 288
313 293
313 307
313 312
313 329
313 333
313 337
313 345
314 263
314 272
314 287
314 289
314 290
314 292
314 316
314 319
314 327
314 332
314 334
314 344
314 345
314 351
314 354
314 359
315 269
315 275
315 294
315 297
315 305
315 309
315 317
315 331
315 339
315 356
316 272
316 290
316 292
316 314
316 319
316 322
316 327
316 332
316 334
316 344
316 347
316 351
316 354
316 359
317 274
317 275
317 294
317 297
317 301
317 305
317 309
317 315
317 323
317 331
317 339
317 356
317 360
318 279
318 283
318 296
318 324
318 325
318 357
319 271
319 272
319 285
319 292
319 298
319 314
319 316
319 322
319 328
319 332
319 334
319 344
319 347
319 348
319 349
319 354
319 359
320 277
320 280
320 281
320 286
320 301
320 302
320 304
320 307
320 323
320 329
320 331
320 341
320 346
320 364
321 276
321 291
321 296
321 311
321 324
321 325
321 326
321 352
321 365
322 271
322 285
322 298
322 300
322 316
322 319
322 328
322 330
322 332
322 347
322 348
322 349
322 354
322 361
323 277
323 280
323 301
323 302
323 304
323 305
323 317
323 320
323 331
323 339
323 341
324 276
324 279
324 283
324 296
324 318
324 321
324 325
324 352
324 357
325 276
325 279
325 291
325 296
325 318
325 321
325 324
325 326
325 352
325 357
325 365
326 273
326 291
326 308
326 311
326 321
326 325
326 350
326 352
326 365
327 287
327 289
327 290
327 312
327 314
327 316
327 332
327 333
327 334
327 344
327 345
327 351
327 359
328 285
328 298
328 299
328 300
328 319
328 322
328 330
328 343
328 347
328 348
328 349
328 358
328 361
329 281
329 286
329 304
329 307
329 313
329 320
329 333
329 337
329 341
329 346
329 364
329 367
330 278
330 285
330 298
330 299
330 300
330 322
330 328
330 335
330 342
330 343
330 348
330 349
330 358
330 361
331 301
331 302
331 305
331 315
331 317
331 320
331 323
331 339
331 341
331 360
331 373
332 290
332 292
332 314
332 316
332 319
332 322
332 327
332 334
332 344
332 347
332 349
332 351
332 354
332 359
332 368
332 378
333 288
333 293
333 307
333 312
333 313
333 327
333 329
333 337
333 345
333 366
333 367
333 369
334 289
334 290
334 292
334 314
334 316
334 319
334 327
334 332
334 344
334 345
334 351
334 354
334 359
334 368
335 299
335 303
335 306
335 310
335 330
335 336
335 338
335 342
335 343
335 353
335 355
335 358
335 362
336 295
336 303
336 306
336 308
336 310
336 335
336 338
336 340
336 342
336 353
336 355
336 362
336 363
337 288
337 307
337 312
337 313
337 329
337 333
337 346
337 364
337 366
337 367
337 377
338 295
338 306
338 308
338 310
338 311
338 335
338 336
338 340
338 350
338 353
338 355
338 362
338 363
339 297
339 301
339 305
339 315
339 317
339 323
339 331
339 356
339 360
339 373
339 382
340 295
340 306
340 308
340 310
340 311
340 336
340 338
340 350
340 353
340 362
340 363
341 301
341 302
341 304
341 307
341 320
341 323
341 329
341 331
341 346
341 364
341 370
341 371
341 373
342 299
342 300
342 303
342 306
342 330
342 335
342 336
342 343
342 353
342 355
342 358
342 379
342 383
343 299
343 300
343 303
343 328
343 330
343 335
343 342
343 348
343 355
343 358
343 361
343 379
344 292
344 314
344 316
344 319
344 327
344 332
344 334
344 345
344 347
344 351
344 354
344 359
344 368
344 378
344 381
345 312
345 313
345 314
345 327
345 333
345 334
345 344
345 351
345 366
345 368
345 369
345 380
346 304
346 307
346 320
346 329
346 337
346 341
346 364
346 367
346 370
346 377
346 387
347 316
347 319
347 322
347 328
347 332
347 344
347 348
347 349
347 354
347 359
347 361
347 375
347 378
347 381
347 385
348 298
348 300
348 319
348 322
348 328
348 330
348 343
348 347
348 349
348 358
348 361
348 375
348 379
349 298
349 319
349 322
349 328
349 330
349 332
349 347
349 348
349 354
349 358
349 361
349 375
349 381
349 385
349 390
350 308
350 311
350 326
350 338
350 340
350 362
350 363
350 365
350 372
351 314
351 316
351 327
351 332
351 334
351 344
351 345
351 354
351 359
351 368
351 369
351 378
351 380
351 386
352 321
352 324
352 325
352 326
352 357
352 365
352 372
352 374
352 376
353 303
353 306
353 310
353 335
353 336
353 338
353 340
353 342
353 355
353 362
353 363
353 383
353 398
354 314
354 316
354 319
354 322
354 332
354 334
354 344
354 347
354 349
354 351
354 359
354 361
354 368
354 375
354 378
354 381
354 385
355 303
355 306
355 335
355 336
355 338
355 342
355 343
355 353
355 358
355 362
355 379
355 383
356 309
356 315
356 317
356 339
356 360
356 382
356 388
357 318
357 324
357 325
357 352
357 365
357 374
357 376
357 401
358 328
358 330
358 335
358 342
358 343
358 348
358 349
358 355
358 361
358 375
358 379
358 383
358 394
358 399
359 314
359 316
359 319
359 327
359 332
359 334
359 344
359 347
359 351
359 354
359 368
359 378
359 381
359 385
359 396
360 305
360 317
360 331
360 339
360 356
360 371
360 373
360 382
360 388
360 389
361 322
361 328
361 330
361 343
361 347
361 348
361 349
361 354
361 358
361 375
361 379
361 381
361 385
361 390
361 394
362 310
362 335
362 336
362 338
362 340
362 350
362 353
362 355
362 363
362 393
362 398
363 308
363 336
363 338
363 340
363 350
363 353
363 362
363 372
363 393
363 398
363 406
364 320
364 329
364 337
364 341
364 346
364 367
364 370
364 371
364 377
364 387
364 391
364 392
364 397
365 321
365 325
365 326
365 350
365 352
365 357
365 372
365 374
365 376
365 402
365 403
366 333
366 337
366 345
366 367
366 369
366 377
366 380
366 384
366 386
366 387
366 395
366 404
367 329
367 333
367 337
367 346
367 364
367 366
367 369
367 377
367 384
367 387
367 392
367 395
367 404
368 332
368 334
368 344
368 345
368 351
368 354
368 359
368 369
368 378
368 380
368 381
368 385
368 386
368 396
368 410
369 333
369 345
369 351
369 366
369 367
369 368
369 380
369 384
369 386
369 395
369 404
369 411
370 341
370 346
370 364
370 371
370 373
370 377
370 387
370 389
370 391
370 392
370 397
370 417
370 418
371 341
371 360
371 364
371 370
371 373
371 389
371 391
371 392
371 397
371 418
372 350
372 352
372 363
372 365
372 374
372 402
372 403
372 409
372 419
373 331
373 339
373 341
373 360
373 370
373 371
373 382
373 389
373 391
373 397
373 413
374 352
374 357
374 365
374 372
374 376
374 401
374 402
374 403
374 420
375 347
375 348
375 349
375 354
375 358
375 361
375 378
375 379
375 381
375 385
375 390
375 394
375 407
375 408
375 416
376 352
376 357
376 365
376 374
376 401
376 402
376 420
377 337
377 346
377 364
377 366
377 367
377 370
377 384
377 387
377 392
377 397
377 404
377 424
378 332
378 344
378 347
378 351
378 354
378 359
378 368
378 375
378 381
378 385
378 386
378 390
378 396
378 410
378 415
378 416
379 342
379 343
379 348
379 355
379 358
379 361
379 375
379 383
379 390
379 394
379 399
379 400
379 407
379 412
379 423
380 345
380 351
380 366
380 368
380 369
380 384
380 386
380 395
380 396
380 404
380 410
380 411
381 344
381 347
381 349
381 354
381 359
381 361
381 368
381 375
381 378
381 385
381 390
381 394
381 396
381 408
381 415
381 416
382 339
382 356
382 360
382 373
382 388
382 389
382 391
382 413
382 414
382 425
383 342
383 353
383 355
383 358
383 379
383 398
383 399
383 400
383 405
383 412
383 421
383 428
384 366
384 367
384 369
384 377
384 380
384 386
384 387
384 395
384 404
384 411
384 426
385 347
385 349
385 354
385 359
385 361
385 368
385 375
385 378
385 381
385 390
385 394
385 396
385 407
385 408
385 415
385 416
386 351
386 366
386 368
386 369
386 378
386 380
386 384
386 395
386 396
386 410
386 411
386 434
387 346
387 364
387 366
387 367
387 370
387 377
387 384
387 392
387 397
387 404
387 417
387 424
387 426
387 433
388 356
388 360
388 382
388 414
388 422
388 425
389 360
389 370
389 371
389 373
389 382
389 391
389 397
389 413
389 414
389 418
389 427
389 431
390 349
390 361
390 375
390 378
390 379
390 381
390 385
390 394
390 399
390 407
390 408
390 415
390 416
390 423
391 364
391 370
391 371
391 373
391 382
391 389
391 392
391 397
391 413
391 414
391 417
391 418
391 427
391 431
392 364
392 367
392 370
392 371
392 377
392 387
392 391
392 397
392 404
392 417
392 418
392 424
392 433
392 438
392 441
393 362
393 363
393 398
393 405
393 406
393 409
393 421
393 430
393 432
393 442
394 358
394 361
394 375
394 379
394 381
394 385
394 390
394 399
394 407
394 408
394 412
394 416
394 423
395 366
395 367
395 369
395 380
395 384
395 386
395 404
395 410
395 411
395 426
395 434
395 437
395 440
396 359
396 368
396 378
396 380
396 381
396 385
396 386
396 410
396 411
396 415
396 416
396 447
397 364
397 370
397 371
397 373
397 377
397 387
397 389
397 391
397 392
397 413
397 417
397 418
397 424
397 427
397 438
397 441
397 448
398 353
398 362
398 363
398 383
398 393
398 400
398 405
398 406
398 421
398 432
398 436
398 442
399 358
399 379
399 383
399 390
399 394
399 400
399 405
399 407
399 408
399 412
399 423
399 428
400 379
400 383
400 398
400 399
400 405
400 412
400 421
400 423
400 428
400 436
401 357
401 374
401 376
401 402
401 403
401 419
401 420
401 429
401 435
401 444
401 445
402 365
402 372
402 374
402 376
402 401
402 403
402 409
402 419
402 420
402 439
402 444
402 445
403 365
403 372
403 374
403 401
403 402
403 409
403 419
403 420
403 430
403 439
403 444
404 366
404 367
404 369
404 377
404 380
404 384
404 387
404 392
404 395
404 411
404 424
404 426
404 433
404 437
404 440
404 456
405 383
405 393
405 398
405 399
405 400
405 406
405 412
405 421
405 428
405 436
405 442
406 363
406 393
406 398
406 405
406 409
406 421
406 430
406 432
406 442
407 375
407 379
407 385
407 390
407 394
407 399
407 408
407 412
407 416
407 423
407 446
407 450
407 452
408 375
408 381
408 385
408 390
408 394
408 399
408 407
408 412
408 415
408 416
408 423
408 446
408 449
408 450
409 372
409 393
409 402
409 403
409 406
409 419
409 430
409 432
409 439
409 460
410 368
410 378
410 380
410 386
410 395
410 396
410 411
410 415
410 434
410 440
410 447
410 455
411 369
411 380
411 384
411 386
411 395
411 396
411 404
411 410
411 426
411 434
411 437
411 440
411 447
411 455
412 379
412 383
412 394
412 399
412 400
412 405
412 407
412 408
412 423
412 428
412 436
412 450
412 452
412 454
413 373
413 382
413 389
413 391
413 397
413 414
413 418
413 425
413 427
413 431
413 443
413 448
413 459
413 463
414 382
414 388
414 389
414 391
414 413
414 422
414 425
414 427
414 431
414 443
414 451
414 459
414 462
415 378
415 381
415 385
415 390
415 396
415 408
415 410
415 416
415 446
415 447
415 449
415 465
416 375
416 378
416 381
416 385
416 390
416 394
416 396
416 407
416 408
416 415
416 446
416 449
416 450
416 465
417 370
417 387
417 391
417 392
417 397
417 418
417 424
417 427
417 431
417 433
417 438
417 441
417 448
417 458
417 461
417 463
418 370
418 371
418 389
418 391
418 392
418 397
418 413
418 417
418 424
418 427
418 431
418 438
418 441
418 448
418 458
418 459
418 461
418 463
419 372
419 401
419 402
419 403
419 409
419 420
419 430
419 439
419 444
419 445
419 460
420 374
420 376
420 401
420 402
420 403
420 419
420 429
420 435
420 439
420 444
420 445
420 457
420 460
421 383
421 393
421 398
421 400
421 405
421 406
421 428
421 432
421 436
421 442
421 454
421 467
422 388
422 414
422 425
422 443
422 451
422 453
422 462
423 379
423 390
423 394
423 399
423 400
423 407
423 408
423 412
423 428
423 446
423 450
423 452
424 377
424 387
424 392
424 397
424 404
424 417
424 418
424 426
424 433
424 437
424 438
424 441
424 456
424 458
424 461
424 464
425 382
425 388
425 413
425 414
425 422
425 431
425 443
425 451
425 453
425 462
426 384
426 387
426 395
426 404
426 411
426 424
426 433
426 434
426 437
426 440
426 456
426 466
427 389
427 391
427 397
427 413
427 414
427 417
427 418
427 431
427 438
427 441
427 443
427 448
427 458
427 459
427 463
428 383
428 399
428 400
428 405
428 412
428 421
428 423
428 436
428 452
428 454
428 467
429 401
429 420
429 435
429 444
429 445
429 457
430 393
430 403
430 406
430 409
430 419
430 432
430 439
430 442
430 460
430 468
430 470
431 389
431 391
431 413
431 414
431 417
431 418
431 425
431 427
431 441
431 443
431 448
431 458
431 459
431 462
431 463
432 393
432 398
432 406
432 409
432 421
432 430
432 442
432 460
432 468
432 470
433 387
433 392
433 404
433 417
433 424
433 426
433 437
433 438
433 441
433 456
433 461
433 464
434 386
434 395
434 410
434 411
434 426
434 437
434 440
434 447
434 455
434 466
434 469
435 401
435 420
435 429
435 439
435 444
435 445
435 457
436 398
436 400
436 405
436 412
436 421
436 428
436 442
436 454
436 467
437 395
437 404
437 411
437 424
437 426
437 433
437 434
437 440
437 455
437 456
437 464
437 466
437 469
438 392
438 397
438 417
438 418
438 424
438 427
438 433
438 441
438 448
438 456
438 458
438 461
438 463
438 464
439 402
439 403
439 409
439 419
439 420
439 430
439 435
439 444
439 445
439 460
440 395
440 404
440 410
440 411
440 426
440 434
440 437
440 447
440 455
440 456
440 466
440 469
441 392
441 397
441 417
441 418
441 424
441 427
441 431
441 433
441 438
441 448
441 458
441 461
441 463
441 464
442 393
442 398
442 405
442 406
442 421
442 430
442 432
442 436
442 467
442 468
442 470
443 413
443 414
443 422
443 425
443 427
443 431
443 448
443 451
443 453
443 459
443 462
443 463
444 401
444 402
444 403
444 419
444 420
444 429
444 435
444 439
444 445
444 457
444 460
445 401
445 402
445 419
445 420
445 429
445 435
445 439
445 444
445 457
446 407
446 408
446 415
446 416
446 423
446 449
446 450
446 452
446 465
447 396
447 410
447 411
447 415
447 434
447 440
447 449
447 455
447 465
447 469
448 397
448 413
448 417
448 418
448 427
448 431
448 438
448 441
448 443
448 458
448 459
448 461
448 463
449 408
449 415
449 416
449 446
449 447
449 450
449 465
450 407
450 408
450 412
450 416
450 423
450 446
450 449
450 452
450 465
451 414
451 422
451 425
451 443
451 453
451 462
452 407
452 412
452 423
452 428
452 446
452 450
452 454
453 422
453 425
453 443
453 451
453 462
454 412
454 421
454 428
454 436
454 452
454 467
455 410
455 411
455 434
455 437
455 440
455 447
455 466
455 469
456 404
456 424
456 426
456 433
456 437
456 438
456 440
456 461
456 464
456 466
457 420
457 429
457 435
457 444
457 445
458 417
458 418
458 424
458 427
458 431
458 438
458 441
458 448
458 459
458 461
458 463
458 464
459 413
459 414
459 418
459 427
459 431
459 443
459 448
459 458
459 462
459 463
460 409
460 419
460 420
460 430
460 432
460 439
460 444
460 468
460 470
461 417
461 418
461 424
461 433
461 438
461 441
461 448
461 456
461 458
461 463
461 464
462 414
462 422
462 425
462 431
462 443
462 451
462 453
462 459
463 413
463 417
463 418
463 427
463 431
463 438
463 441
463 443
463 448
463 458
463 459
463 461
464 424
464 433
464 437
464 438
464 441
464 456
464 458
464 461
465 415
465 416
465 446
465 447
465 449
465 450
466 426
466 434
466 437
466 440
466 455
466 456
466 469
467 421
467 428
467 436
467 442
467 454
467 468
468 430
468 432
468 442
468 460
468 467
468 470
469 434
469 437
469 440
469 447
469 455
469 466
470 430
470 432
470 442
470 460
470 468
