1 2
1 19
1 21
1 22
2 1
2 3
2 21
3 2
3 12
3 15
3 24
4 17
4 25
5 7
5 12
5 15
5 30
6 8
6 13
6 26
6 28
6 36
7 5
7 15
7 30
8 6
8 20
8 28
8 36
9 14
9 20
9 29
9 33
9 34
10 16
10 19
10 27
10 31
10 39
11 23
11 40
12 3
12 5
12 15
12 24
12 42
13 6
13 23
13 26
13 36
14 9
14 33
14 34
15 3
15 5
15 7
15 12
15 24
15 30
15 41
15 50
16 10
16 19
16 27
16 31
16 39
16 46
17 4
17 25
17 35
17 43
17 54
18 32
18 37
19 1
19 10
19 16
19 22
19 31
19 39
19 47
20 8
20 9
20 28
20 29
20 33
20 44
21 1
21 2
21 22
21 24
21 38
21 51
22 1
22 19
22 21
22 31
22 38
22 47
23 11
23 13
23 26
23 40
23 52
24 3
24 12
24 15
24 21
24 42
24 55
25 4
25 17
25 32
25 35
25 43
25 54
26 6
26 13
26 23
26 36
26 49
27 10
27 16
27 39
27 46
28 6
28 8
28 20
28 36
28 44
28 49
28 59
29 9
29 20
29 33
29 44
29 48
29 61
29 63
30 5
30 7
30 15
30 41
30 45
30 50
31 10
31 16
31 19
31 22
31 38
31 39
31 47
31 60
31 67
32 18
32 25
32 37
32 43
32 57
32 64
33 9
33 14
33 20
33 29
33 34
33 44
33 48
33 63
33 65
34 9
34 14
34 33
34 48
34 53
34 65
35 17
35 25
35 43
35 54
35 58
36 6
36 8
36 13
36 26
36 28
36 49
36 59
36 62
37 18
37 32
37 57
37 64
38 21
38 22
38 31
38 51
38 60
38 68
39 10
39 16
39 19
39 27
39 31
39 46
39 47
39 67
39 73
40 11
40 23
40 45
40 52
40 56
40 66
41 15
41 30
41 42
41 50
41 70
42 12
42 24
42 41
42 55
42 70
42 74
43 17
43 25
43 32
43 35
43 54
43 64
43 71
44 20
44 28
44 29
44 33
44 48
44 59
44 61
44 63
45 30
45 40
45 50
45 56
45 78
46 16
46 27
46 39
46 57
46 69
46 73
46 81
47 19
47 22
47 31
47 39
47 60
47 67
47 73
48 29
48 33
48 34
48 44
48 53
48 61
48 63
48 65
49 26
49 28
49 36
49 59
49 62
49 76
49 79
50 15
50 30
50 41
50 45
50 70
50 83
51 21
51 38
51 55
51 60
51 68
51 75
52 23
52 40
52 56
52 62
52 66
53 34
53 48
53 65
54 17
54 25
54 35
54 43
54 58
54 71
54 80
55 24
55 42
55 51
55 68
55 74
56 40
56 45
56 52
56 66
56 78
56 85
57 32
57 37
57 46
57 64
57 69
57 72
58 35
58 54
58 80
59 28
59 36
59 44
59 49
59 61
59 76
59 84
60 31
60 38
60 47
60 51
60 67
60 68
60 75
61 29
61 44
61 48
61 59
61 63
61 65
61 77
61 84
61 88
62 36
62 49
62 52
62 66
62 76
62 79
63 29
63 33
63 44
63 48
63 61
63 65
63 77
63 88
64 32
64 37
64 43
64 57
64 71
64 72
64 82
65 33
65 34
65 48
65 53
65 61
65 63
65 77
65 87
66 40
66 52
66 56
66 62
66 78
66 79
66 85
66 98
67 31
67 39
67 47
67 60
67 73
67 89
68 38
68 51
68 55
68 60
68 75
68 92
69 46
69 57
69 73
69 81
70 41
70 42
70 50
70 74
70 83
70 86
70 91
71 43
71 54
71 64
71 72
71 80
71 82
71 95
71 100
72 57
72 64
72 71
72 82
72 99
72 107
73 39
73 46
73 47
73 67
73 69
73 81
73 89
73 105
74 42
74 55
74 70
74 86
74 91
75 51
75 60
75 68
75 92
75 94
76 49
76 59
76 62
76 79
76 84
76 101
76 102
77 61
77 63
77 65
77 84
77 88
77 96
77 97
78 45
78 56
78 66
78 83
78 85
78 93
78 106
79 49
79 62
79 66
79 76
79 98
79 101
79 102
80 54
80 58
80 71
80 95
80 100
80 103
81 46
81 69
81 73
81 105
81 109
82 64
82 71
82 72
82 95
82 99
82 107
83 50
83 70
83 78
83 86
83 93
83 104
83 106
84 59
84 61
84 76
84 77
84 88
84 101
84 118
84 121
85 56
85 66
85 78
85 93
85 98
85 111
85 119
85 120
86 70
86 74
86 83
86 91
86 104
86 112
86 114
87 65
87 90
87 96
87 97
87 113
87 115
88 61
88 63
88 77
88 84
88 96
88 97
88 121
88 124
89 67
89 73
89 94
89 105
89 108
89 122
90 87
90 96
90 113
90 115
91 70
91 74
91 86
91 92
91 112
91 114
92 68
92 75
92 91
92 94
92 110
92 117
92 128
93 78
93 83
93 85
93 104
93 106
93 111
93 119
93 129
94 75
94 89
94 92
94 108
94 110
94 117
94 134
95 71
95 80
95 82
95 100
95 103
95 107
95 116
95 135
96 77
96 87
96 88
96 90
96 97
96 113
96 115
96 124
96 132
97 77
97 87
97 88
97 96
97 113
97 121
97 124
98 66
98 79
98 85
98 102
98 111
98 120
99 72
99 82
99 107
99 109
99 125
100 71
100 80
100 95
100 103
100 116
100 135
101 76
101 79
101 84
101 102
101 118
101 123
102 76
102 79
102 98
102 101
102 120
102 123
102 126
103 80
103 95
103 100
103 116
104 83
104 86
104 93
104 106
104 114
104 119
104 127
104 138
105 73
105 81
105 89
105 109
105 122
105 142
106 78
106 83
106 93
106 104
106 111
106 114
106 119
106 127
106 129
106 138
107 72
107 82
107 95
107 99
107 125
107 130
107 131
108 89
108 94
108 110
108 117
108 128
108 134
109 81
109 99
109 105
109 122
109 125
109 140
110 92
110 94
110 108
110 117
110 128
110 136
111 85
111 93
111 98
111 106
111 119
111 120
111 129
111 144
112 86
112 91
112 114
112 127
112 133
112 136
113 87
113 90
113 96
113 97
113 115
113 124
113 132
114 86
114 91
114 104
114 106
114 112
114 127
114 133
114 138
115 87
115 90
115 96
115 113
115 132
115 139
116 95
116 100
116 103
116 135
116 146
116 148
117 92
117 94
117 108
117 110
117 128
117 134
118 84
118 101
118 121
118 123
118 137
118 141
119 85
119 93
119 104
119 106
119 111
119 120
119 129
119 138
119 147
120 85
120 98
120 102
120 111
120 119
120 126
120 129
120 144
121 84
121 88
121 97
121 118
121 123
121 124
121 137
121 141
121 145
122 89
122 105
122 109
122 142
123 101
123 102
123 118
123 121
123 126
123 137
123 141
123 149
124 88
124 96
124 97
124 113
124 121
124 132
124 145
125 99
125 107
125 109
125 130
125 131
125 143
126 102
126 120
126 123
126 141
126 144
126 149
126 154
127 104
127 106
127 112
127 114
127 133
127 138
128 92
128 108
128 110
128 117
128 134
128 136
128 151
129 93
129 106
129 111
129 119
129 120
129 138
129 144
129 147
129 159
129 162
130 107
130 125
130 131
130 143
130 164
130 165
131 107
131 125
131 130
131 135
131 143
131 150
131 165
132 96
132 113
132 115
132 124
132 139
132 153
132 155
132 160
133 112
133 114
133 127
133 136
133 168
134 94
134 108
134 117
134 128
134 152
134 158
134 170
134 175
135 95
135 100
135 116
135 131
135 148
135 150
135 176
136 110
136 112
136 128
136 133
136 151
136 168
137 118
137 121
137 123
137 141
137 149
137 156
137 161
137 174
138 104
138 106
138 114
138 119
138 127
138 129
138 147
138 159
138 169
138 172
139 115
139 132
139 153
139 155
139 160
140 109
140 142
140 157
140 163
141 118
141 121
141 123
141 126
141 137
141 149
141 154
141 161
141 174
142 105
142 122
142 140
142 157
142 158
142 163
142 177
143 125
143 130
143 131
143 164
143 165
144 111
144 120
144 126
144 129
144 154
144 162
144 167
145 121
145 124
145 156
145 160
145 166
146 116
146 148
146 150
146 171
146 173
147 119
147 129
147 138
147 159
147 162
147 169
147 182
148 116
148 135
148 146
148 150
148 171
148 173
148 176
149 123
149 126
149 137
149 141
149 154
149 161
149 179
149 186
150 131
150 135
150 146
150 148
150 165
150 171
150 173
150 176
151 128
151 136
151 152
151 170
151 184
152 134
152 151
152 158
152 170
152 175
152 177
152 189
152 194
153 132
153 139
153 155
153 160
153 166
153 185
154 126
154 141
154 144
154 149
154 161
154 167
154 179
154 186
155 132
155 139
155 153
155 160
155 185
156 137
156 145
156 161
156 166
156 174
156 193
157 140
157 142
157 163
157 183
157 192
158 134
158 142
158 152
158 163
158 175
158 177
158 183
158 194
159 129
159 138
159 147
159 162
159 169
159 181
159 182
160 132
160 139
160 145
160 153
160 155
160 166
160 185
160 196
161 137
161 141
161 149
161 154
161 156
161 174
161 179
161 186
162 129
162 144
162 147
162 159
162 167
162 181
162 182
163 140
163 142
163 157
163 158
163 177
163 183
164 130
164 143
164 165
164 180
164 191
165 130
165 131
165 143
165 150
165 164
165 176
165 180
165 191
166 145
166 153
166 156
166 160
166 174
166 193
166 196
166 197
167 144
167 154
167 162
167 181
167 186
168 133
168 136
168 172
168 178
168 188
168 195
168 198
169 138
169 147
169 159
169 172
169 182
169 188
170 134
170 151
170 152
170 175
170 184
170 189
170 194
171 146
171 148
171 150
171 173
171 176
171 187
171 190
172 138
172 168
172 169
172 178
172 188
173 146
173 148
173 150
173 171
173 176
173 187
173 190
174 137
174 141
174 156
174 161
174 166
174 179
174 193
175 134
175 152
175 158
175 170
175 177
175 184
175 189
175 194
176 135
176 148
176 150
176 165
176 171
176 173
176 187
176 190
176 191
177 142
177 152
177 158
177 163
177 175
177 183
177 194
177 199
178 168
178 172
178 188
178 195
178 198
179 149
179 154
179 161
179 174
179 186
179 203
179 204
180 164
180 165
180 191
180 205
181 159
181 162
181 167
181 182
181 202
181 207
181 211
182 147
182 159
182 162
182 169
182 181
182 200
182 202
182 211
183 157
183 158
183 163
183 177
183 192
183 199
183 217
183 219
184 151
184 170
184 175
184 189
184 195
184 201
184 209
185 153
185 155
185 160
185 196
185 213
186 149
186 154
186 161
186 167
186 179
186 203
186 204
186 207
186 214
187 171
187 173
187 176
187 190
187 210
187 216
188 168
188 169
188 172
188 178
188 198
188 200
188 212
189 152
189 170
189 175
189 184
189 194
189 195
189 201
190 171
190 173
190 176
190 187
190 210
190 216
191 164
191 165
191 176
191 180
191 205
192 157
192 183
192 206
192 217
192 220
193 156
193 166
193 174
193 197
193 203
194 152
194 158
194 170
194 175
194 177
194 189
194 199
194 208
195 168
195 178
195 184
195 189
195 198
195 201
195 209
195 215
196 160
196 166
196 185
196 197
196 213
196 218
197 166
197 193
197 196
197 218
197 221
197 229
198 168
198 178
198 188
198 195
198 209
198 212
198 215
198 232
199 177
199 183
199 194
199 208
199 217
199 219
199 234
200 182
200 188
200 202
200 212
201 184
201 189
201 195
201 209
201 215
201 223
201 230
202 181
202 182
202 200
202 211
202 226
202 236
203 179
203 186
203 193
203 204
203 214
203 222
203 224
204 179
204 186
204 203
204 207
204 214
204 222
205 180
205 191
205 206
205 220
205 227
205 233
206 192
206 205
206 217
206 220
206 242
207 181
207 186
207 204
207 211
207 214
207 238
208 194
208 199
208 219
208 228
208 235
208 239
209 184
209 195
209 198
209 201
209 215
209 223
209 230
209 232
210 187
210 190
210 216
210 231
210 241
211 181
211 182
211 202
211 207
211 226
212 188
212 198
212 200
212 215
212 232
212 237
213 185
213 196
213 218
213 225
213 229
214 186
214 203
214 204
214 207
214 222
214 243
215 195
215 198
215 201
215 209
215 212
215 223
215 232
216 187
216 190
216 210
216 231
216 241
217 183
217 192
217 199
217 206
217 219
217 220
217 234
217 246
218 196
218 197
218 213
218 221
218 225
218 229
219 183
219 199
219 208
219 217
219 234
219 246
219 248
220 192
220 205
220 206
220 217
220 240
220 242
221 197
221 218
221 224
221 229
221 254
222 203
222 204
222 214
222 224
222 243
222 244
222 247
222 255
223 201
223 209
223 215
223 230
223 232
223 235
223 251
223 256
224 203
224 221
224 222
224 244
224 247
225 213
225 218
225 229
225 250
226 202
226 211
226 236
226 245
226 261
227 205
227 233
227 252
228 208
228 230
228 235
228 239
228 257
229 197
229 213
229 218
229 221
229 225
229 250
229 254
230 201
230 209
230 223
230 228
230 235
230 239
230 256
230 262
231 210
231 216
231 241
231 259
232 198
232 209
232 212
232 215
232 223
232 237
232 249
232 251
233 205
233 227
233 240
233 252
233 258
234 199
234 217
234 219
234 246
234 248
235 208
235 223
235 228
235 230
235 239
235 257
235 262
235 265
236 202
236 226
236 237
236 245
236 260
236 261
237 212
237 232
237 236
237 249
237 266
238 207
238 243
238 245
238 253
238 261
239 208
239 228
239 230
239 235
239 257
239 265
240 220
240 233
240 242
240 258
240 268
241 210
241 216
241 231
241 259
241 270
242 206
242 220
242 240
242 246
242 268
243 214
243 222
243 238
243 244
243 253
243 255
244 222
244 224
244 243
244 247
244 255
244 263
244 275
245 226
245 236
245 238
245 253
245 260
245 261
245 271
246 217
246 219
246 234
246 242
246 248
246 273
247 222
247 224
247 244
247 254
247 255
247 263
247 278
248 219
248 234
248 246
248 257
248 273
248 276
249 232
249 237
249 251
249 266
249 272
249 282
250 225
250 229
250 264
250 269
251 223
251 232
251 249
251 256
251 272
252 227
252 233
252 258
252 267
252 274
252 283
253 238
253 243
253 245
253 261
253 277
253 279
254 221
254 229
254 247
254 263
254 269
254 278
255 222
255 243
255 244
255 247
255 263
255 275
255 277
256 223
256 230
256 251
256 262
256 272
256 280
257 228
257 235
257 239
257 248
257 265
257 276
257 281
258 233
258 240
258 252
258 268
258 274
259 231
259 241
259 267
259 270
260 236
260 245
260 261
260 266
260 271
260 286
261 226
261 236
261 238
261 245
261 253
261 260
261 271
261 279
262 230
262 235
262 256
262 265
262 280
263 244
263 247
263 254
263 255
263 275
263 278
264 250
264 269
264 284
264 285
265 235
265 239
265 257
265 262
265 280
265 281
265 290
266 237
266 249
266 260
266 272
266 282
266 288
266 296
267 252
267 259
267 270
267 274
267 283
267 293
267 294
268 240
268 242
268 258
268 273
268 287
269 250
269 254
269 264
269 284
269 285
269 295
270 241
270 259
270 267
271 245
271 260
271 261
271 279
271 286
271 300
272 249
272 251
272 256
272 266
272 282
272 288
272 291
273 246
273 248
273 268
273 276
273 298
274 252
274 258
274 267
274 283
274 294
275 244
275 255
275 263
275 277
275 278
275 289
275 292
275 299
276 248
276 257
276 273
276 281
276 301
276 306
277 253
277 255
277 275
277 279
277 289
277 299
278 247
278 254
278 263
278 275
278 289
278 292
278 304
279 253
279 261
279 271
279 277
279 308
280 256
280 262
280 265
280 281
280 290
280 297
280 303
281 257
281 265
281 276
281 280
281 290
281 297
281 301
282 249
282 266
282 272
282 286
282 288
282 296
282 309
283 252
283 267
283 274
283 293
283 294
283 313
284 264
284 269
284 285
284 295
284 310
285 264
285 269
285 284
285 310
286 260
286 271
286 282
286 296
286 300
286 309
287 268
287 298
287 305
288 266
288 272
288 282
288 291
288 296
288 309
288 312
288 321
289 275
289 277
289 278
289 292
289 299
289 304
289 311
289 314
289 317
290 265
290 280
290 281
290 297
290 301
290 307
290 319
291 272
291 288
291 303
291 312
292 275
292 278
292 289
292 295
292 304
292 314
293 267
293 283
293 294
293 302
293 313
293 327
294 267
294 274
294 283
294 293
294 313
295 269
295 284
295 292
295 304
295 310
295 315
295 326
296 266
296 282
296 286
296 288
296 309
296 321
297 280
297 281
297 290
297 303
297 307
297 333
298 273
298 287
298 306
298 318
298 328
299 275
299 277
299 289
299 311
299 317
299 332
300 271
300 286
300 308
300 322
300 323
300 330
301 276
301 281
301 290
301 306
301 307
301 319
301 329
302 293
302 316
302 327
302 336
303 280
303 291
303 297
303 307
303 312
303 331
304 278
304 289
304 292
304 295
304 314
304 315
304 335
305 287
305 318
305 325
305 334
306 276
306 298
306 301
306 318
306 319
306 328
307 290
307 297
307 301
307 303
307 319
307 329
307 333
308 279
308 300
308 311
308 322
308 323
308 332
309 282
309 286
309 288
309 296
309 321
309 330
310 284
310 285
310 295
310 315
310 320
310 324
310 326
310 337
311 289
311 299
311 308
311 317
311 322
311 332
312 288
312 291
312 303
312 321
312 331
312 342
313 283
313 293
313 294
313 327
314 289
314 292
314 304
314 315
314 317
314 335
315 295
315 304
315 310
315 314
315 326
315 335
315 341
316 302
316 327
316 336
317 289
317 299
317 311
317 314
317 332
317 335
317 349
318 298
318 305
318 306
318 325
318 328
318 340
318 343
319 290
319 301
319 306
319 307
319 328
319 329
319 333
319 339
320 310
320 324
320 326
320 337
321 288
321 296
321 309
321 312
321 330
321 342
321 347
322 300
322 308
322 311
322 323
322 332
322 338
322 346
323 300
323 308
323 322
323 330
323 338
323 344
323 346
324 310
324 320
324 326
324 337
324 352
325 305
325 318
325 334
325 340
326 295
326 310
326 315
326 320
326 324
326 337
326 341
327 293
327 302
327 313
327 316
327 336
327 360
328 298
328 306
328 318
328 319
328 339
328 340
328 343
329 301
329 307
329 319
329 333
329 339
329 351
330 300
330 309
330 321
330 323
330 338
330 344
331 303
331 312
331 342
331 345
331 350
332 299
332 308
332 311
332 317
332 322
332 346
332 349
332 353
332 356
333 297
333 307
333 319
333 329
333 339
333 350
333 351
334 305
334 325
334 357
334 361
335 304
335 314
335 315
335 317
335 341
335 348
335 354
336 302
336 316
336 327
336 358
336 360
337 310
337 320
337 324
337 326
337 341
337 352
337 365
338 322
338 323
338 330
338 344
338 346
338 363
338 366
339 319
339 328
339 329
339 333
339 343
339 351
339 370
340 318
340 325
340 328
340 343
340 355
340 357
340 364
340 373
340 376
341 315
341 326
341 335
341 337
341 354
341 359
342 312
342 321
342 331
342 345
342 347
342 367
342 369
343 318
343 328
343 339
343 340
343 355
343 364
343 376
344 323
344 330
344 338
344 347
344 366
344 368
345 331
345 342
345 350
345 374
346 322
346 323
346 332
346 338
346 356
346 363
346 366
347 321
347 342
347 344
347 367
347 369
348 335
348 353
348 354
349 317
349 332
349 353
349 356
349 375
350 331
350 333
350 345
350 351
350 374
350 380
351 329
351 333
351 339
351 350
351 370
351 371
352 324
352 337
352 365
352 377
353 332
353 348
353 349
353 354
353 356
353 375
354 335
354 341
354 348
354 353
354 359
354 378
354 384
355 340
355 343
355 357
355 364
355 373
355 376
355 381
355 389
356 332
356 346
356 349
356 353
356 363
356 375
356 382
357 334
357 340
357 355
357 361
357 373
357 379
358 336
358 360
358 372
359 341
359 354
359 377
359 378
359 383
360 327
360 336
360 358
360 362
360 372
360 387
361 334
361 357
361 362
361 379
362 360
362 361
362 372
362 386
362 387
363 338
363 346
363 356
363 366
363 382
363 388
364 340
364 343
364 355
364 370
364 373
364 376
364 381
364 389
365 337
365 352
365 377
365 393
366 338
366 344
366 346
366 363
366 368
366 385
366 388
367 342
367 347
367 368
367 369
367 385
367 390
368 344
368 366
368 367
368 385
369 342
369 347
369 367
369 374
369 390
370 339
370 351
370 364
370 371
370 381
371 351
371 370
371 380
372 358
372 360
372 362
372 387
373 340
373 355
373 357
373 364
373 376
373 379
373 381
373 389
373 391
374 345
374 350
374 369
374 380
375 349
375 353
375 356
375 382
375 384
375 392
376 340
376 343
376 355
376 364
376 373
376 381
376 389
376 391
377 352
377 359
377 365
377 383
377 393
378 354
378 359
378 383
378 384
379 357
379 361
379 373
379 391
380 350
380 371
380 374
381 355
381 364
381 370
381 373
381 376
381 389
382 356
382 363
382 375
382 388
382 392
383 359
383 377
383 378
384 354
384 375
384 378
384 392
385 366
385 367
385 368
386 362
386 387
387 360
387 362
387 372
387 386
388 363
388 366
388 382
389 355
389 364
389 373
389 376
389 381
389 391
390 367
390 369
391 373
391 376
391 379
391 389
392 375
392 382
392 384
393 365
393 377
