1 7
1 12
1 14
1 24
1 32
1 36
2 3
2 5
2 8
2 25
2 27
2 29
3 2
3 8
3 19
3 25
3 27
3 39
4 9
4 11
4 17
4 18
4 26
4 30
5 2
5 6
5 22
5 27
5 29
6 5
6 17
6 20
6 22
6 29
7 1
7 15
7 36
7 37
7 38
8 2
8 3
8 19
8 25
8 39
8 40
9 4
9 11
9 13
9 18
9 26
9 31
10 12
10 13
10 21
10 24
10 33
10 42
11 4
11 9
11 13
11 26
11 31
11 33
12 1
12 10
12 14
12 21
12 24
12 32
13 9
13 10
13 11
13 21
13 31
13 33
14 1
14 12
14 24
14 32
14 36
15 7
15 34
15 36
15 37
15 38
16 23
16 28
16 34
16 35
16 47
17 4
17 6
17 18
17 20
17 22
17 26
17 30
17 41
17 51
18 4
18 9
18 17
18 26
18 30
18 51
18 56
19 3
19 8
19 25
19 39
19 40
20 6
20 17
20 22
20 29
20 30
20 41
20 52
21 10
21 12
21 13
21 24
21 33
21 42
21 45
21 48
22 5
22 6
22 17
22 20
22 27
22 29
22 41
22 43
22 52
23 16
23 28
23 34
23 35
23 47
23 54
23 57
24 1
24 10
24 12
24 14
24 21
24 32
24 45
24 50
24 58
25 2
25 3
25 8
25 19
25 27
25 39
25 40
25 46
26 4
26 9
26 11
26 17
26 18
26 30
26 31
26 44
26 51
26 55
26 56
27 2
27 3
27 5
27 22
27 25
27 29
27 39
27 43
27 46
28 16
28 23
28 35
28 47
28 54
28 57
29 2
29 5
29 6
29 20
29 22
29 27
29 43
29 46
30 4
30 17
30 18
30 20
30 26
30 41
30 51
30 56
31 9
31 11
31 13
31 26
31 33
31 44
31 48
31 53
31 55
32 1
32 12
32 14
32 24
32 36
32 45
32 50
32 58
33 10
33 11
33 13
33 21
33 31
33 42
33 44
33 48
33 53
34 15
34 16
34 23
34 35
34 37
34 38
34 47
34 57
34 59
34 60
35 16
35 23
35 28
35 34
35 37
35 47
35 54
35 57
35 60
36 1
36 7
36 14
36 15
36 32
36 37
36 38
36 49
36 50
36 59
37 7
37 15
37 34
37 35
37 36
37 38
37 47
37 49
37 59
37 60
38 7
38 15
38 34
38 36
38 37
38 49
38 59
39 3
39 8
39 19
39 25
39 27
39 40
39 46
39 61
39 62
39 65
39 71
40 8
40 19
40 25
40 39
40 46
40 61
40 65
41 17
41 20
41 22
41 30
41 51
41 52
41 70
41 76
42 10
42 21
42 33
42 45
42 48
42 58
42 75
42 78
43 22
43 27
43 29
43 46
43 52
43 63
43 70
43 71
44 26
44 31
44 33
44 48
44 53
44 55
44 56
44 74
44 77
45 21
45 24
45 32
45 42
45 50
45 58
45 78
45 79
46 25
46 27
46 29
46 39
46 40
46 43
46 61
46 62
46 63
46 71
47 16
47 23
47 28
47 34
47 35
47 37
47 54
47 57
47 59
47 60
47 66
47 69
47 80
48 21
48 31
48 33
48 42
48 44
48 53
48 74
48 75
49 36
49 37
49 38
49 59
49 60
49 66
49 68
49 73
49 82
50 24
50 32
50 36
50 45
50 58
50 64
50 79
51 17
51 18
51 26
51 30
51 41
51 52
51 56
51 67
51 72
51 76
52 20
52 22
52 41
52 43
52 51
52 70
52 76
53 31
53 33
53 44
53 48
53 55
53 74
53 77
54 23
54 28
54 35
54 47
54 57
54 69
54 80
54 81
55 26
55 31
55 44
55 53
55 56
55 67
55 72
55 74
55 77
56 18
56 26
56 30
56 44
56 51
56 55
56 67
56 72
56 77
57 23
57 28
57 34
57 35
57 47
57 54
57 60
57 66
57 69
57 80
57 81
58 24
58 32
58 42
58 45
58 50
58 64
58 78
58 79
59 34
59 36
59 37
59 38
59 47
59 49
59 60
59 66
59 68
59 73
59 82
60 34
60 35
60 37
60 47
60 49
60 57
60 59
60 66
60 69
60 73
60 80
60 82
61 39
61 40
61 46
61 62
61 63
61 65
61 71
61 83
61 84
61 90
62 39
62 46
62 61
62 63
62 65
62 71
62 84
62 85
62 90
63 43
63 46
63 61
63 62
63 70
63 71
63 85
63 86
63 90
64 50
64 58
64 68
64 79
64 92
64 97
64 98
65 39
65 40
65 61
65 62
65 71
65 83
65 84
66 47
66 49
66 57
66 59
66 60
66 68
66 69
66 73
66 80
66 82
66 94
66 100
66 101
67 51
67 55
67 56
67 72
67 76
67 77
67 87
67 88
67 89
67 103
68 49
68 59
68 64
68 66
68 73
68 82
68 92
68 97
68 101
69 47
69 54
69 57
69 60
69 66
69 80
69 81
69 94
69 99
69 100
70 41
70 43
70 52
70 63
70 76
70 85
70 86
70 93
71 39
71 43
71 46
71 61
71 62
71 63
71 65
71 84
71 85
71 90
72 51
72 55
72 56
72 67
72 76
72 77
72 88
72 89
72 103
73 49
73 59
73 60
73 66
73 68
73 82
73 92
73 101
74 44
74 48
74 53
74 55
74 75
74 77
74 87
74 91
75 42
75 48
75 74
75 78
75 91
75 96
75 104
76 41
76 51
76 52
76 67
76 70
76 72
76 89
76 93
76 103
77 44
77 53
77 55
77 56
77 67
77 72
77 74
77 87
77 88
78 42
78 45
78 58
78 75
78 79
78 95
78 96
78 98
78 104
79 45
79 50
79 58
79 64
79 78
79 95
79 96
79 97
79 98
79 104
80 47
80 54
80 57
80 60
80 66
80 69
80 81
80 82
80 94
80 99
80 100
81 54
81 57
81 69
81 80
81 94
81 99
81 100
81 102
82 49
82 59
82 60
82 66
82 68
82 73
82 80
82 92
82 94
82 101
83 61
83 65
83 84
83 111
84 61
84 62
84 65
84 71
84 83
84 90
84 105
84 111
85 62
85 63
85 70
85 71
85 86
85 90
85 106
85 113
85 124
86 63
86 70
86 85
86 90
86 93
86 106
86 117
86 124
87 67
87 74
87 77
87 88
87 91
87 109
87 115
88 67
88 72
88 77
88 87
88 89
88 103
88 109
88 110
88 123
88 131
89 67
89 72
89 76
89 88
89 93
89 103
89 107
89 110
89 123
90 61
90 62
90 63
90 71
90 84
90 85
90 86
90 105
90 106
90 113
90 120
91 74
91 75
91 87
91 96
91 104
91 115
91 119
91 133
92 64
92 68
92 73
92 82
92 97
92 98
92 101
92 112
92 114
92 127
92 130
93 70
93 76
93 86
93 89
93 103
93 106
93 107
93 110
93 117
94 66
94 69
94 80
94 81
94 82
94 99
94 100
94 101
94 108
94 118
94 121
94 135
95 78
95 79
95 96
95 97
95 98
95 104
95 116
95 126
96 75
96 78
96 79
96 91
96 95
96 98
96 104
96 116
96 119
96 126
97 64
97 68
97 79
97 92
97 95
97 98
97 112
97 114
97 116
97 128
97 130
98 64
98 78
98 79
98 92
98 95
98 96
98 97
98 104
98 114
98 116
98 128
99 69
99 80
99 81
99 94
99 100
99 102
99 108
99 118
99 122
99 132
100 66
100 69
100 80
100 81
100 94
100 99
100 102
100 108
100 118
100 121
100 135
101 66
101 68
101 73
101 82
101 92
101 94
101 108
101 112
101 121
101 125
101 127
102 81
102 99
102 100
102 118
102 122
102 132
103 67
103 72
103 76
103 88
103 89
103 93
103 107
103 109
103 110
103 123
103 131
104 75
104 78
104 79
104 91
104 95
104 96
104 98
104 116
104 119
104 126
105 84
105 90
105 111
105 113
105 120
105 137
105 139
105 140
106 85
106 86
106 90
106 93
106 113
106 117
106 120
106 124
106 138
106 141
107 89
107 93
107 103
107 110
107 117
107 123
108 94
108 99
108 100
108 101
108 118
108 121
108 132
108 135
108 136
108 148
109 87
109 88
109 103
109 110
109 115
109 123
109 129
109 131
109 134
109 144
110 88
110 89
110 93
110 103
110 107
110 109
110 117
110 123
110 131
111 83
111 84
111 105
111 120
111 137
111 139
112 92
112 97
112 101
112 114
112 121
112 125
112 127
112 128
112 130
112 136
113 85
113 90
113 105
113 106
113 120
113 124
113 138
113 139
113 140
113 141
114 92
114 97
114 98
114 112
114 116
114 125
114 127
114 128
114 130
114 143
115 87
115 91
115 109
115 119
115 129
115 133
115 134
115 149
116 95
116 96
116 97
116 98
116 104
116 114
116 126
116 128
116 147
116 154
117 86
117 93
117 106
117 107
117 110
117 124
117 138
117 142
117 146
118 94
118 99
118 100
118 102
118 108
118 122
118 132
118 135
118 150
119 91
119 96
119 104
119 115
119 126
119 129
119 133
119 134
119 145
119 149
120 90
120 105
120 106
120 111
120 113
120 137
120 139
120 140
120 141
121 94
121 100
121 101
121 108
121 112
121 125
121 127
121 135
121 136
121 148
121 155
122 99
122 102
122 118
122 132
122 135
122 150
123 88
123 89
123 103
123 107
123 109
123 110
123 129
123 131
123 152
123 153
124 85
124 86
124 106
124 113
124 117
124 138
124 140
124 141
124 146
125 101
125 112
125 114
125 121
125 127
125 130
125 136
125 155
125 156
125 157
126 95
126 96
126 104
126 116
126 119
126 133
126 145
126 151
126 154
127 92
127 101
127 112
127 114
127 121
127 125
127 128
127 130
127 136
127 143
127 156
127 157
128 97
128 98
128 112
128 114
128 116
128 127
128 130
128 143
128 147
128 154
128 156
129 109
129 115
129 119
129 123
129 131
129 133
129 134
129 144
129 149
129 153
130 92
130 97
130 112
130 114
130 125
130 127
130 128
130 143
130 147
130 156
130 157
131 88
131 103
131 109
131 110
131 123
131 129
131 134
131 144
131 152
131 153
132 99
132 102
132 108
132 118
132 122
132 135
132 150
132 160
132 162
133 91
133 115
133 119
133 126
133 129
133 134
133 145
133 149
133 151
134 109
134 115
134 119
134 129
134 131
134 133
134 144
134 145
134 149
135 94
135 100
135 108
135 118
135 121
135 122
135 132
135 136
135 148
135 150
135 160
135 161
136 108
136 112
136 121
136 125
136 127
136 135
136 148
136 155
136 157
137 105
137 111
137 120
137 139
137 140
137 158
138 106
138 113
138 117
138 124
138 140
138 141
138 142
138 146
138 159
139 105
139 111
139 113
139 120
139 137
139 140
139 141
139 158
139 159
139 164
140 105
140 113
140 120
140 124
140 137
140 138
140 139
140 141
140 158
140 159
140 164
141 106
141 113
141 120
141 124
141 138
141 139
141 140
141 146
141 159
142 117
142 138
142 146
142 152
143 114
143 127
143 128
143 130
143 147
143 154
143 156
143 157
144 109
144 129
144 131
144 134
144 149
144 153
145 119
145 126
145 133
145 134
145 149
145 151
145 154
145 163
146 117
146 124
146 138
146 141
146 142
147 116
147 128
147 130
147 143
147 151
147 154
147 156
147 169
148 108
148 121
148 135
148 136
148 155
148 160
148 161
149 115
149 119
149 129
149 133
149 134
149 144
149 145
149 163
150 118
150 122
150 132
150 135
150 160
150 161
150 162
151 126
151 133
151 145
151 147
151 154
152 123
152 131
152 142
152 153
153 123
153 129
153 131
153 144
153 152
154 116
154 126
154 128
154 143
154 145
154 147
154 151
154 169
155 121
155 125
155 136
155 148
155 156
155 157
155 161
156 125
156 127
156 128
156 130
156 143
156 147
156 155
156 157
157 125
157 127
157 130
157 136
157 143
157 155
157 156
158 137
158 139
158 140
158 159
158 164
158 165
158 166
158 167
159 138
159 139
159 140
159 141
159 158
159 164
159 167
159 181
160 132
160 135
160 148
160 150
160 161
160 162
160 171
160 174
161 135
161 148
161 150
161 155
161 160
161 162
161 171
161 172
161 174
162 132
162 150
162 160
162 161
162 171
162 174
162 182
163 145
163 149
163 178
163 184
164 139
164 140
164 158
164 159
164 166
164 167
164 181
164 186
164 188
165 158
165 166
165 167
165 186
165 203
165 207
166 158
166 164
166 165
166 167
166 186
166 188
166 203
166 205
166 207
167 158
167 159
167 164
167 165
167 166
167 181
167 186
167 188
167 203
167 205
167 207
168 170
168 181
168 190
168 204
168 211
169 147
169 154
169 173
169 179
169 183
169 187
169 196
169 197
169 201
170 168
170 177
170 190
170 204
170 209
170 211
171 160
171 161
171 162
171 172
171 174
171 175
171 182
171 198
171 200
171 202
171 214
172 161
172 171
172 174
172 175
172 185
172 199
172 200
172 202
172 220
173 169
173 179
173 183
173 195
173 196
173 197
173 201
173 215
174 160
174 161
174 162
174 171
174 172
174 182
174 198
174 200
174 214
175 171
175 172
175 185
175 191
175 199
175 202
175 220
176 177
176 180
176 189
176 192
176 210
176 212
177 170
177 176
177 180
177 190
177 192
177 209
177 210
178 163
178 184
178 189
178 193
178 194
178 213
179 169
179 173
179 184
179 194
179 195
179 196
179 197
179 215
179 217
180 176
180 177
180 189
180 192
180 193
180 212
180 218
181 159
181 164
181 167
181 168
181 186
181 188
181 204
181 205
181 206
181 208
181 223
182 162
182 171
182 174
182 198
182 200
182 221
183 169
183 173
183 187
183 191
183 196
183 197
183 201
183 216
183 219
184 163
184 178
184 179
184 193
184 194
184 195
184 197
184 213
184 217
185 172
185 175
185 187
185 191
185 199
185 202
186 164
186 165
186 166
186 167
186 181
186 188
186 203
186 205
186 206
186 207
187 169
187 183
187 185
187 191
187 199
187 201
187 216
187 219
187 225
188 164
188 166
188 167
188 181
188 186
188 204
188 205
188 206
188 208
188 223
189 176
189 178
189 180
189 192
189 193
189 212
189 218
190 168
190 170
190 177
190 204
190 209
190 210
190 211
190 222
191 175
191 183
191 185
191 187
191 199
191 201
191 202
191 216
191 225
191 228
192 176
192 177
192 180
192 189
192 210
192 212
192 218
193 178
193 180
193 184
193 189
193 194
193 213
193 218
194 178
194 179
194 184
194 193
194 195
194 197
194 213
194 215
194 217
194 227
195 173
195 179
195 184
195 194
195 196
195 197
195 215
195 217
195 227
195 229
196 169
196 173
196 179
196 183
196 195
196 197
196 201
196 215
196 216
196 217
196 219
196 224
196 229
197 169
197 173
197 179
197 183
197 184
197 194
197 195
197 196
197 201
197 215
197 217
197 224
197 229
198 171
198 174
198 182
198 200
198 214
198 221
198 226
198 233
199 172
199 175
199 185
199 187
199 191
199 202
199 220
199 225
199 228
199 231
200 171
200 172
200 174
200 182
200 198
200 202
200 214
200 220
200 221
200 226
200 233
201 169
201 173
201 183
201 187
201 191
201 196
201 197
201 216
201 219
201 224
201 225
202 171
202 172
202 175
202 185
202 191
202 199
202 200
202 214
202 220
202 228
202 231
202 234
203 165
203 166
203 167
203 186
203 205
203 207
203 230
203 240
204 168
204 170
204 181
204 188
204 190
204 206
204 208
204 209
204 211
204 222
204 223
204 238
204 239
205 166
205 167
205 181
205 186
205 188
205 203
205 206
205 207
205 208
205 223
205 230
205 232
205 235
206 181
206 186
206 188
206 204
206 205
206 208
206 222
206 223
206 232
206 235
206 239
207 165
207 166
207 167
207 186
207 203
207 205
207 230
207 232
207 240
207 247
208 181
208 188
208 204
208 205
208 206
208 211
208 222
208 223
208 235
208 239
209 170
209 177
209 190
209 204
209 210
209 211
209 222
209 236
209 238
209 246
210 176
210 177
210 190
210 192
210 209
210 212
210 236
210 237
210 241
211 168
211 170
211 190
211 204
211 208
211 209
211 222
211 223
211 236
211 238
211 239
211 246
212 176
212 180
212 189
212 192
212 210
212 218
212 236
212 237
212 241
213 178
213 184
213 193
213 194
213 217
213 218
213 227
213 244
213 245
214 171
214 174
214 198
214 200
214 202
214 220
214 221
214 226
214 233
214 234
214 253
215 173
215 179
215 194
215 195
215 196
215 197
215 217
215 219
215 224
215 227
215 229
215 242
215 243
216 183
216 187
216 191
216 196
216 201
216 219
216 224
216 225
216 228
216 242
216 248
216 249
216 254
217 179
217 184
217 194
217 195
217 196
217 197
217 213
217 215
217 227
217 229
217 243
217 245
218 180
218 189
218 192
218 193
218 212
218 213
218 237
218 241
218 244
219 183
219 187
219 196
219 201
219 215
219 216
219 224
219 225
219 228
219 229
219 242
219 248
219 254
220 172
220 175
220 199
220 200
220 202
220 214
220 226
220 228
220 231
220 234
221 182
221 198
221 200
221 214
221 226
221 233
221 251
222 190
222 204
222 206
222 208
222 209
222 211
222 223
222 238
222 239
222 246
222 252
222 256
223 181
223 188
223 204
223 205
223 206
223 208
223 211
223 222
223 232
223 235
223 239
223 250
223 252
224 196
224 197
224 201
224 215
224 216
224 219
224 225
224 229
224 242
224 243
224 248
224 254
224 258
225 187
225 191
225 199
225 201
225 216
225 219
225 224
225 228
225 231
225 248
225 249
225 254
226 198
226 200
226 214
226 220
226 221
226 233
226 234
226 251
226 253
227 194
227 195
227 213
227 215
227 217
227 229
227 243
227 245
227 260
227 263
228 191
228 199
228 202
228 216
228 219
228 220
228 225
228 231
228 249
228 254
228 265
229 195
229 196
229 197
229 215
229 217
229 219
229 224
229 227
229 242
229 243
229 248
229 258
229 263
230 203
230 205
230 207
230 232
230 235
230 240
230 247
230 250
231 199
231 202
231 220
231 225
231 228
231 234
231 249
231 264
232 205
232 206
232 207
232 223
232 230
232 235
232 240
232 247
232 250
232 252
233 198
233 200
233 214
233 221
233 226
233 251
233 253
233 267
234 202
234 214
234 220
234 226
234 231
234 253
234 264
234 268
235 205
235 206
235 208
235 223
235 230
235 232
235 239
235 247
235 250
235 252
236 209
236 210
236 211
236 212
236 237
236 238
236 241
236 246
236 255
236 256
236 257
237 210
237 212
237 218
237 236
237 241
237 255
237 257
237 259
238 204
238 209
238 211
238 222
238 236
238 239
238 246
238 252
238 255
238 256
239 204
239 206
239 208
239 211
239 222
239 223
239 235
239 238
239 246
239 250
239 252
239 256
240 203
240 207
240 230
240 232
240 247
240 272
241 210
241 212
241 218
241 236
241 237
241 244
241 255
241 257
241 259
241 262
242 215
242 216
242 219
242 224
242 229
242 243
242 248
242 254
242 258
242 266
243 215
243 217
243 224
243 227
243 229
243 242
243 245
243 258
243 263
244 213
244 218
244 241
244 245
244 259
244 260
244 261
244 262
245 213
245 217
245 227
245 243
245 244
245 260
245 261
245 263
246 209
246 211
246 222
246 236
246 238
246 239
246 255
246 256
246 273
247 207
247 230
247 232
247 235
247 240
247 250
247 271
247 272
248 216
248 219
248 224
248 225
248 229
248 242
248 249
248 254
248 258
248 265
248 266
249 216
249 225
249 228
249 231
249 248
249 254
249 264
249 265
249 266
249 285
250 223
250 230
250 232
250 235
250 239
250 247
250 252
250 271
250 275
251 221
251 226
251 233
251 253
251 267
251 268
251 269
251 289
252 222
252 223
252 232
252 235
252 238
252 239
252 250
252 256
252 271
252 275
252 284
253 214
253 226
253 233
253 234
253 251
253 267
253 268
253 269
253 270
253 290
254 216
254 219
254 224
254 225
254 228
254 242
254 248
254 249
254 265
254 266
254 288
255 236
255 237
255 238
255 241
255 246
255 256
255 257
255 273
255 274
255 278
256 222
256 236
256 238
256 239
256 246
256 252
256 255
256 273
256 277
256 293
257 236
257 237
257 241
257 255
257 259
257 262
257 274
257 276
257 278
257 295
258 224
258 229
258 242
258 243
258 248
258 263
258 266
258 282
258 286
258 287
259 237
259 241
259 244
259 257
259 261
259 262
259 274
259 276
259 279
259 295
259 297
260 227
260 244
260 245
260 261
260 262
260 263
260 279
260 280
260 283
261 244
261 245
261 259
261 260
261 262
261 279
261 280
261 283
262 241
262 244
262 257
262 259
262 260
262 261
262 276
262 279
262 280
262 297
263 227
263 229
263 243
263 245
263 258
263 260
263 282
263 283
263 286
263 298
264 231
264 234
264 249
264 265
264 268
264 270
264 281
264 285
265 228
265 248
265 249
265 254
265 264
265 266
265 281
265 285
265 288
265 299
266 242
266 248
266 249
266 254
266 258
266 265
266 285
266 287
266 288
266 299
267 233
267 251
267 253
267 268
267 269
267 270
267 289
267 290
267 291
268 234
268 251
268 253
268 264
268 267
268 269
268 270
268 289
268 290
268 291
269 251
269 253
269 267
269 268
269 270
269 289
269 290
269 291
270 253
270 264
270 267
270 268
270 269
270 281
270 290
270 291
271 247
271 250
271 252
271 272
271 275
271 292
271 294
271 296
272 240
272 247
272 271
272 292
272 294
273 246
273 255
273 256
273 274
273 277
273 278
273 293
273 300
273 301
274 255
274 257
274 259
274 273
274 276
274 278
274 295
274 297
274 300
274 301
275 250
275 252
275 271
275 277
275 284
275 292
275 294
275 296
276 257
276 259
276 262
276 274
276 279
276 295
276 297
276 300
277 256
277 273
277 275
277 278
277 284
277 293
277 296
277 301
278 255
278 257
278 273
278 274
278 277
278 293
278 295
278 300
278 301
279 259
279 260
279 261
279 262
279 276
279 280
279 283
279 295
279 297
280 260
280 261
280 262
280 279
280 283
280 297
280 298
281 264
281 265
281 270
281 285
281 290
281 299
282 258
282 263
282 283
282 286
282 287
282 298
283 260
283 261
283 263
283 279
283 280
283 282
283 298
284 252
284 275
284 277
284 293
284 294
284 296
285 249
285 264
285 265
285 266
285 281
285 288
285 299
286 258
286 263
286 282
286 287
286 288
286 298
287 258
287 266
287 282
287 286
287 288
287 299
288 254
288 265
288 266
288 285
288 286
288 287
288 299
289 251
289 267
289 268
289 269
289 290
289 291
290 253
290 267
290 268
290 269
290 270
290 281
290 289
290 291
291 267
291 268
291 269
291 270
291 289
291 290
292 271
292 272
292 275
292 294
292 296
293 256
293 273
293 277
293 278
293 284
293 300
293 301
294 271
294 272
294 275
294 284
294 292
294 296
295 257
295 259
295 274
295 276
295 278
295 279
295 297
295 300
296 271
296 275
296 277
296 284
296 292
296 294
297 259
297 262
297 274
297 276
297 279
297 280
297 295
298 263
298 280
298 282
298 283
298 286
299 265
299 266
299 281
299 285
299 287
299 288
300 273
300 274
300 276
300 278
300 293
300 295
300 301
301 273
301 274
301 277
301 278
301 293
301 300
