1 14
1 32
2 3
2 5
2 27
3 2
3 8
3 25
4 9
4 18
4 26
5 2
5 6
5 27
5 29
6 5
6 20
6 22
7 15
7 36
7 38
8 3
8 19
8 25
9 4
9 11
9 26
10 12
10 21
11 9
11 13
11 31
12 10
12 14
12 24
13 11
13 31
13 33
14 1
14 12
14 24
14 32
15 7
15 37
15 38
16 23
16 34
16 35
17 18
17 20
17 30
18 4
18 17
18 26
18 30
19 8
19 40
20 6
20 17
20 22
20 41
21 10
21 33
21 42
22 6
22 20
22 29
23 16
23 28
23 35
24 12
24 14
24 32
25 3
25 8
25 39
26 4
26 9
26 18
27 2
27 5
27 29
27 46
28 23
29 5
29 22
29 27
29 43
30 17
30 18
30 51
31 11
31 13
31 33
31 44
31 48
31 53
32 1
32 14
32 24
32 36
32 50
33 13
33 21
33 31
33 42
33 48
34 16
34 35
34 37
34 47
35 16
35 23
35 34
35 47
35 57
36 7
36 32
36 38
36 49
37 15
37 34
37 38
37 59
38 7
38 15
38 36
38 37
38 49
39 25
39 40
39 46
40 19
40 39
41 20
41 51
41 52
42 21
42 33
42 45
42 48
43 29
44 31
44 53
44 55
45 42
45 58
46 27
46 39
46 62
47 34
47 35
47 54
47 57
47 60
47 69
48 31
48 33
48 42
48 53
49 36
49 38
49 59
49 68
50 32
50 58
50 64
51 30
51 41
51 56
52 41
52 70
53 31
53 44
53 48
53 55
53 74
54 47
54 57
55 44
55 53
55 56
55 77
56 51
56 55
56 67
56 72
57 35
57 47
57 54
57 60
57 69
58 45
58 50
58 64
58 79
59 37
59 49
59 60
59 66
59 68
59 73
59 82
60 47
60 57
60 59
60 66
60 80
61 62
61 65
61 71
61 84
62 46
62 61
62 63
62 71
63 62
63 71
63 85
64 50
64 58
64 79
65 61
65 83
65 84
66 59
66 60
66 73
66 80
66 82
67 56
67 72
67 77
67 88
68 49
68 59
68 73
68 82
69 47
69 57
69 80
69 81
70 52
70 86
71 61
71 62
71 63
71 85
71 90
72 56
72 67
72 76
72 89
72 103
73 59
73 66
73 68
73 82
73 101
74 53
74 77
74 87
75 78
75 91
75 96
76 72
76 89
76 93
77 55
77 67
77 74
77 87
77 88
78 75
78 79
78 95
78 96
79 58
79 64
79 78
79 95
79 98
80 60
80 66
80 69
80 81
80 94
80 100
81 69
81 80
81 99
82 59
82 66
82 68
82 73
82 101
83 65
83 84
84 61
84 65
84 83
85 63
85 71
85 86
85 90
85 106
86 70
86 85
86 93
86 106
87 74
87 77
87 88
88 67
88 77
88 87
88 103
88 109
89 72
89 76
89 93
89 103
89 107
89 110
90 71
90 85
90 105
90 113
91 75
91 96
92 97
93 76
93 86
93 89
93 107
94 80
94 100
94 108
95 78
95 79
95 96
95 98
95 104
95 116
96 75
96 78
96 91
96 95
96 104
97 92
97 98
97 114
98 79
98 95
98 97
98 116
99 81
99 100
99 102
99 118
100 80
100 94
100 99
100 108
100 118
101 73
101 82
101 112
102 99
102 122
103 72
103 88
103 89
103 110
103 123
104 95
104 96
105 90
105 111
105 113
105 120
106 85
106 86
106 113
106 124
107 89
107 93
107 110
107 117
108 94
108 100
108 118
108 121
108 135
109 88
109 123
109 129
109 131
110 89
110 103
110 107
110 123
111 105
111 137
112 101
112 125
112 127
112 130
113 90
113 105
113 106
113 120
113 124
114 97
114 128
114 130
115 119
115 129
115 133
115 134
116 95
116 98
116 126
117 107
117 124
118 99
118 100
118 108
118 122
118 132
118 135
119 115
119 126
119 133
119 134
120 105
120 113
120 139
120 140
121 108
121 125
121 136
122 102
122 118
122 132
123 103
123 109
123 110
123 131
124 106
124 113
124 117
124 138
125 112
125 121
125 127
125 136
126 116
126 119
126 133
127 112
127 125
127 130
128 114
128 130
128 143
129 109
129 115
129 131
129 134
129 144
130 112
130 114
130 127
130 128
130 143
131 109
131 123
131 129
131 153
132 118
132 122
132 135
132 150
133 115
133 119
133 126
133 134
133 145
134 115
134 119
134 129
134 133
134 149
135 108
135 118
135 132
135 148
136 121
136 125
136 148
136 155
137 111
137 139
137 158
138 124
138 141
138 146
139 120
139 137
139 140
139 158
140 120
140 139
140 141
140 159
141 138
141 140
141 159
142 146
143 128
143 130
143 147
143 156
144 129
144 149
144 153
145 133
145 149
145 151
145 163
146 138
146 142
147 143
147 154
148 135
148 136
148 155
148 161
149 134
149 144
149 145
149 163
150 132
150 160
150 162
151 145
151 154
152 153
153 131
153 144
153 152
154 147
154 151
155 136
155 148
155 157
156 143
156 157
157 155
157 156
158 137
158 139
158 166
159 140
159 141
159 164
160 150
160 161
160 162
161 148
161 160
162 150
162 160
163 145
163 149
164 159
164 167
164 188
165 166
166 158
166 165
166 167
166 186
167 164
167 166
167 186
167 188
168 170
168 181
168 190
169 173
169 183
169 196
169 201
170 168
170 177
170 190
171 172
171 174
171 200
172 171
172 175
172 202
173 169
173 179
173 195
173 196
173 197
174 171
174 182
174 198
174 200
175 172
175 185
175 199
175 202
176 177
176 180
176 192
177 170
177 176
177 190
178 184
178 193
178 194
179 173
179 184
179 195
179 197
180 176
180 189
180 192
181 168
181 188
181 204
181 206
182 174
182 198
182 200
183 169
183 187
183 201
184 178
184 179
184 194
184 195
185 175
185 191
185 199
185 202
186 166
186 167
186 188
186 205
186 207
187 183
187 191
187 201
188 164
188 167
188 181
188 186
188 205
188 206
189 180
189 192
189 193
190 168
190 170
190 177
190 209
190 211
191 185
191 187
191 199
192 176
192 180
192 189
192 210
192 212
193 178
193 189
193 213
194 178
194 184
194 195
194 213
195 173
195 179
195 184
195 194
195 197
195 215
195 217
196 169
196 173
196 197
196 201
196 215
196 224
197 173
197 179
197 195
197 196
197 215
197 217
198 174
198 182
198 200
198 221
199 175
199 185
199 191
199 202
200 171
200 174
200 182
200 198
200 214
200 226
201 169
201 183
201 187
201 196
201 216
201 219
201 224
202 172
202 175
202 185
202 199
202 220
203 207
204 181
204 206
204 208
204 211
204 222
204 223
205 186
205 188
205 206
205 207
206 181
206 188
206 204
206 205
206 208
206 223
206 235
207 186
207 203
207 205
207 230
208 204
208 206
208 222
208 223
209 190
209 210
209 211
209 236
210 192
210 209
210 212
210 236
210 237
211 190
211 204
211 209
211 222
211 238
212 192
212 210
212 218
212 237
213 193
213 194
213 227
214 200
214 220
214 226
214 234
215 195
215 196
215 197
215 217
215 224
215 229
215 243
216 201
216 219
216 224
216 225
217 195
217 197
217 215
217 227
217 229
218 212
219 201
219 216
219 224
219 225
220 202
220 214
220 231
220 234
221 198
221 226
221 233
222 204
222 208
222 211
222 223
222 238
222 239
223 204
223 206
223 208
223 222
223 235
223 239
224 196
224 201
224 215
224 216
224 219
224 229
224 242
225 216
225 219
225 228
225 249
226 200
226 214
226 221
226 233
226 253
227 213
227 217
227 245
228 225
228 231
228 249
229 215
229 217
229 224
229 242
229 243
230 207
230 232
230 240
230 247
231 220
231 228
231 234
232 230
232 235
232 247
232 250
233 221
233 226
233 251
234 214
234 220
234 231
235 206
235 223
235 232
235 250
235 252
236 209
236 210
236 237
236 246
236 255
237 210
237 212
237 236
237 241
237 257
238 211
238 222
238 239
238 246
238 256
239 222
239 223
239 238
239 252
240 230
240 247
241 237
241 257
241 259
242 224
242 229
242 248
242 258
243 215
243 229
243 258
243 263
244 259
244 261
244 262
245 227
245 260
245 261
246 236
246 238
246 255
246 256
247 230
247 232
247 240
247 250
248 242
248 254
248 266
249 225
249 228
249 254
249 264
249 265
250 232
250 235
250 247
250 252
250 271
251 233
251 253
251 267
251 269
252 235
252 239
252 250
253 226
253 251
253 268
253 269
254 248
254 249
254 265
254 266
255 236
255 246
255 257
255 273
256 238
256 246
257 237
257 241
257 255
257 259
257 274
258 242
258 243
258 263
259 241
259 244
259 257
259 262
259 276
260 245
260 261
261 244
261 245
261 260
261 262
262 244
262 259
262 261
262 279
263 243
263 258
264 249
264 265
264 281
265 249
265 254
265 264
265 285
266 248
266 254
266 288
267 251
267 269
267 289
267 291
268 253
268 269
268 270
268 290
269 251
269 253
269 267
269 268
269 270
269 289
269 290
269 291
270 268
270 269
270 290
271 250
271 272
271 292
271 294
272 271
272 292
273 255
273 277
273 278
273 293
273 301
274 257
274 276
274 278
274 295
274 300
275 284
275 294
275 296
276 259
276 274
276 279
276 295
276 297
277 273
277 284
277 293
278 273
278 274
278 293
278 300
278 301
279 262
279 276
279 280
279 297
280 279
280 283
281 264
281 285
282 286
282 298
283 280
283 298
284 275
284 277
284 296
285 265
285 281
285 299
286 282
286 287
287 286
287 288
288 266
288 287
288 299
289 267
289 269
289 291
290 268
290 269
290 270
290 291
291 267
291 269
291 289
291 290
292 271
292 272
292 294
293 273
293 277
293 278
293 301
294 271
294 275
294 292
294 296
295 274
295 276
295 297
295 300
296 275
296 284
296 294
297 276
297 279
297 295
298 282
298 283
299 285
299 288
300 274
300 278
300 295
300 301
301 273
301 278
301 293
301 300
