1 2
1 15
1 25
1 26
1 38
2 1
2 5
2 26
3 19
3 21
3 22
4 17
4 24
5 2
5 23
5 30
6 8
6 15
6 20
6 33
7 10
7 28
7 29
8 6
8 17
8 20
8 32
8 33
9 13
9 31
10 7
10 28
10 29
10 35
11 14
11 18
11 27
11 43
12 19
12 42
13 9
13 18
13 31
13 39
14 11
14 37
15 1
15 6
15 20
15 25
15 38
16 22
16 36
17 4
17 8
17 24
17 32
18 11
18 13
18 27
18 39
19 3
19 12
19 21
19 42
20 6
20 8
20 15
20 32
20 33
20 47
21 3
21 19
21 22
21 40
22 3
22 16
22 21
22 36
22 40
23 5
23 30
23 41
23 46
24 4
24 17
24 28
24 44
24 53
25 1
25 15
25 26
25 38
25 48
26 1
26 2
26 25
26 38
26 48
26 49
27 11
27 18
27 43
27 60
28 7
28 10
28 24
28 29
28 45
29 7
29 10
29 28
29 34
29 35
29 45
30 5
30 23
30 41
30 46
30 49
31 9
31 13
31 39
31 61
32 8
32 17
32 20
32 33
32 47
32 58
33 6
33 8
33 20
33 32
33 47
33 50
33 58
34 29
34 35
34 51
34 57
34 63
35 10
35 29
35 34
35 45
35 51
35 57
35 63
36 16
36 22
36 56
36 68
37 14
37 59
38 1
38 15
38 25
38 26
38 48
38 50
39 13
39 18
39 31
39 61
40 21
40 22
40 54
40 55
41 23
41 30
41 42
41 46
41 64
41 66
41 67
42 12
42 19
42 41
42 54
42 64
43 11
43 27
43 60
44 24
44 52
44 53
44 75
44 77
45 28
45 29
45 35
45 53
45 62
46 23
46 30
46 41
46 49
46 65
46 66
46 80
47 20
47 32
47 33
47 50
47 58
47 69
47 73
48 25
48 26
48 38
48 49
48 65
48 70
48 74
49 26
49 30
49 46
49 48
49 65
49 70
50 33
50 38
50 47
50 69
50 73
50 82
51 34
51 35
51 57
51 63
52 44
52 53
52 75
52 77
53 24
53 44
53 45
53 52
53 62
53 75
53 77
54 40
54 42
54 55
54 64
54 76
55 40
55 54
55 56
55 78
55 79
56 36
56 55
56 68
56 78
57 34
57 35
57 51
57 63
58 32
58 33
58 47
58 69
58 85
59 37
59 71
60 27
60 43
60 71
60 81
61 31
61 39
61 72
61 83
61 89
62 45
62 53
62 63
62 87
63 34
63 35
63 51
63 57
63 62
64 41
64 42
64 54
64 67
64 76
64 84
65 46
65 48
65 49
65 66
65 70
65 80
66 41
66 46
66 65
66 67
66 80
66 84
66 86
67 41
67 64
67 66
67 84
67 86
68 36
68 56
68 78
68 90
69 47
69 50
69 58
69 73
69 82
69 85
70 48
70 49
70 65
70 74
70 92
71 59
71 60
71 81
71 93
72 61
72 83
72 89
72 103
73 47
73 50
73 69
73 82
74 48
74 70
74 82
74 92
74 102
75 44
75 52
75 53
75 77
75 88
75 96
76 54
76 64
76 79
76 91
76 101
77 44
77 52
77 53
77 75
77 87
77 88
77 96
78 55
78 56
78 68
78 79
78 90
78 91
79 55
79 76
79 78
79 91
80 46
80 65
80 66
80 86
80 98
81 60
81 71
81 95
82 50
82 69
82 73
82 74
82 92
82 102
82 105
83 61
83 72
83 89
83 97
83 103
84 64
84 66
84 67
84 86
84 98
84 104
84 107
85 58
85 69
85 100
85 110
86 66
86 67
86 80
86 84
86 98
86 104
87 62
87 77
87 88
87 106
87 114
88 75
88 77
88 87
88 96
88 109
88 112
89 61
89 72
89 83
89 97
89 103
90 68
90 78
90 108
91 76
91 78
91 79
91 101
91 115
91 118
92 70
92 74
92 82
92 99
92 102
92 126
93 71
93 117
93 121
94 111
94 116
94 129
95 81
95 113
96 75
96 77
96 88
96 109
96 112
97 83
97 89
97 103
97 122
97 128
98 80
98 84
98 86
98 99
98 104
98 120
98 133
99 92
99 98
99 102
99 120
99 126
100 85
100 105
100 110
100 119
100 130
101 76
101 91
101 107
101 115
101 125
101 131
101 132
102 74
102 82
102 92
102 99
102 126
103 72
103 83
103 89
103 97
103 122
103 128
104 84
104 86
104 98
104 107
104 123
104 125
105 82
105 100
105 119
105 135
106 87
106 114
106 116
106 124
107 84
107 101
107 104
107 123
107 125
107 132
107 142
108 90
108 127
109 88
109 96
109 112
109 114
109 134
109 137
110 85
110 100
110 119
110 130
111 94
111 116
111 129
111 141
112 88
112 96
112 109
112 134
112 137
113 95
113 121
113 138
113 139
114 87
114 106
114 109
114 124
114 137
114 146
115 91
115 101
115 118
115 131
115 132
116 94
116 106
116 111
116 124
116 129
116 141
116 148
117 93
117 121
117 138
118 91
118 115
118 127
118 131
119 100
119 105
119 110
119 130
119 135
119 140
120 98
120 99
120 126
120 133
120 136
120 152
121 93
121 113
121 117
121 138
121 139
122 97
122 103
122 128
122 143
122 144
123 104
123 107
123 125
123 133
123 142
124 106
124 114
124 116
124 146
124 148
125 101
125 104
125 107
125 123
125 132
125 142
125 157
126 92
126 99
126 102
126 120
126 135
126 136
126 145
126 156
127 108
127 118
127 147
128 97
128 103
128 122
128 143
128 144
128 155
129 94
129 111
129 116
129 141
129 148
130 100
130 110
130 119
130 140
130 149
131 101
131 115
131 118
131 132
131 150
132 101
132 107
132 115
132 125
132 131
132 142
132 157
133 98
133 120
133 123
133 136
133 151
133 152
134 109
134 112
134 137
134 153
134 154
135 105
135 119
135 126
135 140
135 145
135 160
135 161
136 120
136 126
136 133
136 151
136 152
136 156
137 109
137 112
137 114
137 134
137 146
137 153
137 154
137 167
138 113
138 117
138 121
138 139
138 164
139 113
139 121
139 138
139 143
139 158
139 170
140 119
140 130
140 135
140 149
140 160
140 161
140 165
141 111
141 116
141 129
141 148
141 163
142 107
142 123
142 125
142 132
142 157
142 162
142 166
142 174
143 122
143 128
143 139
143 144
143 155
143 158
143 159
143 173
144 122
144 128
144 143
144 155
144 159
144 175
145 126
145 135
145 156
145 160
145 172
146 114
146 124
146 137
146 148
146 153
146 168
147 127
147 150
147 169
148 116
148 124
148 129
148 141
148 146
148 163
148 168
149 130
149 140
149 161
149 165
150 131
150 147
150 171
150 183
151 133
151 136
151 152
151 162
151 176
151 177
152 120
152 133
152 136
152 151
152 156
152 172
152 180
153 134
153 137
153 146
153 154
153 167
153 179
153 184
154 134
154 137
154 153
154 167
154 179
155 128
155 143
155 144
155 158
155 159
155 170
155 173
156 126
156 136
156 145
156 152
156 160
156 172
156 181
157 125
157 132
157 142
157 162
157 166
157 174
157 176
157 188
158 139
158 143
158 155
158 170
158 173
159 143
159 144
159 155
159 173
159 175
160 135
160 140
160 145
160 156
160 161
160 178
160 181
161 135
161 140
161 149
161 160
161 165
161 178
162 142
162 151
162 157
162 174
162 176
162 177
163 141
163 148
163 185
164 138
164 170
164 186
165 140
165 149
165 161
165 190
166 142
166 157
166 171
166 174
166 183
166 188
166 197
167 137
167 153
167 154
167 168
167 179
167 184
167 198
168 146
168 148
168 167
168 182
169 147
169 175
169 187
170 139
170 155
170 158
170 164
170 173
170 196
171 150
171 166
171 183
172 145
172 152
172 156
172 180
172 181
172 194
173 143
173 155
173 158
173 159
173 170
173 175
173 189
173 191
174 142
174 157
174 162
174 166
174 176
174 188
174 197
174 204
175 144
175 159
175 169
175 173
175 191
176 151
176 157
176 162
176 174
176 177
176 188
177 151
177 162
177 176
177 180
177 193
177 200
178 160
178 161
178 181
178 192
179 153
179 154
179 167
179 184
179 195
179 198
180 152
180 172
180 177
180 193
180 206
181 156
181 160
181 172
181 178
181 192
181 194
182 168
182 184
182 202
182 203
183 150
183 166
183 171
183 187
183 197
183 201
184 153
184 167
184 179
184 182
184 195
184 198
184 203
185 163
185 199
185 211
186 164
186 196
186 214
187 169
187 183
187 212
188 157
188 166
188 174
188 176
188 197
188 204
189 173
189 191
189 196
189 205
189 208
190 165
190 195
190 209
191 173
191 175
191 189
191 205
191 216
192 178
192 181
192 194
192 207
192 210
193 177
193 180
193 194
193 200
193 206
194 172
194 181
194 192
194 193
194 210
194 217
195 179
195 184
195 190
195 198
195 213
195 219
196 170
196 186
196 189
196 208
196 222
197 166
197 174
197 183
197 188
197 201
197 204
197 221
197 226
198 167
198 179
198 184
198 195
198 203
198 213
198 219
199 185
199 202
199 211
199 224
200 177
200 193
200 206
200 218
200 223
201 183
201 197
201 215
201 228
202 182
202 199
202 203
202 211
202 220
202 224
203 182
203 184
203 198
203 202
203 213
203 220
204 174
204 188
204 197
204 221
204 223
204 226
205 189
205 191
205 208
205 216
205 227
206 180
206 193
206 200
206 218
206 229
207 192
207 209
207 210
207 225
208 189
208 196
208 205
208 222
208 236
209 190
209 207
209 230
209 233
210 192
210 194
210 207
210 217
210 225
210 231
211 185
211 199
211 202
211 224
211 240
212 187
212 232
213 195
213 198
213 203
213 219
213 220
214 186
214 222
214 236
214 238
215 201
215 221
215 228
215 248
216 191
216 205
216 227
216 239
217 194
217 210
217 225
217 231
217 237
218 200
218 206
218 223
218 229
218 234
219 195
219 198
219 213
219 230
219 245
220 202
220 203
220 213
220 224
220 235
220 249
221 197
221 204
221 215
221 226
221 243
222 196
222 208
222 214
222 236
222 238
223 200
223 204
223 218
223 226
223 234
223 242
224 199
224 202
224 211
224 220
224 235
224 240
224 256
225 207
225 210
225 217
225 231
225 241
225 244
226 197
226 204
226 221
226 223
226 242
226 243
226 253
227 205
227 216
227 239
227 247
228 201
228 215
228 232
228 248
229 206
229 218
229 234
229 237
229 251
230 209
230 219
230 233
230 245
230 250
231 210
231 217
231 225
231 237
231 244
231 252
232 212
232 228
232 246
232 248
232 254
233 209
233 230
233 241
233 250
234 218
234 223
234 229
234 242
234 251
234 255
235 220
235 224
235 240
235 249
235 263
236 208
236 214
236 222
236 238
236 259
237 217
237 229
237 231
237 251
237 252
237 261
238 214
238 222
238 236
238 257
238 266
239 216
239 227
239 247
239 258
239 265
240 211
240 224
240 235
240 249
240 256
240 270
241 225
241 233
241 244
241 250
241 260
241 262
242 223
242 226
242 234
242 243
242 253
242 255
242 272
243 221
243 226
243 242
243 253
243 269
244 225
244 231
244 241
244 260
244 262
245 219
245 230
245 250
245 267
246 232
246 248
246 254
246 264
247 227
247 239
247 258
247 259
247 265
248 215
248 228
248 232
248 246
248 254
248 268
249 220
249 235
249 240
249 256
249 263
249 279
250 230
250 233
250 241
250 245
250 262
250 277
251 229
251 234
251 237
251 252
251 255
251 261
251 271
251 274
252 231
252 237
252 251
252 260
252 261
252 275
253 226
253 242
253 243
253 269
253 272
254 232
254 246
254 248
254 264
254 268
255 234
255 242
255 251
255 271
255 272
255 274
256 224
256 240
256 249
256 270
256 284
257 238
257 266
258 239
258 247
258 265
258 281
259 236
259 247
259 266
259 278
260 241
260 244
260 252
260 261
260 262
260 275
260 276
260 282
261 237
261 251
261 252
261 260
261 271
261 275
261 276
261 285
262 241
262 244
262 250
262 260
262 276
262 277
262 282
263 235
263 249
263 273
263 279
263 287
264 246
264 254
264 286
265 239
265 247
265 258
265 281
265 288
265 295
266 238
266 257
266 259
266 278
267 245
267 273
267 277
267 289
268 248
268 254
268 280
268 283
268 291
269 243
269 253
269 272
269 280
270 240
270 256
270 279
270 284
271 251
271 255
271 261
271 274
271 275
271 290
272 242
272 253
272 255
272 269
272 293
272 294
273 263
273 267
273 287
273 289
274 251
274 255
274 271
274 290
274 294
275 252
275 260
275 261
275 271
275 276
275 285
275 304
276 260
276 261
276 262
276 275
276 282
276 285
276 298
276 300
277 250
277 262
277 267
277 282
277 292
278 259
278 266
278 299
279 249
279 263
279 270
279 284
279 287
279 296
279 303
280 268
280 269
280 291
280 301
280 311
281 258
281 265
281 288
281 295
281 297
281 305
282 260
282 262
282 276
282 277
282 292
282 298
282 300
283 268
283 286
283 291
283 307
284 256
284 270
284 279
284 303
284 315
285 261
285 275
285 276
285 298
285 304
286 264
286 283
286 297
286 309
287 263
287 273
287 279
287 289
287 296
287 310
287 312
288 265
288 281
288 295
288 299
288 305
288 322
289 267
289 273
289 287
289 302
289 310
290 271
290 274
290 294
290 304
290 308
290 323
291 268
291 280
291 283
291 307
291 311
292 277
292 282
292 300
292 302
292 317
293 272
293 294
293 301
293 313
293 325
294 272
294 274
294 290
294 293
294 308
294 313
295 265
295 281
295 288
295 297
295 305
295 321
295 322
296 279
296 287
296 303
296 312
296 330
297 281
297 286
297 295
297 309
298 276
298 282
298 285
298 300
298 304
298 317
298 319
299 278
299 288
299 305
299 314
300 276
300 282
300 292
300 298
300 317
300 319
301 280
301 293
301 311
301 326
302 289
302 292
302 310
302 324
302 327
303 279
303 284
303 296
303 312
303 315
303 318
303 335
304 275
304 285
304 290
304 298
304 308
304 320
305 281
305 288
305 295
305 299
305 321
305 322
306 314
306 331
307 283
307 291
307 309
307 311
307 328
307 333
308 290
308 294
308 304
308 313
308 320
308 323
308 334
309 286
309 297
309 307
309 333
310 287
310 289
310 302
310 324
310 327
310 336
311 280
311 291
311 301
311 307
311 326
311 328
311 340
312 287
312 296
312 303
312 318
312 330
312 336
313 293
313 294
313 308
313 323
313 325
313 344
314 299
314 306
314 331
314 339
315 284
315 303
315 316
315 318
315 332
315 335
316 315
316 318
316 332
316 335
317 292
317 298
317 300
317 319
317 329
317 337
318 303
318 312
318 315
318 316
318 330
318 335
318 352
319 298
319 300
319 317
319 320
319 337
319 338
319 353
320 304
320 308
320 319
320 334
320 338
320 348
321 295
321 305
321 322
321 341
321 343
322 288
322 295
322 305
322 321
322 341
322 343
323 290
323 308
323 313
323 334
323 344
323 355
324 302
324 310
324 327
324 336
324 359
325 293
325 313
325 326
325 340
325 344
325 347
326 301
326 311
326 325
326 328
326 340
326 349
327 302
327 310
327 324
327 329
327 359
328 307
328 311
328 326
328 333
328 346
328 349
329 317
329 327
329 337
329 345
330 296
330 312
330 318
330 336
330 351
331 306
331 314
331 339
331 350
332 315
332 316
332 335
332 356
333 307
333 309
333 328
333 342
333 346
334 308
334 320
334 323
334 338
334 348
334 355
335 303
335 315
335 316
335 318
335 332
335 352
335 356
335 357
336 310
336 312
336 324
336 330
336 351
337 317
337 319
337 329
337 345
337 353
338 319
338 320
338 334
338 348
338 353
338 363
339 314
339 331
339 341
339 350
339 354
340 311
340 325
340 326
340 347
340 349
340 360
341 321
341 322
341 339
341 343
341 354
341 362
342 333
342 346
342 358
342 367
343 321
343 322
343 341
343 362
344 313
344 323
344 325
344 347
344 355
344 361
344 373
345 329
345 337
345 366
346 328
346 333
346 342
346 349
346 367
346 370
347 325
347 340
347 344
347 360
347 361
347 373
348 320
348 334
348 338
348 353
348 355
348 363
349 326
349 328
349 340
349 346
349 360
349 372
350 331
350 339
350 354
350 368
351 330
351 336
351 357
351 375
351 379
352 318
352 335
352 356
352 357
352 365
352 369
353 319
353 337
353 338
353 348
353 363
353 371
353 377
354 339
354 341
354 350
354 368
354 374
355 323
355 334
355 344
355 348
355 363
355 364
356 332
356 335
356 352
356 365
356 378
357 335
357 351
357 352
357 365
357 369
358 342
358 367
358 381
359 324
359 327
359 375
359 376
360 340
360 347
360 349
360 372
360 373
360 382
361 344
361 347
361 364
361 373
362 341
362 343
362 380
362 387
363 338
363 348
363 353
363 355
363 364
363 383
363 393
364 355
364 361
364 363
364 385
365 352
365 356
365 357
365 369
365 378
365 389
366 345
366 371
366 390
367 342
367 346
367 358
367 370
367 381
367 395
368 350
368 354
368 374
368 384
369 352
369 357
369 365
369 379
369 389
370 346
370 367
370 386
370 395
371 353
371 366
371 377
371 390
371 392
371 397
372 349
372 360
372 382
372 386
373 344
373 347
373 360
373 361
373 382
373 396
373 398
374 354
374 368
374 384
374 394
375 351
375 359
375 376
375 379
375 388
375 391
376 359
376 375
376 388
376 391
377 353
377 371
377 383
377 392
377 397
378 356
378 365
379 351
379 369
379 375
379 388
379 389
380 362
380 387
381 358
381 367
382 360
382 372
382 373
382 386
382 396
383 363
383 377
383 393
383 397
384 368
384 374
384 394
385 364
385 393
385 398
386 370
386 372
386 382
386 395
386 396
387 362
387 380
388 375
388 376
388 379
388 391
389 365
389 369
389 379
390 366
390 371
390 392
391 375
391 376
391 388
392 371
392 377
392 390
392 397
393 363
393 383
393 385
393 397
394 374
394 384
395 367
395 370
395 386
396 373
396 382
396 386
396 398
397 371
397 377
397 383
397 392
397 393
398 373
398 385
398 396
