1 2
1 15
1 20
1 25
1 26
1 38
1 48
2 1
2 5
2 23
2 25
2 26
2 30
2 38
2 49
3 12
3 16
3 19
3 21
3 22
3 40
4 7
4 17
4 24
4 28
4 44
5 2
5 12
5 23
5 26
5 30
5 41
5 46
6 8
6 15
6 20
6 32
6 33
6 47
7 4
7 10
7 24
7 28
7 29
7 35
7 45
8 6
8 17
8 20
8 32
8 33
8 47
8 58
9 13
9 16
9 18
9 31
9 36
9 39
10 7
10 24
10 28
10 29
10 34
10 35
10 45
10 51
11 13
11 14
11 18
11 27
11 37
11 43
11 60
12 3
12 5
12 19
12 21
12 23
12 41
12 42
12 54
13 9
13 11
13 18
13 27
13 31
13 39
14 11
14 27
14 37
14 43
14 59
15 1
15 6
15 20
15 25
15 26
15 33
15 38
15 47
15 48
15 50
16 3
16 9
16 21
16 22
16 31
16 36
16 56
17 4
17 8
17 24
17 32
17 44
17 52
18 9
18 11
18 13
18 27
18 31
18 39
18 43
19 3
19 12
19 21
19 22
19 40
19 41
19 42
19 54
20 1
20 6
20 8
20 15
20 25
20 32
20 33
20 38
20 47
20 50
21 3
21 12
21 16
21 19
21 22
21 36
21 40
21 42
21 54
21 55
22 3
22 16
22 19
22 21
22 36
22 40
22 55
22 56
23 2
23 5
23 12
23 26
23 30
23 41
23 46
23 49
23 66
24 4
24 7
24 10
24 17
24 28
24 29
24 44
24 45
24 52
24 53
25 1
25 2
25 15
25 20
25 26
25 38
25 48
25 49
25 50
26 1
26 2
26 5
26 15
26 23
26 25
26 30
26 38
26 46
26 48
26 49
26 65
26 70
27 11
27 13
27 14
27 18
27 37
27 39
27 43
27 60
28 4
28 7
28 10
28 24
28 29
28 35
28 44
28 45
28 53
28 62
29 7
29 10
29 24
29 28
29 34
29 35
29 45
29 51
29 57
29 62
29 63
30 2
30 5
30 23
30 26
30 41
30 46
30 49
30 65
30 66
30 67
31 9
31 13
31 16
31 18
31 36
31 39
31 61
32 6
32 8
32 17
32 20
32 33
32 47
32 52
32 58
32 69
33 6
33 8
33 15
33 20
33 32
33 47
33 50
33 58
33 69
33 73
34 10
34 29
34 35
34 45
34 51
34 57
34 63
35 7
35 10
35 28
35 29
35 34
35 45
35 51
35 57
35 62
35 63
36 9
36 16
36 21
36 22
36 31
36 40
36 55
36 56
36 68
36 78
37 11
37 14
37 27
37 43
37 59
37 60
37 71
38 1
38 2
38 15
38 20
38 25
38 26
38 48
38 49
38 50
38 65
38 70
38 74
39 9
39 13
39 18
39 27
39 31
39 43
39 60
39 61
39 72
40 3
40 19
40 21
40 22
40 36
40 42
40 54
40 55
40 56
40 76
40 78
40 79
41 5
41 12
41 19
41 23
41 30
41 42
41 46
41 54
41 64
41 66
41 67
41 84
42 12
42 19
42 21
42 40
42 41
42 54
42 55
42 64
42 67
42 76
43 11
43 14
43 18
43 27
43 37
43 39
43 59
43 60
43 71
43 72
43 81
44 4
44 17
44 24
44 28
44 45
44 52
44 53
44 62
44 75
44 77
44 88
45 7
45 10
45 24
45 28
45 29
45 34
45 35
45 44
45 51
45 53
45 62
45 63
45 77
45 87
46 5
46 23
46 26
46 30
46 41
46 49
46 65
46 66
46 67
46 80
46 86
47 6
47 8
47 15
47 20
47 32
47 33
47 50
47 58
47 69
47 73
47 82
47 85
48 1
48 15
48 25
48 26
48 38
48 49
48 50
48 65
48 70
48 74
48 82
48 92
49 2
49 23
49 25
49 26
49 30
49 38
49 46
49 48
49 65
49 66
49 70
49 74
49 80
50 15
50 20
50 25
50 33
50 38
50 47
50 48
50 58
50 69
50 70
50 73
50 74
50 82
51 10
51 29
51 34
51 35
51 45
51 57
51 62
51 63
51 94
52 17
52 24
52 32
52 44
52 53
52 58
52 75
52 77
52 88
53 24
53 28
53 44
53 45
53 52
53 62
53 75
53 77
53 87
53 88
54 12
54 19
54 21
54 40
54 41
54 42
54 55
54 64
54 67
54 76
54 79
54 91
55 21
55 22
55 36
55 40
55 42
55 54
55 56
55 68
55 76
55 78
55 79
55 91
56 16
56 22
56 36
56 40
56 55
56 68
56 78
56 79
56 90
57 29
57 34
57 35
57 51
57 63
57 94
58 8
58 32
58 33
58 47
58 50
58 52
58 69
58 73
58 75
58 85
59 14
59 37
59 43
59 60
59 71
59 81
59 93
60 11
60 27
60 37
60 39
60 43
60 59
60 71
60 72
60 81
60 95
61 31
61 39
61 72
61 83
61 89
61 97
62 28
62 29
62 35
62 44
62 45
62 51
62 53
62 63
62 75
62 77
62 87
62 88
62 106
63 29
63 34
63 35
63 45
63 51
63 57
63 62
63 87
63 94
64 41
64 42
64 54
64 66
64 67
64 76
64 84
64 101
64 104
64 107
65 26
65 30
65 38
65 46
65 48
65 49
65 66
65 70
65 74
65 80
65 86
65 92
65 98
65 99
66 23
66 30
66 41
66 46
66 49
66 64
66 65
66 67
66 80
66 84
66 86
66 98
66 104
67 30
67 41
67 42
67 46
67 54
67 64
67 66
67 76
67 80
67 84
67 86
67 98
67 104
68 36
68 55
68 56
68 78
68 79
68 90
68 108
69 32
69 33
69 47
69 50
69 58
69 73
69 82
69 85
69 100
69 105
70 26
70 38
70 48
70 49
70 50
70 65
70 74
70 80
70 82
70 92
70 99
70 102
71 37
71 43
71 59
71 60
71 81
71 93
71 95
72 39
72 43
72 60
72 61
72 81
72 83
72 89
72 95
72 97
72 103
73 33
73 47
73 50
73 58
73 69
73 74
73 82
73 85
73 92
73 100
73 105
74 38
74 48
74 49
74 50
74 65
74 70
74 73
74 82
74 92
74 99
74 102
74 105
75 44
75 52
75 53
75 58
75 62
75 77
75 85
75 87
75 88
75 96
75 109
75 112
76 40
76 42
76 54
76 55
76 64
76 67
76 79
76 84
76 91
76 101
76 107
77 44
77 45
77 52
77 53
77 62
77 75
77 87
77 88
77 96
77 106
77 109
77 112
78 36
78 40
78 55
78 56
78 68
78 79
78 90
78 91
78 108
78 118
79 40
79 54
79 55
79 56
79 68
79 76
79 78
79 90
79 91
79 101
79 115
79 118
80 46
80 49
80 65
80 66
80 67
80 70
80 84
80 86
80 98
80 99
80 104
80 120
81 43
81 59
81 60
81 71
81 72
81 89
81 93
81 95
81 103
81 113
82 47
82 48
82 50
82 69
82 70
82 73
82 74
82 92
82 100
82 102
82 105
82 119
83 61
83 72
83 89
83 97
83 103
83 122
83 128
84 41
84 64
84 66
84 67
84 76
84 80
84 86
84 98
84 101
84 104
84 107
84 123
84 125
85 47
85 58
85 69
85 73
85 75
85 96
85 100
85 105
85 110
85 112
85 119
85 130
86 46
86 65
86 66
86 67
86 80
86 84
86 98
86 99
86 104
86 120
86 123
87 45
87 53
87 62
87 63
87 75
87 77
87 88
87 96
87 106
87 109
87 114
87 116
87 124
88 44
88 52
88 53
88 62
88 75
88 77
88 87
88 96
88 106
88 109
88 112
88 114
88 134
88 137
89 61
89 72
89 81
89 83
89 95
89 97
89 103
89 113
89 122
89 128
90 56
90 68
90 78
90 79
90 91
90 97
90 108
90 118
90 127
91 54
91 55
91 76
91 78
91 79
91 90
91 101
91 107
91 108
91 115
91 118
91 131
92 48
92 65
92 70
92 73
92 74
92 82
92 99
92 102
92 105
92 120
92 126
93 59
93 71
93 81
93 95
93 113
93 117
93 121
93 138
94 51
94 57
94 63
94 106
94 111
94 116
94 129
94 141
95 60
95 71
95 72
95 81
95 89
95 93
95 103
95 113
95 117
95 121
95 138
95 139
96 75
96 77
96 85
96 87
96 88
96 109
96 110
96 112
96 114
96 134
96 137
97 61
97 72
97 83
97 89
97 90
97 103
97 108
97 122
97 128
97 144
98 65
98 66
98 67
98 80
98 84
98 86
98 99
98 104
98 120
98 123
98 133
98 136
99 65
99 70
99 74
99 80
99 86
99 92
99 98
99 102
99 120
99 126
99 136
100 69
100 73
100 82
100 85
100 105
100 110
100 119
100 130
100 135
100 140
101 64
101 76
101 79
101 84
101 91
101 104
101 107
101 115
101 118
101 123
101 125
101 131
101 132
101 142
102 70
102 74
102 82
102 92
102 99
102 105
102 120
102 126
102 135
102 136
102 145
103 72
103 81
103 83
103 89
103 95
103 97
103 113
103 122
103 128
103 143
103 144
104 64
104 66
104 67
104 80
104 84
104 86
104 98
104 101
104 107
104 123
104 125
104 132
104 133
104 142
105 69
105 73
105 74
105 82
105 85
105 92
105 100
105 102
105 110
105 119
105 126
105 130
105 135
105 140
106 62
106 77
106 87
106 88
106 94
106 109
106 111
106 114
106 116
106 124
106 137
106 146
107 64
107 76
107 84
107 91
107 101
107 104
107 115
107 123
107 125
107 131
107 132
107 142
108 68
108 78
108 90
108 91
108 97
108 118
108 122
108 127
108 147
109 75
109 77
109 87
109 88
109 96
109 106
109 112
109 114
109 124
109 134
109 137
109 153
110 85
110 96
110 100
110 105
110 112
110 119
110 130
110 140
110 149
111 94
111 106
111 116
111 124
111 129
111 141
111 148
112 75
112 77
112 85
112 88
112 96
112 109
112 110
112 114
112 130
112 134
112 137
112 153
112 154
113 81
113 89
113 93
113 95
113 103
113 117
113 121
113 128
113 138
113 139
113 143
113 158
114 87
114 88
114 96
114 106
114 109
114 112
114 116
114 124
114 134
114 137
114 146
114 148
114 153
115 79
115 91
115 101
115 107
115 118
115 125
115 127
115 131
115 132
115 142
115 150
116 87
116 94
116 106
116 111
116 114
116 124
116 129
116 141
116 146
116 148
116 163
117 93
117 95
117 113
117 121
117 138
117 139
117 164
118 78
118 79
118 90
118 91
118 101
118 108
118 115
118 127
118 131
118 132
118 147
118 150
119 82
119 85
119 100
119 105
119 110
119 130
119 135
119 140
119 149
119 160
119 161
120 80
120 86
120 92
120 98
120 99
120 102
120 126
120 133
120 136
120 145
120 151
120 152
120 156
121 93
121 95
121 113
121 117
121 138
121 139
121 164
122 83
122 89
122 97
122 103
122 108
122 127
122 128
122 143
122 144
122 155
122 159
123 84
123 86
123 98
123 101
123 104
123 107
123 125
123 132
123 133
123 142
123 151
123 157
123 162
124 87
124 106
124 109
124 111
124 114
124 116
124 129
124 137
124 141
124 146
124 148
124 168
125 84
125 101
125 104
125 107
125 115
125 123
125 131
125 132
125 133
125 142
125 157
125 162
125 166
126 92
126 99
126 102
126 105
126 120
126 135
126 136
126 145
126 152
126 156
126 160
126 172
127 90
127 108
127 115
127 118
127 122
127 131
127 147
127 150
127 169
128 83
128 89
128 97
128 103
128 113
128 122
128 139
128 143
128 144
128 155
128 158
128 159
128 173
129 94
129 111
129 116
129 124
129 141
129 148
129 163
130 85
130 100
130 105
130 110
130 112
130 119
130 134
130 140
130 149
130 154
130 161
130 165
131 91
131 101
131 107
131 115
131 118
131 125
131 127
131 132
131 142
131 147
131 150
131 157
131 166
131 171
132 101
132 104
132 107
132 115
132 118
132 123
132 125
132 131
132 142
132 150
132 157
132 162
132 166
132 174
133 98
133 104
133 120
133 123
133 125
133 136
133 151
133 152
133 162
133 177
134 88
134 96
134 109
134 112
134 114
134 130
134 137
134 146
134 153
134 154
134 167
134 179
135 100
135 102
135 105
135 119
135 126
135 140
135 145
135 156
135 160
135 161
135 178
136 98
136 99
136 102
136 120
136 126
136 133
136 145
136 151
136 152
136 156
136 172
136 180
137 88
137 96
137 106
137 109
137 112
137 114
137 124
137 134
137 146
137 153
137 154
137 167
137 168
138 93
138 95
138 113
138 117
138 121
138 139
138 158
138 164
138 170
139 95
139 113
139 117
139 121
139 128
139 138
139 143
139 155
139 158
139 164
139 170
139 173
140 100
140 105
140 110
140 119
140 130
140 135
140 145
140 149
140 160
140 161
140 165
140 178
141 94
141 111
141 116
141 124
141 129
141 146
141 148
141 163
141 185
142 101
142 104
142 107
142 115
142 123
142 125
142 131
142 132
142 157
142 162
142 166
142 174
142 176
143 103
143 113
143 122
143 128
143 139
143 144
143 155
143 158
143 159
143 170
143 173
143 175
144 97
144 103
144 122
144 128
144 143
144 155
144 159
144 169
144 173
144 175
145 102
145 120
145 126
145 135
145 136
145 140
145 152
145 156
145 160
145 161
145 172
145 178
145 181
146 106
146 114
146 116
146 124
146 134
146 137
146 141
146 148
146 153
146 163
146 167
146 168
146 182
147 108
147 118
147 127
147 131
147 150
147 169
147 171
147 175
147 183
147 187
148 111
148 114
148 116
148 124
148 129
148 141
148 146
148 163
148 168
148 182
148 185
149 110
149 119
149 130
149 140
149 154
149 161
149 165
149 179
149 190
150 115
150 118
150 127
150 131
150 132
150 147
150 166
150 169
150 171
150 183
150 187
151 120
151 123
151 133
151 136
151 152
151 162
151 176
151 177
151 180
151 193
152 120
152 126
152 133
152 136
152 145
152 151
152 156
152 172
152 177
152 180
152 193
153 109
153 112
153 114
153 134
153 137
153 146
153 154
153 167
153 168
153 179
153 182
153 184
153 198
154 112
154 130
154 134
154 137
154 149
154 153
154 165
154 167
154 179
154 184
154 195
155 122
155 128
155 139
155 143
155 144
155 158
155 159
155 170
155 173
155 175
155 189
155 191
156 120
156 126
156 135
156 136
156 145
156 152
156 160
156 172
156 178
156 180
156 181
156 194
157 123
157 125
157 131
157 132
157 142
157 162
157 166
157 171
157 174
157 176
157 188
157 197
158 113
158 128
158 138
158 139
158 143
158 155
158 164
158 170
158 173
158 186
158 189
158 196
159 122
159 128
159 143
159 144
159 155
159 169
159 173
159 175
159 189
159 191
160 119
160 126
160 135
160 140
160 145
160 156
160 161
160 165
160 172
160 178
160 181
160 192
161 119
161 130
161 135
161 140
161 145
161 149
161 160
161 165
161 178
161 190
161 192
162 123
162 125
162 132
162 133
162 142
162 151
162 157
162 166
162 174
162 176
162 177
162 188
163 116
163 129
163 141
163 146
163 148
163 168
163 182
163 185
163 199
164 117
164 121
164 138
164 139
164 158
164 170
164 186
164 196
165 130
165 140
165 149
165 154
165 160
165 161
165 178
165 179
165 190
165 195
165 209
166 125
166 131
166 132
166 142
166 150
166 157
166 162
166 171
166 174
166 176
166 183
166 188
166 197
166 204
167 134
167 137
167 146
167 153
167 154
167 168
167 179
167 182
167 184
167 195
167 198
167 203
168 124
168 137
168 146
168 148
168 153
168 163
168 167
168 182
168 184
168 185
168 198
168 199
168 202
168 203
169 127
169 144
169 147
169 150
169 159
169 171
169 175
169 183
169 187
169 212
170 138
170 139
170 143
170 155
170 158
170 164
170 173
170 186
170 189
170 196
170 208
171 131
171 147
171 150
171 157
171 166
171 169
171 174
171 183
171 187
171 188
171 197
171 201
172 126
172 136
172 145
172 152
172 156
172 160
172 178
172 180
172 181
172 192
172 193
172 194
172 206
173 128
173 139
173 143
173 144
173 155
173 158
173 159
173 170
173 175
173 189
173 191
173 196
173 205
174 132
174 142
174 157
174 162
174 166
174 171
174 176
174 177
174 183
174 188
174 197
174 204
175 143
175 144
175 147
175 155
175 159
175 169
175 173
175 187
175 189
175 191
175 216
176 142
176 151
176 157
176 162
176 166
176 174
176 177
176 180
176 188
176 197
176 200
176 204
177 133
177 151
177 152
177 162
177 174
177 176
177 180
177 188
177 193
177 200
177 206
177 218
178 135
178 140
178 145
178 156
178 160
178 161
178 165
178 172
178 181
178 190
178 192
178 194
178 207
178 210
179 134
179 149
179 153
179 154
179 165
179 167
179 184
179 190
179 195
179 198
179 213
179 219
180 136
180 151
180 152
180 156
180 172
180 176
180 177
180 181
180 193
180 194
180 200
180 206
181 145
181 156
181 160
181 172
181 178
181 180
181 192
181 193
181 194
181 210
181 217
182 146
182 148
182 153
182 163
182 167
182 168
182 184
182 185
182 198
182 199
182 202
182 203
182 220
183 147
183 150
183 166
183 169
183 171
183 174
183 187
183 188
183 197
183 201
183 215
184 153
184 154
184 167
184 168
184 179
184 182
184 195
184 198
184 202
184 203
184 213
184 219
185 141
185 148
185 163
185 168
185 182
185 199
185 202
185 211
185 224
186 158
186 164
186 170
186 196
186 208
186 214
186 222
187 147
187 150
187 169
187 171
187 175
187 183
187 201
187 212
187 215
187 232
188 157
188 162
188 166
188 171
188 174
188 176
188 177
188 183
188 197
188 200
188 204
188 221
188 223
188 226
189 155
189 158
189 159
189 170
189 173
189 175
189 191
189 196
189 205
189 208
189 216
189 222
189 227
190 149
190 161
190 165
190 178
190 179
190 192
190 195
190 207
190 209
190 230
190 233
191 155
191 159
191 173
191 175
191 189
191 205
191 208
191 216
191 227
192 160
192 161
192 172
192 178
192 181
192 190
192 194
192 207
192 210
192 217
192 225
193 151
193 152
193 172
193 177
193 180
193 181
193 194
193 200
193 206
193 218
193 229
194 156
194 172
194 178
194 180
194 181
194 192
194 193
194 206
194 210
194 217
194 225
194 231
194 237
195 154
195 165
195 167
195 179
195 184
195 190
195 198
195 203
195 209
195 213
195 219
195 230
196 158
196 164
196 170
196 173
196 186
196 189
196 205
196 208
196 214
196 222
196 236
197 157
197 166
197 171
197 174
197 176
197 183
197 188
197 201
197 204
197 215
197 221
197 226
198 153
198 167
198 168
198 179
198 182
198 184
198 195
198 202
198 203
198 213
198 219
198 220
199 163
199 168
199 182
199 185
199 202
199 203
199 211
199 220
199 224
199 240
200 176
200 177
200 180
200 188
200 193
200 204
200 206
200 218
200 223
200 229
200 234
201 171
201 183
201 187
201 197
201 204
201 212
201 215
201 221
201 228
201 232
202 168
202 182
202 184
202 185
202 198
202 199
202 203
202 211
202 213
202 220
202 224
202 235
202 240
203 167
203 168
203 182
203 184
203 195
203 198
203 199
203 202
203 213
203 219
203 220
203 224
203 235
204 166
204 174
204 176
204 188
204 197
204 200
204 201
204 215
204 218
204 221
204 223
204 226
204 242
204 243
205 173
205 189
205 191
205 196
205 208
205 216
205 222
205 227
205 236
205 239
205 247
206 172
206 177
206 180
206 193
206 194
206 200
206 217
206 218
206 229
206 231
206 234
206 237
206 251
207 178
207 190
207 192
207 209
207 210
207 217
207 225
207 233
207 241
207 244
208 170
208 186
208 189
208 191
208 196
208 205
208 214
208 222
208 227
208 236
208 238
209 165
209 190
209 195
209 207
209 210
209 219
209 230
209 233
209 241
209 250
210 178
210 181
210 192
210 194
210 207
210 209
210 217
210 225
210 231
210 241
210 244
211 185
211 199
211 202
211 220
211 224
211 235
211 240
212 169
212 187
212 201
212 215
212 216
212 228
212 232
212 246
212 254
213 179
213 184
213 195
213 198
213 202
213 203
213 219
213 220
213 230
213 235
213 245
213 249
214 186
214 196
214 208
214 222
214 236
214 238
214 257
215 183
215 187
215 197
215 201
215 204
215 212
215 221
215 226
215 228
215 232
215 243
215 248
216 175
216 189
216 191
216 205
216 212
216 227
216 239
216 247
216 258
217 181
217 192
217 194
217 206
217 207
217 210
217 225
217 229
217 231
217 237
217 244
217 252
218 177
218 193
218 200
218 204
218 206
218 223
218 226
218 229
218 234
218 242
218 251
218 255
219 179
219 184
219 195
219 198
219 203
219 209
219 213
219 220
219 230
219 233
219 245
220 182
220 198
220 199
220 202
220 203
220 211
220 213
220 219
220 224
220 235
220 240
220 249
220 256
220 263
221 188
221 197
221 201
221 204
221 215
221 223
221 226
221 228
221 242
221 243
221 248
221 253
222 186
222 189
222 196
222 205
222 208
222 214
222 227
222 236
222 238
222 247
222 257
222 259
222 266
223 188
223 200
223 204
223 218
223 221
223 226
223 229
223 234
223 242
223 243
223 253
223 255
224 185
224 199
224 202
224 203
224 211
224 220
224 235
224 240
224 249
224 256
224 270
225 192
225 194
225 207
225 210
225 217
225 231
225 233
225 237
225 241
225 244
225 252
225 260
225 262
226 188
226 197
226 204
226 215
226 218
226 221
226 223
226 234
226 242
226 243
226 253
226 269
227 189
227 191
227 205
227 208
227 216
227 222
227 236
227 239
227 247
227 258
227 265
228 201
228 212
228 215
228 221
228 232
228 243
228 246
228 248
228 254
228 268
229 193
229 200
229 206
229 217
229 218
229 223
229 231
229 234
229 237
229 251
229 252
229 255
229 261
229 271
230 190
230 195
230 209
230 213
230 219
230 233
230 245
230 250
230 267
231 194
231 206
231 210
231 217
231 225
231 229
231 237
231 244
231 251
231 252
231 260
231 261
232 187
232 201
232 212
232 215
232 228
232 246
232 248
232 254
232 264
232 268
233 190
233 207
233 209
233 219
233 225
233 230
233 241
233 244
233 245
233 250
233 262
233 267
233 277
234 200
234 206
234 218
234 223
234 226
234 229
234 242
234 251
234 255
234 271
234 274
235 202
235 203
235 211
235 213
235 220
235 224
235 240
235 249
235 256
235 263
235 270
235 279
236 196
236 205
236 208
236 214
236 222
236 227
236 238
236 247
236 257
236 259
236 266
236 278
237 194
237 206
237 217
237 225
237 229
237 231
237 244
237 251
237 252
237 260
237 261
237 271
237 275
238 208
238 214
238 222
238 236
238 257
238 259
238 266
239 205
239 216
239 227
239 246
239 247
239 254
239 258
239 264
239 265
239 281
240 199
240 202
240 211
240 220
240 224
240 235
240 249
240 256
240 263
240 270
240 284
241 207
241 209
241 210
241 225
241 233
241 244
241 250
241 260
241 262
241 276
241 277
241 282
242 204
242 218
242 221
242 223
242 226
242 234
242 243
242 253
242 255
242 269
242 272
243 204
243 215
243 221
243 223
243 226
243 228
243 242
243 248
243 253
243 268
243 269
243 272
243 280
244 207
244 210
244 217
244 225
244 231
244 233
244 237
244 241
244 250
244 252
244 260
244 261
244 262
244 276
244 282
245 213
245 219
245 230
245 233
245 250
245 267
245 273
246 212
246 228
246 232
246 239
246 248
246 254
246 258
246 264
246 268
246 283
246 286
247 205
247 216
247 222
247 227
247 236
247 239
247 258
247 259
247 265
247 281
247 288
248 215
248 221
248 228
248 232
248 243
248 246
248 254
248 264
248 268
248 283
249 213
249 220
249 224
249 235
249 240
249 256
249 263
249 270
249 273
249 279
249 287
250 209
250 230
250 233
250 241
250 244
250 245
250 262
250 267
250 277
251 206
251 218
251 229
251 231
251 234
251 237
251 252
251 255
251 261
251 271
251 274
251 275
251 290
252 217
252 225
252 229
252 231
252 237
252 244
252 251
252 260
252 261
252 271
252 274
252 275
252 276
252 285
253 221
253 223
253 226
253 242
253 243
253 255
253 269
253 272
253 280
254 212
254 228
254 232
254 239
254 246
254 248
254 258
254 264
254 268
254 283
254 286
255 218
255 223
255 229
255 234
255 242
255 251
255 253
255 271
255 272
255 274
255 290
255 294
256 220
256 224
256 235
256 240
256 249
256 263
256 270
256 279
256 284
257 214
257 222
257 236
257 238
257 259
257 266
257 278
258 216
258 227
258 239
258 246
258 247
258 254
258 264
258 265
258 281
258 288
258 295
258 297
259 222
259 236
259 238
259 247
259 257
259 265
259 266
259 278
259 288
259 299
260 225
260 231
260 237
260 241
260 244
260 252
260 261
260 262
260 275
260 276
260 282
260 285
260 298
260 300
261 229
261 231
261 237
261 244
261 251
261 252
261 260
261 271
261 274
261 275
261 276
261 285
261 290
261 298
261 304
262 225
262 233
262 241
262 244
262 250
262 260
262 276
262 277
262 282
262 292
262 298
262 300
263 220
263 235
263 240
263 249
263 256
263 270
263 273
263 279
263 284
263 287
263 296
264 232
264 239
264 246
264 248
264 254
264 258
264 268
264 281
264 283
264 286
264 297
264 309
265 227
265 239
265 247
265 258
265 259
265 278
265 281
265 288
265 295
265 305
266 222
266 236
266 238
266 257
266 259
266 278
266 299
266 306
267 230
267 233
267 245
267 250
267 273
267 277
267 287
267 289
267 292
267 302
267 310
268 228
268 232
268 243
268 246
268 248
268 254
268 264
268 269
268 280
268 283
268 286
268 291
268 307
269 226
269 242
269 243
269 253
269 268
269 272
269 280
269 291
269 293
269 301
269 311
270 224
270 235
270 240
270 249
270 256
270 263
270 279
270 284
270 296
270 303
270 315
271 229
271 234
271 237
271 251
271 252
271 255
271 261
271 274
271 275
271 285
271 290
271 294
271 304
271 308
272 242
272 243
272 253
272 255
272 269
272 274
272 280
272 293
272 294
272 301
272 313
273 245
273 249
273 263
273 267
273 279
273 287
273 289
273 296
273 302
273 310
274 234
274 251
274 252
274 255
274 261
274 271
274 272
274 275
274 285
274 290
274 294
274 304
274 308
274 313
275 237
275 251
275 252
275 260
275 261
275 271
275 274
275 276
275 285
275 290
275 298
275 304
275 308
275 320
276 241
276 244
276 252
276 260
276 261
276 262
276 275
276 282
276 285
276 298
276 300
276 304
276 319
277 233
277 241
277 250
277 262
277 267
277 282
277 292
277 300
277 302
278 236
278 257
278 259
278 265
278 266
278 288
278 299
278 305
278 306
278 314
279 235
279 249
279 256
279 263
279 270
279 273
279 284
279 287
279 289
279 296
279 303
279 312
280 243
280 253
280 268
280 269
280 272
280 283
280 291
280 293
280 301
280 307
280 311
281 239
281 247
281 258
281 264
281 265
281 286
281 288
281 295
281 297
281 305
281 321
281 322
282 241
282 244
282 260
282 262
282 276
282 277
282 285
282 292
282 298
282 300
282 317
282 319
283 246
283 248
283 254
283 264
283 268
283 280
283 286
283 291
283 307
283 309
284 240
284 256
284 263
284 270
284 279
284 296
284 303
284 315
284 316
284 318
285 252
285 260
285 261
285 271
285 274
285 275
285 276
285 282
285 290
285 298
285 300
285 304
285 308
285 319
285 320
286 246
286 254
286 264
286 268
286 281
286 283
286 291
286 295
286 297
286 307
286 309
286 333
287 249
287 263
287 267
287 273
287 279
287 289
287 296
287 302
287 303
287 310
287 312
287 330
287 336
288 247
288 258
288 259
288 265
288 278
288 281
288 295
288 297
288 299
288 305
288 314
288 321
288 322
289 267
289 273
289 279
289 287
289 296
289 302
289 310
289 312
289 324
289 327
290 251
290 255
290 261
290 271
290 274
290 275
290 285
290 294
290 304
290 308
290 313
290 320
290 323
290 334
291 268
291 269
291 280
291 283
291 286
291 301
291 307
291 309
291 311
291 326
291 328
292 262
292 267
292 277
292 282
292 300
292 302
292 317
292 327
292 329
293 269
293 272
293 280
293 294
293 301
293 311
293 313
293 325
293 326
294 255
294 271
294 272
294 274
294 290
294 293
294 301
294 308
294 313
294 323
294 325
295 258
295 265
295 281
295 286
295 288
295 297
295 299
295 305
295 321
295 322
296 263
296 270
296 273
296 279
296 284
296 287
296 289
296 303
296 310
296 312
296 315
296 318
296 330
296 336
297 258
297 264
297 281
297 286
297 288
297 295
297 305
297 309
297 321
297 322
297 333
298 260
298 261
298 262
298 275
298 276
298 282
298 285
298 300
298 304
298 317
298 319
298 320
298 337
298 338
299 259
299 266
299 278
299 288
299 295
299 305
299 306
299 314
299 322
299 331
299 339
299 341
300 260
300 262
300 276
300 277
300 282
300 285
300 292
300 298
300 304
300 317
300 319
300 329
300 337
301 269
301 272
301 280
301 291
301 293
301 294
301 307
301 311
301 313
301 325
301 326
301 328
301 340
302 267
302 273
302 277
302 287
302 289
302 292
302 310
302 324
302 327
302 329
303 270
303 279
303 284
303 287
303 296
303 312
303 315
303 316
303 318
303 330
303 332
303 335
304 261
304 271
304 274
304 275
304 276
304 285
304 290
304 298
304 300
304 308
304 319
304 320
304 323
304 334
304 338
304 348
305 265
305 278
305 281
305 288
305 295
305 297
305 299
305 314
305 321
305 322
305 339
305 341
305 343
306 266
306 278
306 299
306 314
306 331
306 339
306 350
307 268
307 280
307 283
307 286
307 291
307 301
307 309
307 311
307 326
307 328
307 333
307 346
308 271
308 274
308 275
308 285
308 290
308 294
308 304
308 313
308 320
308 323
308 334
308 338
308 355
309 264
309 283
309 286
309 291
309 297
309 307
309 328
309 333
309 342
310 267
310 273
310 287
310 289
310 296
310 302
310 312
310 324
310 327
310 330
310 336
311 269
311 280
311 291
311 293
311 301
311 307
311 325
311 326
311 328
311 340
311 349
312 279
312 287
312 289
312 296
312 303
312 310
312 315
312 318
312 324
312 330
312 335
312 336
312 351
312 357
313 272
313 274
313 290
313 293
313 294
313 301
313 308
313 323
313 325
313 334
313 344
313 347
313 361
314 278
314 288
314 299
314 305
314 306
314 322
314 331
314 339
314 341
314 350
314 354
315 270
315 284
315 296
315 303
315 312
315 316
315 318
315 330
315 332
315 335
315 352
315 356
315 357
316 284
316 303
316 315
316 318
316 332
316 335
316 352
316 356
317 282
317 292
317 298
317 300
317 319
317 329
317 337
317 345
317 353
318 284
318 296
318 303
318 312
318 315
318 316
318 330
318 332
318 335
318 336
318 352
318 356
318 357
319 276
319 282
319 285
319 298
319 300
319 304
319 317
319 320
319 329
319 337
319 338
319 348
319 353
320 275
320 285
320 290
320 298
320 304
320 308
320 319
320 323
320 334
320 337
320 338
320 348
320 353
320 355
320 363
321 281
321 288
321 295
321 297
321 305
321 322
321 341
321 343
321 362
322 281
322 288
322 295
322 297
322 299
322 305
322 314
322 321
322 339
322 341
322 343
322 362
323 290
323 294
323 304
323 308
323 313
323 320
323 325
323 334
323 338
323 344
323 348
323 355
323 361
323 364
324 289
324 302
324 310
324 312
324 327
324 330
324 336
324 351
324 359
325 293
325 294
325 301
325 311
325 313
325 323
325 326
325 340
325 344
325 347
325 360
325 361
325 373
326 291
326 293
326 301
326 307
326 311
326 325
326 328
326 340
326 346
326 347
326 349
326 360
326 372
327 289
327 292
327 302
327 310
327 324
327 329
327 336
327 345
327 359
328 291
328 301
328 307
328 309
328 311
328 326
328 333
328 340
328 342
328 346
328 349
328 370
329 292
329 300
329 302
329 317
329 319
329 327
329 337
329 345
329 366
330 287
330 296
330 303
330 310
330 312
330 315
330 318
330 324
330 335
330 336
330 351
330 352
330 357
330 369
331 299
331 306
331 314
331 339
331 350
331 354
331 368
332 303
332 315
332 316
332 318
332 335
332 352
332 356
333 286
333 297
333 307
333 309
333 328
333 342
333 346
333 358
333 367
333 370
334 290
334 304
334 308
334 313
334 320
334 323
334 338
334 344
334 348
334 355
334 363
334 364
335 303
335 312
335 315
335 316
335 318
335 330
335 332
335 352
335 356
335 357
335 365
335 369
336 287
336 296
336 310
336 312
336 318
336 324
336 327
336 330
336 351
336 357
336 359
336 369
336 375
336 379
337 298
337 300
337 317
337 319
337 320
337 329
337 338
337 345
337 353
337 366
337 371
337 377
338 298
338 304
338 308
338 319
338 320
338 323
338 334
338 337
338 348
338 353
338 355
338 363
338 377
339 299
339 305
339 306
339 314
339 322
339 331
339 341
339 350
339 354
339 362
339 368
339 374
340 301
340 311
340 325
340 326
340 328
340 344
340 347
340 349
340 360
340 361
340 372
340 373
340 382
341 299
341 305
341 314
341 321
341 322
341 339
341 343
341 354
341 362
341 374
341 380
342 309
342 328
342 333
342 343
342 346
342 358
342 367
342 370
342 381
343 305
343 321
343 322
343 341
343 342
343 358
343 362
343 380
343 387
344 313
344 323
344 325
344 334
344 340
344 347
344 355
344 360
344 361
344 364
344 373
345 317
345 327
345 329
345 337
345 353
345 359
345 366
345 371
345 390
346 307
346 326
346 328
346 333
346 342
346 349
346 358
346 367
346 370
346 372
346 395
347 313
347 325
347 326
347 340
347 344
347 349
347 360
347 361
347 372
347 373
347 382
348 304
348 319
348 320
348 323
348 334
348 338
348 353
348 355
348 363
348 364
348 377
348 383
348 393
349 311
349 326
349 328
349 340
349 346
349 347
349 360
349 370
349 372
349 382
349 386
350 306
350 314
350 331
350 339
350 354
350 368
350 374
350 384
351 312
351 324
351 330
351 336
351 357
351 359
351 369
351 375
351 376
351 379
351 388
352 315
352 316
352 318
352 330
352 332
352 335
352 356
352 357
352 365
352 369
352 378
352 389
353 317
353 319
353 320
353 337
353 338
353 345
353 348
353 363
353 366
353 371
353 377
353 383
353 392
353 397
354 314
354 331
354 339
354 341
354 350
354 362
354 368
354 374
354 384
354 394
355 308
355 320
355 323
355 334
355 338
355 344
355 348
355 361
355 363
355 364
355 383
355 385
356 315
356 316
356 318
356 332
356 335
356 352
356 357
356 365
356 378
357 312
357 315
357 318
357 330
357 335
357 336
357 351
357 352
357 356
357 365
357 369
357 378
357 379
357 389
358 333
358 342
358 343
358 346
358 362
358 367
358 370
358 381
359 324
359 327
359 336
359 345
359 351
359 366
359 375
359 376
359 379
359 388
359 391
360 325
360 326
360 340
360 344
360 347
360 349
360 361
360 372
360 373
360 382
360 386
360 396
361 313
361 323
361 325
361 340
361 344
361 347
361 355
361 360
361 364
361 373
361 385
361 396
361 398
362 321
362 322
362 339
362 341
362 343
362 354
362 358
362 374
362 380
362 387
363 320
363 334
363 338
363 348
363 353
363 355
363 364
363 377
363 383
363 385
363 393
363 397
364 323
364 334
364 344
364 348
364 355
364 361
364 363
364 383
364 385
364 393
364 398
365 335
365 352
365 356
365 357
365 369
365 378
365 389
366 329
366 337
366 345
366 353
366 359
366 371
366 376
366 377
366 390
366 391
366 392
367 333
367 342
367 346
367 358
367 370
367 381
367 395
368 331
368 339
368 350
368 354
368 374
368 384
368 394
369 330
369 335
369 336
369 351
369 352
369 357
369 365
369 375
369 378
369 379
369 388
369 389
370 328
370 333
370 342
370 346
370 349
370 358
370 367
370 372
370 381
370 382
370 386
370 395
371 337
371 345
371 353
371 366
371 377
371 383
371 390
371 392
371 397
372 326
372 340
372 346
372 347
372 349
372 360
372 370
372 373
372 382
372 386
372 395
372 396
373 325
373 340
373 344
373 347
373 360
373 361
373 372
373 382
373 386
373 396
373 398
374 339
374 341
374 350
374 354
374 362
374 368
374 380
374 384
374 394
375 336
375 351
375 359
375 369
375 376
375 379
375 388
375 391
376 351
376 359
376 366
376 375
376 379
376 388
376 390
376 391
377 337
377 338
377 348
377 353
377 363
377 366
377 371
377 383
377 390
377 392
377 393
377 397
378 352
378 356
378 357
378 365
378 369
378 389
379 336
379 351
379 357
379 359
379 369
379 375
379 376
379 388
379 389
379 391
380 341
380 343
380 362
380 374
380 381
380 387
380 394
381 342
381 358
381 367
381 370
381 380
381 387
381 395
382 340
382 347
382 349
382 360
382 370
382 372
382 373
382 386
382 395
382 396
382 398
383 348
383 353
383 355
383 363
383 364
383 371
383 377
383 385
383 392
383 393
383 397
384 350
384 354
384 368
384 374
384 394
385 355
385 361
385 363
385 364
385 383
385 393
385 398
386 349
386 360
386 370
386 372
386 373
386 382
386 395
386 396
387 343
387 362
387 380
387 381
387 394
388 351
388 359
388 369
388 375
388 376
388 379
388 389
388 391
389 352
389 357
389 365
389 369
389 378
389 379
389 388
390 345
390 366
390 371
390 376
390 377
390 391
390 392
390 397
391 359
391 366
391 375
391 376
391 379
391 388
391 390
392 353
392 366
392 371
392 377
392 383
392 390
392 397
393 348
393 363
393 364
393 377
393 383
393 385
393 397
394 354
394 368
394 374
394 380
394 384
394 387
395 346
395 367
395 370
395 372
395 381
395 382
395 386
396 360
396 361
396 372
396 373
396 382
396 386
396 398
397 353
397 363
397 371
397 377
397 383
397 390
397 392
397 393
398 361
398 364
398 373
398 382
398 385
398 396
