1 10
1 15
1 27
1 28
1 29
1 36
1 43
2 3
2 8
2 18
2 24
2 30
2 38
2 39
2 50
3 2
3 7
3 18
3 23
3 24
3 26
3 30
3 39
4 8
4 9
4 20
4 25
4 34
4 38
4 47
5 6
5 11
5 19
5 22
5 32
5 33
5 42
5 44
6 5
6 7
6 11
6 22
6 23
6 32
6 33
6 42
6 46
7 3
7 6
7 23
7 26
7 30
7 32
7 40
7 46
8 2
8 4
8 9
8 18
8 20
8 24
8 34
8 38
8 47
9 4
9 8
9 20
9 25
9 34
9 45
9 47
9 56
10 1
10 14
10 27
10 28
10 29
10 36
10 43
10 54
11 5
11 6
11 19
11 22
11 33
11 37
11 42
11 44
12 13
12 16
12 17
12 19
12 31
12 35
12 37
12 41
12 48
12 49
13 12
13 15
13 16
13 17
13 21
13 27
13 35
13 41
13 48
13 51
14 10
14 28
14 29
14 36
14 53
15 1
15 13
15 16
15 21
15 27
15 28
15 35
15 43
15 51
15 52
16 12
16 13
16 15
16 17
16 21
16 31
16 35
16 41
16 48
16 49
16 51
16 68
17 12
17 13
17 16
17 19
17 21
17 31
17 35
17 41
17 48
17 49
17 69
18 2
18 3
18 8
18 24
18 30
18 38
18 39
18 50
18 67
19 5
19 11
19 12
19 17
19 22
19 31
19 37
19 44
19 49
19 55
19 65
20 4
20 8
20 9
20 25
20 34
20 45
20 47
20 56
20 57
20 63
21 13
21 15
21 16
21 17
21 27
21 35
21 41
21 43
21 51
21 52
21 68
21 70
22 5
22 6
22 11
22 19
22 32
22 33
22 37
22 42
22 44
22 46
22 58
22 62
22 65
23 3
23 6
23 7
23 26
23 30
23 32
23 33
23 40
23 46
23 59
23 61
24 2
24 3
24 8
24 18
24 30
24 38
24 39
24 50
24 64
24 67
24 72
25 4
25 9
25 20
25 34
25 45
25 47
25 56
25 57
25 76
26 3
26 7
26 23
26 30
26 32
26 40
26 46
26 59
26 60
27 1
27 10
27 13
27 15
27 21
27 28
27 35
27 36
27 43
27 51
27 52
27 54
27 66
27 75
28 1
28 10
28 14
28 15
28 27
28 29
28 36
28 43
28 52
28 54
28 66
28 74
29 1
29 10
29 14
29 28
29 36
29 53
29 54
29 74
30 2
30 3
30 7
30 18
30 23
30 24
30 26
30 39
30 40
30 60
30 71
30 72
31 12
31 16
31 17
31 19
31 37
31 41
31 44
31 48
31 49
31 55
31 69
31 78
31 79
32 5
32 6
32 7
32 22
32 23
32 26
32 33
32 40
32 42
32 46
32 58
32 59
32 61
32 73
32 77
33 5
33 6
33 11
33 22
33 23
33 32
33 40
33 42
33 44
33 46
33 58
33 61
33 62
33 73
34 4
34 8
34 9
34 20
34 25
34 38
34 45
34 47
34 56
34 57
34 63
34 64
34 76
34 83
35 12
35 13
35 15
35 16
35 17
35 21
35 27
35 41
35 48
35 51
35 52
35 68
35 69
35 70
35 87
36 1
36 10
36 14
36 27
36 28
36 29
36 43
36 52
36 53
36 54
36 66
36 74
37 11
37 12
37 19
37 22
37 31
37 42
37 44
37 48
37 49
37 55
37 62
37 65
37 79
37 80
38 2
38 4
38 8
38 18
38 24
38 34
38 39
38 47
38 50
38 56
38 63
38 64
38 67
38 81
38 82
39 2
39 3
39 18
39 24
39 30
39 38
39 50
39 60
39 64
39 67
39 71
39 72
39 82
39 90
40 7
40 23
40 26
40 30
40 32
40 33
40 46
40 59
40 60
40 61
40 71
40 73
40 77
40 84
41 12
41 13
41 16
41 17
41 21
41 31
41 35
41 48
41 49
41 51
41 68
41 69
41 70
41 78
41 85
41 87
42 5
42 6
42 11
42 22
42 32
42 33
42 37
42 44
42 46
42 58
42 61
42 62
42 65
42 73
42 80
42 92
43 1
43 10
43 15
43 21
43 27
43 28
43 36
43 51
43 52
43 54
43 66
43 70
43 74
43 75
43 88
43 98
44 5
44 11
44 19
44 22
44 31
44 33
44 37
44 42
44 49
44 55
44 58
44 62
44 65
44 79
44 80
44 93
45 9
45 20
45 25
45 34
45 47
45 56
45 57
45 63
45 76
45 83
45 86
46 6
46 7
46 22
46 23
46 26
46 32
46 33
46 40
46 42
46 58
46 59
46 61
46 62
46 73
46 77
46 89
46 92
47 4
47 8
47 9
47 20
47 25
47 34
47 38
47 45
47 56
47 57
47 63
47 64
47 76
47 81
47 83
47 99
48 12
48 13
48 16
48 17
48 31
48 35
48 37
48 41
48 49
48 55
48 68
48 69
48 78
48 79
48 85
48 94
48 100
49 12
49 16
49 17
49 19
49 31
49 37
49 41
49 44
49 48
49 55
49 65
49 68
49 69
49 78
49 79
49 85
49 94
49 95
49 100
50 2
50 18
50 24
50 38
50 39
50 64
50 67
50 71
50 72
50 81
50 82
50 90
51 13
51 15
51 16
51 21
51 27
51 35
51 41
51 43
51 52
51 66
51 68
51 69
51 70
51 75
51 87
51 88
51 91
52 15
52 21
52 27
52 28
52 35
52 36
52 43
52 51
52 54
52 66
52 68
52 70
52 75
52 87
52 88
52 91
52 98
52 104
53 14
53 29
53 36
53 54
53 74
53 97
54 10
54 27
54 28
54 29
54 36
54 43
54 52
54 53
54 66
54 74
54 75
54 88
54 97
54 98
55 19
55 31
55 37
55 44
55 48
55 49
55 62
55 65
55 69
55 78
55 79
55 80
55 93
55 94
55 95
55 100
56 9
56 20
56 25
56 34
56 38
56 45
56 47
56 57
56 63
56 64
56 76
56 81
56 83
56 86
56 99
56 102
57 20
57 25
57 34
57 45
57 47
57 56
57 63
57 76
57 83
57 86
57 99
58 22
58 32
58 33
58 42
58 44
58 46
58 61
58 62
58 65
58 73
58 80
58 89
58 92
58 109
59 23
59 26
59 32
59 40
59 46
59 60
59 61
59 71
59 73
59 77
59 84
59 89
59 106
60 26
60 30
60 39
60 40
60 59
60 71
60 72
60 77
60 84
60 90
60 103
61 23
61 32
61 33
61 40
61 42
61 46
61 58
61 59
61 62
61 73
61 77
61 89
61 92
61 106
61 109
62 22
62 33
62 37
62 42
62 44
62 46
62 55
62 58
62 61
62 65
62 73
62 79
62 80
62 89
62 92
62 93
62 107
63 20
63 34
63 38
63 45
63 47
63 56
63 57
63 64
63 76
63 81
63 83
63 86
63 96
63 99
63 102
64 24
64 34
64 38
64 39
64 47
64 50
64 56
64 63
64 67
64 72
64 81
64 82
64 83
64 96
64 108
65 19
65 22
65 37
65 42
65 44
65 49
65 55
65 58
65 62
65 79
65 80
65 92
65 93
65 94
65 95
65 107
65 114
66 27
66 28
66 36
66 43
66 51
66 52
66 54
66 70
66 74
66 75
66 88
66 91
66 97
66 98
66 104
67 18
67 24
67 38
67 39
67 50
67 64
67 71
67 72
67 81
67 82
67 90
67 96
67 105
67 108
67 111
68 16
68 21
68 35
68 41
68 48
68 49
68 51
68 52
68 69
68 70
68 75
68 78
68 85
68 87
68 91
68 100
68 101
68 113
68 118
69 17
69 31
69 35
69 41
69 48
69 49
69 51
69 55
69 68
69 70
69 78
69 79
69 85
69 87
69 94
69 100
69 101
69 118
70 21
70 35
70 41
70 43
70 51
70 52
70 66
70 68
70 69
70 75
70 85
70 87
70 88
70 91
70 101
70 104
70 113
70 117
71 30
71 39
71 40
71 50
71 59
71 60
71 67
71 72
71 77
71 82
71 84
71 90
71 103
71 105
71 115
71 119
72 24
72 30
72 39
72 50
72 60
72 64
72 67
72 71
72 82
72 84
72 90
72 105
72 111
72 115
73 32
73 33
73 40
73 42
73 46
73 58
73 59
73 61
73 62
73 77
73 80
73 89
73 92
73 106
73 109
73 112
73 122
74 28
74 29
74 36
74 43
74 53
74 54
74 66
74 88
74 97
74 98
74 104
74 110
74 120
75 27
75 43
75 51
75 52
75 54
75 66
75 68
75 70
75 87
75 88
75 91
75 98
75 104
75 117
76 25
76 34
76 45
76 47
76 56
76 57
76 63
76 83
76 86
76 99
76 102
76 126
77 32
77 40
77 46
77 59
77 60
77 61
77 71
77 73
77 84
77 89
77 103
77 106
77 127
78 31
78 41
78 48
78 49
78 55
78 68
78 69
78 79
78 85
78 94
78 95
78 100
78 101
78 116
78 118
78 121
79 31
79 37
79 44
79 48
79 49
79 55
79 62
79 65
79 69
79 78
79 80
79 85
79 93
79 94
79 95
79 100
79 107
79 114
79 116
80 37
80 42
80 44
80 55
80 58
80 62
80 65
80 73
80 79
80 89
80 92
80 93
80 95
80 107
80 109
80 112
80 114
80 128
81 38
81 47
81 50
81 56
81 63
81 64
81 67
81 82
81 83
81 96
81 99
81 102
81 108
81 123
81 125
82 38
82 39
82 50
82 64
82 67
82 71
82 72
82 81
82 90
82 96
82 105
82 108
82 111
82 115
82 125
82 129
83 34
83 45
83 47
83 56
83 57
83 63
83 64
83 76
83 81
83 86
83 96
83 99
83 102
83 108
83 123
83 124
83 126
84 40
84 59
84 60
84 71
84 72
84 77
84 90
84 103
84 105
84 106
84 115
84 119
85 41
85 48
85 49
85 68
85 69
85 70
85 78
85 79
85 87
85 91
85 94
85 100
85 101
85 113
85 118
85 121
85 135
86 45
86 56
86 57
86 63
86 76
86 83
86 99
86 102
86 124
86 126
87 35
87 41
87 51
87 52
87 68
87 69
87 70
87 75
87 85
87 88
87 91
87 101
87 104
87 113
87 117
87 118
87 133
88 43
88 51
88 52
88 54
88 66
88 70
88 74
88 75
88 87
88 91
88 97
88 98
88 104
88 113
88 117
88 120
89 46
89 58
89 59
89 61
89 62
89 73
89 77
89 80
89 92
89 106
89 109
89 112
89 122
89 127
89 130
89 136
90 39
90 50
90 60
90 67
90 71
90 72
90 82
90 84
90 103
90 105
90 111
90 115
90 119
90 129
91 51
91 52
91 66
91 68
91 70
91 75
91 85
91 87
91 88
91 98
91 101
91 104
91 113
91 117
91 133
92 42
92 46
92 58
92 61
92 62
92 65
92 73
92 80
92 89
92 93
92 107
92 109
92 112
92 122
92 128
92 130
92 136
93 44
93 55
93 62
93 65
93 79
93 80
93 92
93 94
93 95
93 107
93 112
93 114
93 116
93 128
93 130
93 131
94 48
94 49
94 55
94 65
94 69
94 78
94 79
94 85
94 93
94 95
94 100
94 101
94 114
94 116
94 118
94 121
94 131
94 132
95 49
95 55
95 65
95 78
95 79
95 80
95 93
95 94
95 100
95 107
95 114
95 116
95 121
95 128
95 131
95 132
96 63
96 64
96 67
96 81
96 82
96 83
96 99
96 102
96 105
96 108
96 111
96 123
96 124
96 125
96 129
96 137
96 141
97 53
97 54
97 66
97 74
97 88
97 98
97 104
97 110
97 120
97 138
97 143
98 43
98 52
98 54
98 66
98 74
98 75
98 88
98 91
98 97
98 104
98 110
98 117
98 120
98 140
98 143
99 47
99 56
99 57
99 63
99 76
99 81
99 83
99 86
99 96
99 102
99 108
99 123
99 124
99 126
99 137
100 48
100 49
100 55
100 68
100 69
100 78
100 79
100 85
100 94
100 95
100 101
100 114
100 116
100 118
100 121
100 131
100 132
100 135
101 68
101 69
101 70
101 78
101 85
101 87
101 91
101 94
101 100
101 113
101 116
101 117
101 118
101 121
101 132
101 133
101 135
101 148
102 56
102 63
102 76
102 81
102 83
102 86
102 96
102 99
102 108
102 123
102 124
102 125
102 126
102 137
103 60
103 71
103 77
103 84
103 90
103 105
103 106
103 115
103 119
103 127
103 134
103 146
104 52
104 66
104 70
104 74
104 75
104 87
104 88
104 91
104 97
104 98
104 110
104 113
104 117
104 120
104 140
104 143
104 144
105 67
105 71
105 72
105 82
105 84
105 90
105 96
105 103
105 108
105 111
105 115
105 119
105 125
105 129
105 141
105 142
105 145
106 59
106 61
106 73
106 77
106 84
106 89
106 103
106 109
106 119
106 122
106 127
106 134
106 136
106 139
106 146
106 155
107 62
107 65
107 79
107 80
107 92
107 93
107 95
107 109
107 112
107 114
107 116
107 122
107 128
107 130
107 131
107 147
107 150
108 64
108 67
108 81
108 82
108 83
108 96
108 99
108 102
108 105
108 111
108 123
108 124
108 125
108 129
108 137
108 141
108 142
109 58
109 61
109 73
109 80
109 89
109 92
109 106
109 107
109 112
109 122
109 127
109 128
109 130
109 136
109 139
109 147
109 157
110 74
110 97
110 98
110 104
110 120
110 138
110 140
110 143
110 161
110 164
111 67
111 72
111 82
111 90
111 96
111 105
111 108
111 115
111 119
111 125
111 129
111 141
111 142
111 145
111 158
112 73
112 80
112 89
112 92
112 93
112 107
112 109
112 114
112 122
112 128
112 130
112 131
112 136
112 147
112 150
112 157
112 166
113 68
113 70
113 85
113 87
113 88
113 91
113 101
113 104
113 117
113 118
113 121
113 133
113 135
113 144
113 148
113 151
114 65
114 79
114 80
114 93
114 94
114 95
114 100
114 107
114 112
114 116
114 121
114 128
114 130
114 131
114 132
114 147
114 150
114 152
114 153
114 156
114 163
115 71
115 72
115 82
115 84
115 90
115 103
115 105
115 111
115 119
115 125
115 129
115 134
115 142
115 145
115 160
116 78
116 79
116 93
116 94
116 95
116 100
116 101
116 107
116 114
116 118
116 121
116 128
116 131
116 132
116 150
116 152
116 153
116 156
117 70
117 75
117 87
117 88
117 91
117 98
117 101
117 104
117 113
117 118
117 120
117 133
117 135
117 140
117 144
117 151
117 167
118 68
118 69
118 78
118 85
118 87
118 94
118 100
118 101
118 113
118 116
118 117
118 121
118 132
118 133
118 135
118 148
118 151
118 153
118 159
119 71
119 84
119 90
119 103
119 105
119 106
119 111
119 115
119 129
119 134
119 142
119 145
119 146
119 160
119 162
120 74
120 88
120 97
120 98
120 104
120 110
120 117
120 138
120 140
120 143
120 144
120 164
120 165
121 78
121 85
121 94
121 95
121 100
121 101
121 113
121 114
121 116
121 118
121 131
121 132
121 133
121 135
121 148
121 153
121 156
121 159
122 73
122 89
122 92
122 106
122 107
122 109
122 112
122 127
122 128
122 130
122 136
122 139
122 147
122 155
122 157
123 81
123 83
123 96
123 99
123 102
123 108
123 124
123 125
123 126
123 137
123 141
123 149
123 154
123 158
124 83
124 86
124 96
124 99
124 102
124 108
124 123
124 125
124 126
124 137
124 141
124 149
124 154
125 81
125 82
125 96
125 102
125 105
125 108
125 111
125 115
125 123
125 124
125 129
125 137
125 141
125 142
125 158
126 76
126 83
126 86
126 99
126 102
126 123
126 124
126 137
126 149
126 154
126 174
127 77
127 89
127 103
127 106
127 109
127 122
127 134
127 136
127 139
127 146
127 155
127 157
127 168
128 80
128 92
128 93
128 95
128 107
128 109
128 112
128 114
128 116
128 122
128 130
128 131
128 136
128 147
128 150
128 152
128 163
128 166
129 82
129 90
129 96
129 105
129 108
129 111
129 115
129 119
129 125
129 141
129 142
129 145
129 158
129 160
129 172
130 89
130 92
130 93
130 107
130 109
130 112
130 114
130 122
130 128
130 131
130 136
130 147
130 150
130 157
130 163
130 166
130 177
130 181
131 93
131 94
131 95
131 100
131 107
131 112
131 114
131 116
131 121
131 128
131 130
131 132
131 147
131 150
131 152
131 153
131 156
131 163
131 166
131 170
131 179
132 94
132 95
132 100
132 101
132 114
132 116
132 118
132 121
132 131
132 135
132 148
132 150
132 152
132 153
132 156
132 159
132 170
132 176
133 87
133 91
133 101
133 113
133 117
133 118
133 121
133 135
133 144
133 148
133 151
133 159
133 167
133 169
133 171
134 103
134 106
134 115
134 119
134 127
134 139
134 145
134 146
134 155
134 160
134 162
134 180
135 85
135 100
135 101
135 113
135 117
135 118
135 121
135 132
135 133
135 148
135 151
135 153
135 159
135 169
135 171
135 176
135 183
136 89
136 92
136 106
136 109
136 112
136 122
136 127
136 128
136 130
136 139
136 147
136 155
136 157
136 166
136 168
136 177
136 185
137 96
137 99
137 102
137 108
137 123
137 124
137 125
137 126
137 141
137 149
137 154
137 158
137 173
137 178
138 97
138 110
138 120
138 140
138 143
138 161
138 164
138 165
138 175
139 106
139 109
139 122
139 127
139 134
139 136
139 146
139 155
139 157
139 168
139 180
139 185
140 98
140 104
140 110
140 117
140 120
140 138
140 143
140 144
140 151
140 164
140 165
140 167
140 184
140 187
141 96
141 105
141 108
141 111
141 123
141 124
141 125
141 129
141 137
141 142
141 145
141 154
141 158
141 173
141 178
141 186
142 105
142 108
142 111
142 115
142 119
142 125
142 129
142 141
142 145
142 158
142 160
142 162
142 172
142 186
142 190
142 191
143 97
143 98
143 104
143 110
143 120
143 138
143 140
143 144
143 161
143 164
143 165
143 167
143 175
143 184
143 187
143 196
144 104
144 113
144 117
144 120
144 133
144 140
144 143
144 148
144 151
144 165
144 167
144 169
144 187
144 188
145 105
145 111
145 115
145 119
145 129
145 134
145 141
145 142
145 146
145 158
145 160
145 162
145 172
145 190
145 191
146 103
146 106
146 119
146 127
146 134
146 139
146 145
146 155
146 160
146 162
146 168
146 172
146 180
146 189
146 198
147 107
147 109
147 112
147 114
147 122
147 128
147 130
147 131
147 136
147 150
147 152
147 157
147 163
147 166
147 177
147 179
147 181
147 192
147 195
148 101
148 113
148 118
148 121
148 132
148 133
148 135
148 144
148 151
148 153
148 156
148 159
148 169
148 171
148 176
148 183
148 197
149 123
149 124
149 126
149 137
149 154
149 174
149 178
149 182
149 205
150 107
150 112
150 114
150 116
150 128
150 130
150 131
150 132
150 147
150 152
150 153
150 156
150 163
150 166
150 170
150 179
150 181
150 193
150 194
150 195
151 113
151 117
151 118
151 133
151 135
151 140
151 144
151 148
151 159
151 167
151 169
151 171
151 183
151 187
151 188
151 197
151 200
152 114
152 116
152 128
152 131
152 132
152 147
152 150
152 153
152 156
152 159
152 163
152 166
152 170
152 176
152 179
152 181
152 193
152 194
153 114
153 116
153 118
153 121
153 131
153 132
153 135
153 148
153 150
153 152
153 156
153 159
153 170
153 171
153 176
153 179
153 183
153 193
153 201
154 123
154 124
154 126
154 137
154 141
154 149
154 173
154 174
154 178
154 182
154 204
154 205
155 106
155 122
155 127
155 134
155 136
155 139
155 146
155 157
155 168
155 177
155 180
155 185
155 198
156 114
156 116
156 121
156 131
156 132
156 148
156 150
156 152
156 153
156 159
156 163
156 170
156 176
156 179
156 193
156 194
156 201
157 109
157 112
157 122
157 127
157 130
157 136
157 139
157 147
157 155
157 163
157 166
157 168
157 177
157 181
157 185
157 192
157 195
157 207
158 111
158 123
158 125
158 129
158 137
158 141
158 142
158 145
158 160
158 172
158 173
158 178
158 186
158 190
158 191
158 203
159 118
159 121
159 132
159 133
159 135
159 148
159 151
159 152
159 153
159 156
159 170
159 171
159 176
159 183
159 193
159 197
159 201
160 115
160 119
160 129
160 134
160 142
160 145
160 146
160 158
160 162
160 172
160 180
160 189
160 190
160 191
160 209
161 110
161 138
161 143
161 164
161 165
161 175
161 184
161 196
161 199
161 206
162 119
162 134
162 142
162 145
162 146
162 160
162 172
162 180
162 189
162 190
162 191
162 198
162 208
162 209
163 114
163 128
163 130
163 131
163 147
163 150
163 152
163 156
163 157
163 166
163 170
163 177
163 179
163 181
163 192
163 193
163 194
163 195
163 214
164 110
164 120
164 138
164 140
164 143
164 161
164 165
164 175
164 184
164 187
164 196
164 199
164 206
164 215
165 120
165 138
165 140
165 143
165 144
165 161
165 164
165 167
165 169
165 175
165 184
165 187
165 188
165 196
165 202
165 206
165 216
166 112
166 128
166 130
166 131
166 136
166 147
166 150
166 152
166 157
166 163
166 170
166 177
166 179
166 181
166 192
166 194
166 195
166 207
166 214
167 117
167 133
167 140
167 143
167 144
167 151
167 165
167 169
167 171
167 184
167 187
167 188
167 196
167 200
167 202
167 217
168 127
168 136
168 139
168 146
168 155
168 157
168 177
168 180
168 185
168 192
168 198
168 207
168 211
168 220
169 133
169 135
169 144
169 148
169 151
169 165
169 167
169 171
169 183
169 187
169 188
169 197
169 200
169 202
169 217
169 218
170 131
170 132
170 150
170 152
170 153
170 156
170 159
170 163
170 166
170 176
170 179
170 181
170 193
170 194
170 195
170 201
170 212
171 133
171 135
171 148
171 151
171 153
171 159
171 167
171 169
171 176
171 183
171 197
171 200
171 201
171 218
172 129
172 142
172 145
172 146
172 158
172 160
172 162
172 180
172 186
172 189
172 190
172 191
172 208
172 209
172 219
173 137
173 141
173 154
173 158
173 178
173 182
173 186
173 203
173 204
173 205
173 210
173 213
173 224
174 126
174 149
174 154
174 178
174 182
174 204
174 205
174 222
175 138
175 143
175 161
175 164
175 165
175 184
175 196
175 199
175 206
175 215
175 223
176 132
176 135
176 148
176 152
176 153
176 156
176 159
176 170
176 171
176 179
176 183
176 193
176 194
176 197
176 201
176 212
176 225
177 130
177 136
177 147
177 155
177 157
177 163
177 166
177 168
177 181
177 185
177 192
177 195
177 207
177 211
177 214
177 220
177 221
178 137
178 141
178 149
178 154
178 158
178 173
178 174
178 182
178 186
178 203
178 204
178 205
178 210
178 224
179 131
179 147
179 150
179 152
179 153
179 156
179 163
179 166
179 170
179 176
179 181
179 192
179 193
179 194
179 195
179 212
179 214
180 134
180 139
180 146
180 155
180 160
180 162
180 168
180 172
180 185
180 189
180 190
180 198
180 208
180 209
180 211
180 228
180 230
181 130
181 147
181 150
181 152
181 157
181 163
181 166
181 170
181 177
181 179
181 185
181 192
181 194
181 195
181 207
181 214
181 221
182 149
182 154
182 173
182 174
182 178
182 204
182 205
182 210
182 222
183 135
183 148
183 151
183 153
183 159
183 169
183 171
183 176
183 197
183 200
183 201
183 218
183 225
184 140
184 143
184 161
184 164
184 165
184 167
184 175
184 187
184 188
184 196
184 199
184 202
184 206
184 215
184 216
184 223
185 136
185 139
185 155
185 157
185 168
185 177
185 180
185 181
185 192
185 198
185 207
185 211
185 220
185 221
185 237
186 141
186 142
186 158
186 172
186 173
186 178
186 190
186 191
186 203
186 204
186 210
186 213
186 224
186 229
186 234
187 140
187 143
187 144
187 151
187 164
187 165
187 167
187 169
187 184
187 188
187 196
187 200
187 202
187 206
187 215
187 216
187 217
187 236
187 238
188 144
188 151
188 165
188 167
188 169
188 184
188 187
188 196
188 197
188 200
188 202
188 216
188 217
188 218
188 238
189 146
189 160
189 162
189 172
189 180
189 190
189 191
189 198
189 208
189 209
189 219
189 226
189 228
189 230
190 142
190 145
190 158
190 160
190 162
190 172
190 180
190 186
190 189
190 191
190 198
190 203
190 208
190 209
190 213
190 219
190 226
191 142
191 145
191 158
191 160
191 162
191 172
191 186
191 189
191 190
191 203
191 208
191 209
191 213
191 219
191 226
191 229
192 147
192 157
192 163
192 166
192 168
192 177
192 179
192 181
192 185
192 194
192 195
192 207
192 211
192 214
192 220
192 221
192 232
192 240
193 150
193 152
193 153
193 156
193 159
193 163
193 170
193 176
193 179
193 194
193 195
193 201
193 212
193 214
193 225
193 227
193 231
194 150
194 152
194 156
194 163
194 166
194 170
194 176
194 179
194 181
194 192
194 193
194 195
194 201
194 212
194 214
194 227
194 231
194 232
195 147
195 150
195 157
195 163
195 166
195 170
195 177
195 179
195 181
195 192
195 193
195 194
195 207
195 212
195 214
195 221
195 231
195 232
195 240
196 143
196 161
196 164
196 165
196 167
196 175
196 184
196 187
196 188
196 199
196 202
196 206
196 215
196 216
196 223
196 236
196 239
197 148
197 151
197 159
197 169
197 171
197 176
197 183
197 188
197 200
197 201
197 217
197 218
197 225
197 235
197 242
198 146
198 155
198 162
198 168
198 180
198 185
198 189
198 190
198 208
198 209
198 211
198 220
198 226
198 228
198 230
198 244
199 161
199 164
199 175
199 184
199 196
199 206
199 215
199 223
200 151
200 167
200 169
200 171
200 183
200 187
200 188
200 197
200 202
200 216
200 217
200 218
200 235
200 238
200 242
201 153
201 156
201 159
201 170
201 171
201 176
201 183
201 193
201 194
201 197
201 212
201 218
201 225
201 227
201 231
201 247
202 165
202 167
202 169
202 184
202 187
202 188
202 196
202 200
202 206
202 215
202 216
202 217
202 223
202 236
202 238
202 239
202 249
203 158
203 173
203 178
203 186
203 190
203 191
203 204
203 210
203 213
203 219
203 224
203 229
203 233
203 234
203 248
204 154
204 173
204 174
204 178
204 182
204 186
204 203
204 205
204 210
204 222
204 224
204 233
204 234
204 241
205 149
205 154
205 173
205 174
205 178
205 182
205 204
205 210
205 222
205 224
205 233
205 241
206 161
206 164
206 165
206 175
206 184
206 187
206 196
206 199
206 202
206 215
206 216
206 223
206 236
206 239
206 253
207 157
207 166
207 168
207 177
207 181
207 185
207 192
207 195
207 211
207 214
207 220
207 221
207 232
207 237
207 240
207 251
208 162
208 172
208 180
208 189
208 190
208 191
208 198
208 209
208 211
208 219
208 226
208 228
208 230
208 244
208 246
209 160
209 162
209 172
209 180
209 189
209 190
209 191
209 198
209 208
209 213
209 219
209 226
209 228
209 229
209 230
209 243
209 246
209 255
210 173
210 178
210 182
210 186
210 203
210 204
210 205
210 213
210 222
210 224
210 229
210 233
210 234
210 241
210 256
211 168
211 177
211 180
211 185
211 192
211 198
211 207
211 208
211 220
211 221
211 228
211 230
211 237
211 244
211 257
212 170
212 176
212 179
212 193
212 194
212 195
212 201
212 214
212 225
212 227
212 231
212 232
212 245
212 250
212 262
213 173
213 186
213 190
213 191
213 203
213 209
213 210
213 219
213 224
213 229
213 234
213 243
213 248
213 254
214 163
214 166
214 177
214 179
214 181
214 192
214 193
214 194
214 195
214 207
214 212
214 221
214 227
214 231
214 232
214 240
214 245
214 251
214 264
215 164
215 175
215 184
215 187
215 196
215 199
215 202
215 206
215 216
215 223
215 236
215 239
215 249
215 253
216 165
216 184
216 187
216 188
216 196
216 200
216 202
216 206
216 215
216 217
216 223
216 236
216 238
216 239
216 249
216 252
216 253
216 260
217 167
217 169
217 187
217 188
217 197
217 200
217 202
217 216
217 218
217 235
217 236
217 238
217 242
217 252
217 259
218 169
218 171
218 183
218 188
218 197
218 200
218 201
218 217
218 225
218 235
218 238
218 242
218 247
218 252
218 259
219 172
219 189
219 190
219 191
219 203
219 208
219 209
219 213
219 226
219 229
219 230
219 243
219 246
219 248
219 254
219 255
219 258
220 168
220 177
220 185
220 192
220 198
220 207
220 211
220 221
220 228
220 230
220 237
220 240
220 244
220 251
220 257
220 270
221 177
221 181
221 185
221 192
221 195
221 207
221 211
221 214
221 220
221 232
221 237
221 240
221 245
221 251
221 257
221 271
222 174
222 182
222 204
222 205
222 210
222 224
222 233
222 234
222 241
222 256
222 263
223 175
223 184
223 196
223 199
223 202
223 206
223 215
223 216
223 236
223 239
223 249
223 253
223 273
224 173
224 178
224 186
224 203
224 204
224 205
224 210
224 213
224 222
224 229
224 233
224 234
224 241
224 248
224 256
224 261
224 263
224 272
225 176
225 183
225 193
225 197
225 201
225 212
225 218
225 227
225 231
225 235
225 247
225 250
225 262
225 265
226 189
226 190
226 191
226 198
226 208
226 209
226 219
226 228
226 229
226 230
226 243
226 244
226 246
226 255
226 258
226 266
226 274
227 193
227 194
227 201
227 212
227 214
227 225
227 231
227 232
227 245
227 247
227 250
227 262
227 264
227 269
228 180
228 189
228 198
228 208
228 209
228 211
228 220
228 226
228 230
228 237
228 244
228 246
228 258
228 266
229 186
229 191
229 203
229 209
229 210
229 213
229 219
229 224
229 226
229 234
229 243
229 248
229 254
229 255
229 261
229 268
230 180
230 189
230 198
230 208
230 209
230 211
230 219
230 220
230 226
230 228
230 243
230 244
230 246
230 255
230 258
230 266
230 274
231 193
231 194
231 195
231 201
231 212
231 214
231 225
231 227
231 232
231 240
231 245
231 247
231 250
231 262
231 264
231 269
232 192
232 194
232 195
232 207
232 212
232 214
232 221
232 227
232 231
232 240
232 245
232 250
232 251
232 264
232 271
233 203
233 204
233 205
233 210
233 222
233 224
233 234
233 241
233 248
233 256
233 261
233 263
233 272
233 276
233 280
234 186
234 203
234 204
234 210
234 213
234 222
234 224
234 229
234 233
234 241
234 248
234 254
234 256
234 261
234 268
234 272
234 277
234 280
235 197
235 200
235 217
235 218
235 225
235 238
235 242
235 247
235 252
235 259
235 265
235 284
236 187
236 196
236 202
236 206
236 215
236 216
236 217
236 223
236 238
236 239
236 249
236 252
236 253
236 260
236 267
236 275
236 286
237 185
237 207
237 211
237 220
237 221
237 228
237 240
237 244
237 251
237 257
237 266
237 270
237 271
237 282
238 187
238 188
238 200
238 202
238 216
238 217
238 218
238 235
238 236
238 239
238 242
238 249
238 252
238 259
238 260
238 267
238 275
238 287
239 196
239 202
239 206
239 215
239 216
239 223
239 236
239 238
239 249
239 253
239 260
239 267
239 273
239 286
240 192
240 195
240 207
240 214
240 220
240 221
240 231
240 232
240 237
240 245
240 251
240 257
240 264
240 270
240 271
240 282
241 204
241 205
241 210
241 222
241 224
241 233
241 234
241 256
241 263
241 276
241 280
242 197
242 200
242 217
242 218
242 235
242 238
242 247
242 252
242 259
242 260
242 265
242 275
242 284
242 287
243 209
243 213
243 219
243 226
243 229
243 230
243 246
243 248
243 254
243 255
243 258
243 268
243 274
243 279
243 281
244 198
244 208
244 211
244 220
244 226
244 228
244 230
244 237
244 246
244 257
244 258
244 266
244 274
244 283
245 212
245 214
245 221
245 227
245 231
245 232
245 240
245 250
245 251
245 262
245 264
245 269
245 271
245 288
245 290
246 208
246 209
246 219
246 226
246 228
246 230
246 243
246 244
246 254
246 255
246 258
246 266
246 274
246 279
246 283
246 291
247 201
247 218
247 225
247 227
247 231
247 235
247 242
247 250
247 259
247 262
247 265
247 269
247 278
247 285
247 289
247 293
248 203
248 213
248 219
248 224
248 229
248 233
248 234
248 243
248 254
248 255
248 256
248 261
248 268
248 272
248 277
248 280
248 281
248 294
249 202
249 215
249 216
249 223
249 236
249 238
249 239
249 252
249 253
249 260
249 267
249 273
249 275
249 286
250 212
250 225
250 227
250 231
250 232
250 245
250 247
250 262
250 264
250 265
250 269
250 285
250 288
250 289
251 207
251 214
251 220
251 221
251 232
251 237
251 240
251 245
251 257
251 264
251 270
251 271
251 282
251 290
251 295
252 216
252 217
252 218
252 235
252 236
252 238
252 242
252 249
252 259
252 260
252 267
252 275
252 284
252 287
253 206
253 215
253 216
253 223
253 236
253 239
253 249
253 260
253 267
253 273
253 286
254 213
254 219
254 229
254 234
254 243
254 246
254 248
254 255
254 258
254 261
254 268
254 272
254 277
254 279
254 281
254 298
255 209
255 219
255 226
255 229
255 230
255 243
255 246
255 248
255 254
255 258
255 268
255 274
255 279
255 281
255 291
256 210
256 222
256 224
256 233
256 234
256 241
256 248
256 261
256 263
256 272
256 276
256 277
256 280
256 292
256 294
256 302
257 211
257 220
257 221
257 237
257 240
257 244
257 251
257 266
257 270
257 271
257 282
257 283
257 295
258 219
258 226
258 228
258 230
258 243
258 244
258 246
258 254
258 255
258 266
258 274
258 279
258 281
258 283
258 291
258 301
259 217
259 218
259 235
259 238
259 242
259 247
259 252
259 260
259 265
259 275
259 278
259 284
259 287
259 299
260 216
260 236
260 238
260 239
260 242
260 249
260 252
260 253
260 259
260 267
260 273
260 275
260 286
260 287
260 307
261 224
261 229
261 233
261 234
261 248
261 254
261 256
261 263
261 268
261 272
261 276
261 277
261 280
261 281
261 294
261 302
262 212
262 225
262 227
262 231
262 245
262 247
262 250
262 264
262 265
262 269
262 278
262 285
262 288
262 289
262 293
262 310
263 222
263 224
263 233
263 241
263 256
263 261
263 272
263 276
263 280
263 292
264 214
264 227
264 231
264 232
264 240
264 245
264 250
264 251
264 262
264 269
264 271
264 288
264 289
264 290
264 300
264 305
265 225
265 235
265 242
265 247
265 250
265 259
265 262
265 269
265 278
265 284
265 285
265 289
265 293
265 299
266 226
266 228
266 230
266 237
266 244
266 246
266 257
266 258
266 270
266 274
266 279
266 283
266 291
266 297
266 301
266 308
267 236
267 238
267 239
267 249
267 252
267 253
267 260
267 273
267 275
267 286
267 287
267 303
267 306
267 307
268 229
268 234
268 243
268 248
268 254
268 255
268 261
268 272
268 277
268 279
268 280
268 281
268 294
268 298
268 313
268 317
269 227
269 231
269 245
269 247
269 250
269 262
269 264
269 265
269 278
269 285
269 288
269 289
269 293
269 300
269 310
270 220
270 237
270 240
270 251
270 257
270 266
270 271
270 282
270 283
270 290
270 295
270 297
270 308
270 316
271 221
271 232
271 237
271 240
271 245
271 251
271 257
271 264
271 270
271 282
271 288
271 290
271 295
271 300
271 305
271 316
271 319
272 224
272 233
272 234
272 248
272 254
272 256
272 261
272 263
272 268
272 276
272 277
272 280
272 281
272 292
272 294
272 302
272 313
272 315
273 223
273 239
273 249
273 253
273 260
273 267
273 286
273 296
273 303
273 306
274 226
274 230
274 243
274 244
274 246
274 255
274 258
274 266
274 279
274 283
274 291
274 297
274 301
274 309
275 236
275 238
275 242
275 249
275 252
275 259
275 260
275 267
275 284
275 286
275 287
275 303
275 304
275 307
275 312
276 233
276 241
276 256
276 261
276 263
276 272
276 277
276 280
276 292
276 302
276 311
276 314
276 315
277 234
277 248
277 254
277 256
277 261
277 268
277 272
277 276
277 280
277 281
277 294
277 298
277 302
277 313
277 315
277 317
278 247
278 259
278 262
278 265
278 269
278 284
278 285
278 289
278 293
278 299
278 310
278 318
279 243
279 246
279 254
279 255
279 258
279 266
279 268
279 274
279 281
279 283
279 291
279 298
279 301
279 309
279 324
280 233
280 234
280 241
280 248
280 256
280 261
280 263
280 268
280 272
280 276
280 277
280 292
280 294
280 302
280 313
280 314
280 315
281 243
281 248
281 254
281 255
281 258
281 261
281 268
281 272
281 277
281 279
281 294
281 298
281 309
281 313
281 317
282 237
282 240
282 251
282 257
282 270
282 271
282 290
282 295
282 297
282 305
282 308
282 316
282 319
283 244
283 246
283 257
283 258
283 266
283 270
283 274
283 279
283 291
283 297
283 301
283 308
283 320
283 321
284 235
284 242
284 252
284 259
284 265
284 275
284 278
284 287
284 293
284 299
284 304
284 312
284 318
285 247
285 250
285 262
285 265
285 269
285 278
285 288
285 289
285 293
285 299
285 300
285 310
285 318
286 236
286 239
286 249
286 253
286 260
286 267
286 273
286 275
286 296
286 303
286 306
286 307
286 323
286 325
287 238
287 242
287 252
287 259
287 260
287 267
287 275
287 284
287 299
287 304
287 307
287 312
288 245
288 250
288 262
288 264
288 269
288 271
288 285
288 289
288 290
288 300
288 305
288 310
288 319
288 327
289 247
289 250
289 262
289 264
289 265
289 269
289 278
289 285
289 288
289 293
289 299
289 300
289 310
289 318
289 327
289 331
290 245
290 251
290 264
290 270
290 271
290 282
290 288
290 295
290 300
290 305
290 316
290 319
290 327
290 336
291 246
291 255
291 258
291 266
291 274
291 279
291 283
291 297
291 301
291 308
291 309
291 320
291 321
291 324
291 328
292 256
292 263
292 272
292 276
292 280
292 302
292 311
292 314
292 315
292 322
292 332
293 247
293 262
293 265
293 269
293 278
293 284
293 285
293 289
293 299
293 310
293 312
293 318
293 330
293 331
294 248
294 256
294 261
294 268
294 272
294 277
294 280
294 281
294 298
294 302
294 313
294 315
294 317
294 339
294 344
295 251
295 257
295 270
295 271
295 282
295 290
295 297
295 305
295 308
295 316
295 319
295 320
295 335
295 336
296 273
296 286
296 303
296 306
296 326
297 266
297 270
297 274
297 282
297 283
297 291
297 295
297 301
297 308
297 316
297 320
297 321
297 328
297 334
297 343
297 345
298 254
298 268
298 277
298 279
298 281
298 294
298 309
298 313
298 317
298 324
298 329
298 342
299 259
299 265
299 278
299 284
299 285
299 287
299 289
299 293
299 304
299 310
299 312
299 318
299 330
299 331
299 346
300 264
300 269
300 271
300 285
300 288
300 289
300 290
300 305
300 310
300 319
300 327
300 336
300 348
301 258
301 266
301 274
301 279
301 283
301 291
301 297
301 308
301 309
301 320
301 321
301 324
301 328
301 337
301 345
301 349
302 256
302 261
302 272
302 276
302 277
302 280
302 292
302 294
302 313
302 314
302 315
302 317
302 332
302 339
302 344
302 350
303 267
303 273
303 275
303 286
303 296
303 306
303 307
303 323
303 325
303 326
303 338
303 340
304 275
304 284
304 287
304 299
304 307
304 312
304 323
304 325
304 333
304 353
305 264
305 271
305 282
305 288
305 290
305 295
305 300
305 316
305 319
305 327
305 335
305 336
306 267
306 273
306 286
306 296
306 303
306 307
306 323
306 325
306 326
306 338
306 340
306 352
307 260
307 267
307 275
307 286
307 287
307 303
307 304
307 306
307 312
307 323
307 325
307 333
307 338
308 266
308 270
308 282
308 283
308 291
308 295
308 297
308 301
308 316
308 320
308 321
308 328
308 334
308 335
308 343
308 345
309 274
309 279
309 281
309 291
309 298
309 301
309 317
309 321
309 324
309 328
309 329
309 337
309 342
309 349
310 262
310 269
310 278
310 285
310 288
310 289
310 293
310 299
310 300
310 318
310 327
310 330
310 331
310 347
310 348
310 355
311 276
311 292
311 314
311 315
311 322
311 332
311 341
311 351
312 275
312 284
312 287
312 293
312 299
312 304
312 307
312 318
312 323
312 330
312 333
312 346
312 353
313 268
313 272
313 277
313 280
313 281
313 294
313 298
313 302
313 315
313 317
313 329
313 339
313 342
313 344
313 360
314 276
314 280
314 292
314 302
314 311
314 315
314 322
314 332
314 341
314 350
314 351
315 272
315 276
315 277
315 280
315 292
315 294
315 302
315 311
315 313
315 314
315 322
315 332
315 339
315 344
315 350
316 270
316 271
316 282
316 290
316 295
316 297
316 305
316 308
316 319
316 320
316 334
316 335
316 336
316 343
316 358
317 268
317 277
317 281
317 294
317 298
317 302
317 309
317 313
317 324
317 329
317 337
317 339
317 342
317 344
317 360
318 278
318 284
318 285
318 289
318 293
318 299
318 310
318 312
318 330
318 331
318 346
318 347
318 355
318 359
319 271
319 282
319 288
319 290
319 295
319 300
319 305
319 316
319 327
319 335
319 336
319 348
319 357
319 358
320 283
320 291
320 295
320 297
320 301
320 308
320 316
320 321
320 328
320 334
320 335
320 343
320 345
320 361
321 283
321 291
321 297
321 301
321 308
321 309
321 320
321 324
321 328
321 334
321 337
321 343
321 345
321 349
321 361
322 292
322 311
322 314
322 315
322 332
322 341
322 350
322 351
322 362
323 286
323 303
323 304
323 306
323 307
323 312
323 325
323 333
323 338
323 340
323 353
323 354
323 356
323 364
324 279
324 291
324 298
324 301
324 309
324 317
324 321
324 328
324 329
324 337
324 342
324 345
324 349
324 365
324 372
325 286
325 303
325 304
325 306
325 307
325 323
325 326
325 333
325 338
325 340
325 352
325 353
325 354
325 356
325 363
326 296
326 303
326 306
326 325
326 338
326 340
326 352
326 363
326 369
327 288
327 289
327 290
327 300
327 305
327 310
327 319
327 331
327 336
327 348
327 355
327 357
327 370
327 371
328 291
328 297
328 301
328 308
328 309
328 320
328 321
328 324
328 329
328 334
328 337
328 342
328 345
328 349
328 361
328 365
329 298
329 309
329 313
329 317
329 324
329 328
329 337
329 339
329 342
329 344
329 349
329 360
329 365
329 366
329 372
329 377
330 293
330 299
330 310
330 312
330 318
330 331
330 333
330 346
330 347
330 355
330 359
330 367
330 376
331 289
331 293
331 299
331 310
331 318
331 327
331 330
331 346
331 347
331 348
331 355
331 359
331 370
331 376
332 292
332 302
332 311
332 314
332 315
332 322
332 339
332 341
332 344
332 350
332 351
332 362
332 368
332 379
333 304
333 307
333 312
333 323
333 325
333 330
333 338
333 346
333 353
333 354
333 356
333 364
333 367
334 297
334 308
334 316
334 320
334 321
334 328
334 335
334 343
334 345
334 349
334 358
334 361
334 373
335 295
335 305
335 308
335 316
335 319
335 320
335 334
335 336
335 343
335 357
335 358
335 371
335 373
335 374
336 290
336 295
336 300
336 305
336 316
336 319
336 327
336 335
336 348
336 357
336 358
336 371
336 374
337 301
337 309
337 317
337 321
337 324
337 328
337 329
337 342
337 345
337 349
337 361
337 365
337 372
337 383
338 303
338 306
338 307
338 323
338 325
338 326
338 333
338 340
338 352
338 353
338 354
338 356
338 363
338 369
338 378
339 294
339 302
339 313
339 315
339 317
339 329
339 332
339 342
339 344
339 350
339 360
339 366
339 368
339 375
339 377
339 379
340 303
340 306
340 323
340 325
340 326
340 338
340 352
340 354
340 356
340 363
340 369
340 378
341 311
341 314
341 322
341 332
341 350
341 351
341 362
341 368
341 381
342 298
342 309
342 313
342 317
342 324
342 328
342 329
342 337
342 339
342 349
342 360
342 365
342 366
342 372
342 377
342 391
343 297
343 308
343 316
343 320
343 321
343 334
343 335
343 345
343 358
343 361
343 373
343 382
343 389
344 294
344 302
344 313
344 315
344 317
344 329
344 332
344 339
344 350
344 351
344 360
344 366
344 368
344 375
344 377
344 379
344 390
345 297
345 301
345 308
345 320
345 321
345 324
345 328
345 334
345 337
345 343
345 349
345 361
345 365
345 373
345 382
345 383
345 394
346 299
346 312
346 318
346 330
346 331
346 333
346 347
346 353
346 355
346 359
346 364
346 367
346 376
346 380
346 392
347 310
347 318
347 330
347 331
347 346
347 348
347 355
347 359
347 367
347 370
347 376
347 380
347 384
347 385
347 393
348 300
348 310
348 319
348 327
348 331
348 336
348 347
348 355
348 357
348 370
348 371
348 385
348 386
349 301
349 309
349 321
349 324
349 328
349 329
349 334
349 337
349 342
349 345
349 361
349 365
349 372
349 382
349 383
349 399
350 302
350 314
350 315
350 322
350 332
350 339
350 341
350 344
350 351
350 360
350 362
350 368
350 375
350 379
350 381
350 388
350 400
351 311
351 314
351 322
351 332
351 341
351 344
351 350
351 362
351 368
351 379
351 381
351 388
352 306
352 325
352 326
352 338
352 340
352 354
352 363
352 369
352 396
353 304
353 312
353 323
353 325
353 333
353 338
353 346
353 354
353 356
353 364
353 367
353 378
353 380
353 387
353 392
354 323
354 325
354 333
354 338
354 340
354 352
354 353
354 356
354 363
354 364
354 369
354 378
354 387
354 397
354 398
355 310
355 318
355 327
355 330
355 331
355 346
355 347
355 348
355 359
355 367
355 370
355 376
355 384
355 385
355 393
356 323
356 325
356 333
356 338
356 340
356 353
356 354
356 363
356 364
356 367
356 378
356 380
356 387
356 398
357 319
357 327
357 335
357 336
357 348
357 358
357 370
357 371
357 374
357 385
357 386
358 316
358 319
358 334
358 335
358 336
358 343
358 357
358 371
358 373
358 374
358 389
358 395
359 318
359 330
359 331
359 346
359 347
359 355
359 367
359 370
359 376
359 380
359 384
359 385
359 392
359 393
360 313
360 317
360 329
360 339
360 342
360 344
360 350
360 366
360 368
360 372
360 375
360 377
360 379
360 390
360 401
361 320
361 321
361 328
361 334
361 337
361 343
361 345
361 349
361 365
361 373
361 382
361 383
361 389
361 394
361 395
361 399
362 322
362 332
362 341
362 350
362 351
362 368
362 379
362 381
362 388
362 400
363 325
363 326
363 338
363 340
363 352
363 354
363 356
363 369
363 378
363 396
363 397
363 398
364 323
364 333
364 346
364 353
364 354
364 356
364 367
364 378
364 380
364 387
364 392
364 398
365 324
365 328
365 329
365 337
365 342
365 345
365 349
365 361
365 372
365 382
365 383
365 391
365 394
365 399
366 329
366 339
366 342
366 344
366 360
366 372
366 375
366 377
366 379
366 390
366 391
366 401
367 330
367 333
367 346
367 347
367 353
367 355
367 356
367 359
367 364
367 376
367 380
367 384
367 392
367 393
368 332
368 339
368 341
368 344
368 350
368 351
368 360
368 362
368 375
368 379
368 381
368 388
368 390
368 400
369 326
369 338
369 340
369 352
369 354
369 363
369 378
369 396
369 397
370 327
370 331
370 347
370 348
370 355
370 357
370 359
370 371
370 376
370 384
370 385
370 386
371 327
371 335
371 336
371 348
371 357
371 358
371 370
371 374
371 385
371 386
372 324
372 329
372 337
372 342
372 349
372 360
372 365
372 366
372 375
372 377
372 383
372 390
372 391
372 399
372 401
373 334
373 335
373 343
373 345
373 358
373 361
373 374
373 382
373 383
373 389
373 394
373 395
374 335
374 336
374 357
374 358
374 371
374 373
374 386
374 389
374 395
375 339
375 344
375 350
375 360
375 366
375 368
375 372
375 377
375 379
375 390
375 400
375 401
376 330
376 331
376 346
376 347
376 355
376 359
376 367
376 370
376 380
376 384
376 385
376 392
376 393
377 329
377 339
377 342
377 344
377 360
377 366
377 372
377 375
377 379
377 390
377 391
377 401
378 338
378 340
378 353
378 354
378 356
378 363
378 364
378 369
378 387
378 396
378 397
378 398
379 332
379 339
379 344
379 350
379 351
379 360
379 362
379 366
379 368
379 375
379 377
379 381
379 388
379 390
379 400
379 401
380 346
380 347
380 353
380 356
380 359
380 364
380 367
380 376
380 384
380 387
380 392
380 393
381 341
381 350
381 351
381 362
381 368
381 379
381 388
381 400
382 343
382 345
382 349
382 361
382 365
382 373
382 383
382 389
382 394
382 395
382 399
383 337
383 345
383 349
383 361
383 365
383 372
383 373
383 382
383 391
383 394
383 399
384 347
384 355
384 359
384 367
384 370
384 376
384 380
384 385
384 393
385 347
385 348
385 355
385 357
385 359
385 370
385 371
385 376
385 384
385 386
385 393
386 348
386 357
386 370
386 371
386 374
386 385
387 353
387 354
387 356
387 364
387 378
387 380
387 392
387 397
387 398
388 350
388 351
388 362
388 368
388 379
388 381
388 400
389 343
389 358
389 361
389 373
389 374
389 382
389 394
389 395
390 344
390 360
390 366
390 368
390 372
390 375
390 377
390 379
390 391
390 400
390 401
391 342
391 365
391 366
391 372
391 377
391 383
391 390
391 399
391 401
392 346
392 353
392 359
392 364
392 367
392 376
392 380
392 387
392 393
393 347
393 355
393 359
393 367
393 376
393 380
393 384
393 385
393 392
394 345
394 361
394 365
394 373
394 382
394 383
394 389
394 395
394 399
395 358
395 361
395 373
395 374
395 382
395 389
395 394
396 352
396 363
396 369
396 378
396 397
396 398
397 354
397 363
397 369
397 378
397 387
397 396
397 398
398 354
398 356
398 363
398 364
398 378
398 387
398 396
398 397
399 349
399 361
399 365
399 372
399 382
399 383
399 391
399 394
400 350
400 362
400 368
400 375
400 379
400 381
400 388
400 390
400 401
401 360
401 366
401 372
401 375
401 377
401 379
401 390
401 391
401 400
