1 10
1 15
1 27
1 28
1 36
1 43
2 3
2 8
2 18
2 24
2 39
3 2
3 18
3 26
3 30
4 8
4 9
4 20
4 34
4 47
5 6
5 11
5 22
5 33
5 42
6 5
6 7
6 22
6 32
6 33
6 46
7 6
7 23
7 26
7 32
7 40
8 2
8 4
8 24
8 38
9 4
9 20
9 25
9 34
10 1
10 14
10 28
10 29
10 36
11 5
11 19
11 22
11 37
11 42
11 44
12 16
12 17
12 19
12 31
12 48
12 49
13 15
13 16
13 17
13 21
13 35
13 41
14 10
14 29
14 36
15 1
15 13
15 21
15 27
15 35
15 43
15 51
16 12
16 13
16 17
16 21
16 35
16 41
16 48
17 12
17 13
17 16
17 31
17 35
17 41
17 48
17 49
18 2
18 3
18 24
18 30
18 39
18 50
19 11
19 12
19 31
19 37
19 44
19 49
19 55
20 4
20 9
20 25
20 34
20 45
20 47
20 56
21 13
21 15
21 16
21 27
21 35
21 41
21 51
22 5
22 6
22 11
22 32
22 33
22 42
22 44
22 58
22 62
23 7
23 26
23 32
23 40
23 46
23 59
24 2
24 8
24 18
24 38
24 39
24 50
24 67
25 9
25 20
25 34
25 45
25 57
26 3
26 7
26 23
26 30
26 32
26 40
26 59
26 60
27 1
27 15
27 21
27 28
27 43
27 51
27 52
27 66
28 1
28 10
28 27
28 29
28 36
28 43
28 54
29 10
29 14
29 28
29 36
29 53
29 54
30 3
30 18
30 26
30 39
30 60
30 71
31 12
31 17
31 19
31 37
31 48
31 49
31 55
32 6
32 7
32 22
32 23
32 26
32 33
32 40
32 46
32 58
32 59
32 61
32 73
33 5
33 6
33 22
33 32
33 42
33 46
33 58
33 61
33 62
33 73
34 4
34 9
34 20
34 25
34 38
34 45
34 47
34 56
34 63
35 13
35 15
35 16
35 17
35 21
35 41
35 48
35 51
35 68
35 69
35 70
36 1
36 10
36 14
36 28
36 29
36 43
36 53
36 54
36 66
36 74
37 11
37 19
37 31
37 44
37 49
37 55
37 62
37 65
37 79
38 8
38 24
38 34
38 47
38 50
38 63
38 64
38 67
38 81
39 2
39 18
39 24
39 30
39 50
39 60
39 67
39 71
39 72
39 82
40 7
40 23
40 26
40 32
40 46
40 59
40 60
40 61
40 77
41 13
41 16
41 17
41 21
41 35
41 48
41 49
41 51
41 68
41 69
41 70
41 85
42 5
42 11
42 22
42 33
42 44
42 46
42 58
42 62
42 65
42 80
43 1
43 15
43 27
43 28
43 36
43 51
43 52
43 54
43 66
43 75
43 88
44 11
44 19
44 22
44 37
44 42
44 55
44 58
44 62
44 65
44 80
45 20
45 25
45 34
45 47
45 56
45 57
45 63
45 76
45 86
46 6
46 23
46 32
46 33
46 40
46 42
46 58
46 59
46 61
46 73
46 77
46 89
47 4
47 20
47 34
47 38
47 45
47 56
47 63
47 64
47 83
48 12
48 16
48 17
48 31
48 35
48 41
48 49
48 55
48 68
48 69
48 78
48 85
49 12
49 17
49 19
49 31
49 37
49 41
49 48
49 55
49 69
49 78
49 79
49 94
50 18
50 24
50 38
50 39
50 64
50 67
50 72
50 81
50 82
51 15
51 21
51 27
51 35
51 41
51 43
51 52
51 66
51 68
51 70
51 75
51 87
51 91
52 27
52 43
52 51
52 66
52 70
52 75
52 88
52 91
53 29
53 36
53 54
53 74
54 28
54 29
54 36
54 43
54 53
54 66
54 74
54 97
55 19
55 31
55 37
55 44
55 48
55 49
55 65
55 78
55 79
55 94
55 95
56 20
56 34
56 45
56 47
56 57
56 63
56 76
56 83
56 86
56 99
57 25
57 45
57 56
57 76
57 86
58 22
58 32
58 33
58 42
58 44
58 46
58 61
58 62
58 73
58 80
58 89
58 92
59 23
59 26
59 32
59 40
59 46
59 60
59 61
59 73
59 77
59 84
60 26
60 30
60 39
60 40
60 59
60 71
60 72
60 77
60 84
61 32
61 33
61 40
61 46
61 58
61 59
61 73
61 77
61 89
62 22
62 33
62 37
62 42
62 44
62 58
62 65
62 80
62 92
62 93
63 34
63 38
63 45
63 47
63 56
63 64
63 76
63 81
63 83
63 99
63 102
64 38
64 47
64 50
64 63
64 67
64 81
64 82
64 96
65 37
65 42
65 44
65 55
65 62
65 79
65 80
65 93
65 95
66 27
66 36
66 43
66 51
66 52
66 54
66 74
66 75
66 88
66 91
66 98
66 104
67 24
67 38
67 39
67 50
67 64
67 72
67 81
67 82
67 90
68 35
68 41
68 48
68 51
68 69
68 70
68 78
68 85
68 87
68 91
68 101
69 35
69 41
69 48
69 49
69 68
69 78
69 85
69 87
69 94
69 100
69 101
70 35
70 41
70 51
70 52
70 68
70 75
70 85
70 87
70 88
70 91
71 30
71 39
71 60
71 72
71 84
71 90
71 103
72 39
72 50
72 60
72 67
72 71
72 82
72 84
72 90
72 105
73 32
73 33
73 46
73 58
73 59
73 61
73 77
73 89
73 92
73 109
74 36
74 53
74 54
74 66
74 97
74 98
74 110
75 43
75 51
75 52
75 66
75 70
75 87
75 88
75 91
75 98
75 104
76 45
76 56
76 57
76 63
76 83
76 86
76 99
77 40
77 46
77 59
77 60
77 61
77 73
77 84
77 89
77 103
77 106
78 48
78 49
78 55
78 68
78 69
78 79
78 85
78 94
78 95
78 100
78 101
79 37
79 49
79 55
79 65
79 78
79 93
79 94
79 95
79 100
79 114
79 116
80 42
80 44
80 58
80 62
80 65
80 92
80 93
80 107
80 112
81 38
81 50
81 63
81 64
81 67
81 82
81 83
81 96
81 102
81 108
82 39
82 50
82 64
82 67
82 72
82 81
82 90
82 96
82 105
82 108
82 111
83 47
83 56
83 63
83 76
83 81
83 86
83 96
83 99
83 102
83 124
84 59
84 60
84 71
84 72
84 77
84 90
84 103
84 119
85 41
85 48
85 68
85 69
85 70
85 78
85 87
85 94
85 100
85 101
85 113
85 118
85 121
86 45
86 56
86 57
86 76
86 83
86 99
86 126
87 51
87 68
87 69
87 70
87 75
87 85
87 88
87 91
87 101
87 113
87 117
87 118
88 43
88 52
88 66
88 70
88 75
88 87
88 91
88 98
88 104
88 117
88 120
89 46
89 58
89 61
89 73
89 77
89 92
89 106
89 109
89 112
89 122
90 67
90 71
90 72
90 82
90 84
90 105
90 111
90 115
90 119
90 129
91 51
91 52
91 66
91 68
91 70
91 75
91 87
91 88
91 98
91 104
91 113
91 117
92 58
92 62
92 73
92 80
92 89
92 93
92 107
92 109
92 112
92 122
92 130
93 62
93 65
93 79
93 80
93 92
93 95
93 107
93 112
93 114
93 116
93 128
94 49
94 55
94 69
94 78
94 79
94 85
94 95
94 100
94 101
94 114
94 116
94 121
94 132
95 55
95 65
95 78
95 79
95 93
95 94
95 100
95 107
95 114
95 116
95 121
95 131
96 64
96 81
96 82
96 83
96 102
96 108
96 111
96 123
96 125
97 54
97 74
97 98
97 110
97 120
98 66
98 74
98 75
98 88
98 91
98 97
98 104
98 110
98 120
98 140
99 56
99 63
99 76
99 83
99 86
99 102
99 123
99 124
99 126
100 69
100 78
100 79
100 85
100 94
100 95
100 101
100 116
100 118
100 121
100 132
101 68
101 69
101 78
101 85
101 87
101 94
101 100
101 113
101 118
101 121
101 135
102 63
102 81
102 83
102 96
102 99
102 108
102 123
102 124
102 125
102 126
102 137
103 71
103 77
103 84
103 106
103 115
103 119
103 127
103 134
104 66
104 75
104 88
104 91
104 98
104 117
104 120
104 140
105 72
105 82
105 90
105 111
105 115
105 119
105 129
105 142
105 145
106 77
106 89
106 103
106 109
106 122
106 127
106 134
106 139
107 80
107 92
107 93
107 95
107 112
107 114
107 128
107 130
107 131
107 147
108 81
108 82
108 96
108 102
108 111
108 123
108 125
108 129
108 137
108 141
109 73
109 89
109 92
109 106
109 112
109 122
109 127
109 130
109 136
109 139
110 74
110 97
110 98
110 120
110 138
110 143
111 82
111 90
111 96
111 105
111 108
111 115
111 119
111 125
111 129
111 141
111 142
111 145
112 80
112 89
112 92
112 93
112 107
112 109
112 122
112 128
112 130
112 136
112 147
113 85
113 87
113 91
113 101
113 117
113 118
113 133
113 135
113 144
113 148
113 151
114 79
114 93
114 94
114 95
114 107
114 116
114 128
114 131
114 132
114 150
114 152
115 90
115 103
115 105
115 111
115 119
115 129
115 142
115 145
116 79
116 93
116 94
116 95
116 100
116 114
116 121
116 128
116 131
116 132
116 152
116 153
116 156
117 87
117 88
117 91
117 104
117 113
117 133
117 140
117 144
117 151
118 85
118 87
118 100
118 101
118 113
118 121
118 132
118 133
118 135
118 148
119 84
119 90
119 103
119 105
119 111
119 115
119 129
119 134
119 145
119 146
120 88
120 97
120 98
120 104
120 110
120 138
120 140
120 143
121 85
121 94
121 95
121 100
121 101
121 116
121 118
121 132
121 135
121 148
121 153
121 159
122 89
122 92
122 106
122 109
122 112
122 127
122 130
122 136
122 139
122 147
122 155
122 157
123 96
123 99
123 102
123 108
123 124
123 125
123 137
123 141
123 154
124 83
124 99
124 102
124 123
124 126
124 137
124 149
124 154
125 96
125 102
125 108
125 111
125 123
125 129
125 137
125 141
125 142
125 158
126 86
126 99
126 102
126 124
126 149
126 154
127 103
127 106
127 109
127 122
127 134
127 136
127 139
127 146
127 155
128 93
128 107
128 112
128 114
128 116
128 130
128 131
128 147
128 150
128 152
128 163
128 166
129 90
129 105
129 108
129 111
129 115
129 119
129 125
129 141
129 142
129 145
129 158
129 160
130 92
130 107
130 109
130 112
130 122
130 128
130 136
130 147
130 150
130 157
130 163
130 166
131 95
131 107
131 114
131 116
131 128
131 132
131 150
131 152
131 153
131 156
131 163
131 170
132 94
132 100
132 114
132 116
132 118
132 121
132 131
132 135
132 152
132 153
132 156
132 159
132 176
133 113
133 117
133 118
133 135
133 144
133 148
133 151
133 169
134 103
134 106
134 119
134 127
134 139
134 146
134 160
134 162
135 101
135 113
135 118
135 121
135 132
135 133
135 148
135 151
135 153
135 159
135 171
136 109
136 112
136 122
136 127
136 130
136 139
136 147
136 155
136 157
136 168
136 177
137 102
137 108
137 123
137 124
137 125
137 141
137 149
137 154
137 173
137 178
138 110
138 120
138 143
138 161
138 164
138 175
139 106
139 109
139 122
139 127
139 134
139 136
139 146
139 155
139 157
139 168
140 98
140 104
140 117
140 120
140 143
140 144
140 164
140 165
140 167
141 108
141 111
141 123
141 125
141 129
141 137
141 142
141 158
141 173
142 105
142 111
142 115
142 125
142 129
142 141
142 145
142 158
142 160
142 172
143 110
143 120
143 138
143 140
143 161
143 164
143 165
143 184
144 113
144 117
144 133
144 140
144 151
144 165
144 167
144 169
144 188
145 105
145 111
145 115
145 119
145 129
145 142
145 158
145 160
145 162
145 172
145 190
146 119
146 127
146 134
146 139
146 155
146 160
146 162
146 180
146 189
147 107
147 112
147 122
147 128
147 130
147 136
147 150
147 157
147 163
147 166
147 177
147 181
148 113
148 118
148 121
148 133
148 135
148 151
148 153
148 159
148 169
148 171
148 183
149 124
149 126
149 137
149 154
149 174
149 182
150 114
150 128
150 130
150 131
150 147
150 152
150 153
150 156
150 163
150 166
150 170
150 179
150 181
151 113
151 117
151 133
151 135
151 144
151 148
151 167
151 169
151 171
151 188
152 114
152 116
152 128
152 131
152 132
152 150
152 153
152 156
152 163
152 166
152 170
152 176
152 179
152 193
152 194
153 116
153 121
153 131
153 132
153 135
153 148
153 150
153 152
153 156
153 159
153 170
153 176
154 123
154 124
154 126
154 137
154 149
154 173
154 174
154 178
154 182
155 122
155 127
155 136
155 139
155 146
155 157
155 168
155 177
155 180
155 185
156 116
156 131
156 132
156 150
156 152
156 153
156 159
156 163
156 170
156 176
156 179
156 193
157 122
157 130
157 136
157 139
157 147
157 155
157 166
157 168
157 177
157 181
157 185
157 192
158 125
158 129
158 141
158 142
158 145
158 173
158 186
158 191
158 203
159 121
159 132
159 135
159 148
159 153
159 156
159 171
159 176
159 183
159 201
160 129
160 134
160 142
160 145
160 146
160 162
160 172
160 189
160 190
160 191
161 138
161 143
161 164
161 165
161 175
161 184
161 199
162 134
162 145
162 146
162 160
162 172
162 180
162 189
162 190
162 198
163 128
163 130
163 131
163 147
163 150
163 152
163 156
163 166
163 170
163 177
163 179
163 181
163 192
163 194
163 195
164 138
164 140
164 143
164 161
164 165
164 175
164 184
164 196
164 199
164 206
165 140
165 143
165 144
165 161
165 164
165 167
165 184
165 187
165 188
165 196
165 202
166 128
166 130
166 147
166 150
166 152
166 157
166 163
166 177
166 179
166 181
166 192
166 195
167 140
167 144
167 151
167 165
167 169
167 187
167 188
167 200
167 202
168 136
168 139
168 155
168 157
168 177
168 180
168 185
168 198
168 211
169 133
169 144
169 148
169 151
169 167
169 171
169 183
169 187
169 188
169 197
169 200
170 131
170 150
170 152
170 153
170 156
170 163
170 176
170 179
170 193
170 194
170 201
170 212
171 135
171 148
171 151
171 159
171 169
171 176
171 183
171 197
171 200
171 201
172 142
172 145
172 160
172 162
172 189
172 190
172 191
172 209
173 137
173 141
173 154
173 158
173 178
173 186
173 203
173 204
173 210
174 149
174 154
174 178
174 182
174 205
175 138
175 161
175 164
175 184
175 199
175 206
176 132
176 152
176 153
176 156
176 159
176 170
176 171
176 183
176 193
176 201
176 212
177 136
177 147
177 155
177 157
177 163
177 166
177 168
177 181
177 185
177 192
177 195
177 207
178 137
178 154
178 173
178 174
178 182
178 186
178 204
178 205
178 210
179 150
179 152
179 156
179 163
179 166
179 170
179 181
179 193
179 194
179 195
179 212
179 214
180 146
180 155
180 162
180 168
180 185
180 189
180 198
180 208
181 147
181 150
181 157
181 163
181 166
181 177
181 179
181 192
181 194
181 195
181 207
181 214
182 149
182 154
182 174
182 178
182 204
182 205
182 222
183 148
183 159
183 169
183 171
183 176
183 197
183 200
183 201
183 218
184 143
184 161
184 164
184 165
184 175
184 187
184 188
184 196
184 202
184 206
184 215
184 216
185 155
185 157
185 168
185 177
185 180
185 192
185 198
185 207
185 211
185 220
186 158
186 173
186 178
186 191
186 203
186 210
186 213
187 165
187 167
187 169
187 184
187 188
187 196
187 200
187 202
187 216
187 217
188 144
188 151
188 165
188 167
188 169
188 184
188 187
188 196
188 200
188 202
188 216
188 217
189 146
189 160
189 162
189 172
189 180
189 190
189 198
189 208
189 209
189 226
190 145
190 160
190 162
190 172
190 189
190 191
190 208
190 209
190 219
190 226
191 158
191 160
191 172
191 186
191 190
191 203
191 209
191 213
191 219
192 157
192 163
192 166
192 177
192 181
192 185
192 195
192 207
192 214
192 220
192 221
193 152
193 156
193 170
193 176
193 179
193 194
193 201
193 212
193 227
193 231
194 152
194 163
194 170
194 179
194 181
194 193
194 195
194 212
194 214
194 227
194 231
194 232
195 163
195 166
195 177
195 179
195 181
195 192
195 194
195 207
195 214
195 221
195 232
196 164
196 165
196 184
196 187
196 188
196 202
196 206
196 215
196 216
196 223
196 236
197 169
197 171
197 183
197 200
197 201
197 217
197 218
197 225
197 235
198 162
198 168
198 180
198 185
198 189
198 208
198 211
198 226
198 228
198 230
199 161
199 164
199 175
199 206
199 215
199 223
200 167
200 169
200 171
200 183
200 187
200 188
200 197
200 202
200 217
200 218
200 235
200 242
201 159
201 170
201 171
201 176
201 183
201 193
201 197
201 212
201 225
201 227
202 165
202 167
202 184
202 187
202 188
202 196
202 200
202 206
202 215
202 216
202 217
202 236
202 238
203 158
203 173
203 186
203 191
203 210
203 213
203 224
203 229
203 234
204 173
204 178
204 182
204 205
204 210
204 222
204 224
204 233
204 234
205 174
205 178
205 182
205 204
205 210
205 222
205 233
205 241
206 164
206 175
206 184
206 196
206 199
206 202
206 215
206 216
206 223
206 239
207 177
207 181
207 185
207 192
207 195
207 211
207 214
207 220
207 221
207 237
208 180
208 189
208 190
208 198
208 209
208 219
208 226
208 228
208 230
209 172
209 189
209 190
209 191
209 208
209 213
209 219
209 226
209 243
210 173
210 178
210 186
210 203
210 204
210 205
210 213
210 222
210 224
210 233
210 234
211 168
211 185
211 198
211 207
211 220
211 228
211 237
212 170
212 176
212 179
212 193
212 194
212 201
212 214
212 225
212 227
212 231
212 232
212 250
213 186
213 191
213 203
213 209
213 210
213 219
213 224
213 229
213 234
213 248
213 254
214 179
214 181
214 192
214 194
214 195
214 207
214 212
214 221
214 231
214 232
214 240
214 245
215 184
215 196
215 199
215 202
215 206
215 216
215 223
215 236
215 239
215 249
215 253
216 184
216 187
216 188
216 196
216 202
216 206
216 215
216 217
216 223
216 236
216 238
216 239
216 249
216 252
217 187
217 188
217 197
217 200
217 202
217 216
217 218
217 235
217 238
217 242
217 252
218 183
218 197
218 200
218 217
218 225
218 235
218 242
219 190
219 191
219 208
219 209
219 213
219 226
219 229
219 243
219 246
219 254
219 255
220 185
220 192
220 207
220 211
220 221
220 228
220 237
220 251
220 257
221 192
221 195
221 207
221 214
221 220
221 232
221 237
221 240
221 245
221 251
222 182
222 204
222 205
222 210
222 224
222 233
222 241
222 263
223 196
223 199
223 206
223 215
223 216
223 236
223 239
223 249
223 253
224 203
224 204
224 210
224 213
224 222
224 233
224 234
224 241
224 248
224 256
224 261
225 197
225 201
225 212
225 218
225 227
225 235
225 247
225 265
226 189
226 190
226 198
226 208
226 209
226 219
226 228
226 230
226 243
226 244
226 246
226 255
226 258
227 193
227 194
227 201
227 212
227 225
227 231
227 232
227 245
227 247
227 250
227 262
228 198
228 208
228 211
228 220
228 226
228 230
228 237
228 244
228 246
228 266
229 203
229 213
229 219
229 234
229 243
229 248
229 254
229 255
229 268
230 198
230 208
230 226
230 228
230 244
230 246
230 258
230 266
231 193
231 194
231 212
231 214
231 227
231 232
231 245
231 250
231 262
231 264
231 269
232 194
232 195
232 212
232 214
232 221
232 227
232 231
232 240
232 245
232 250
232 251
232 264
233 204
233 205
233 210
233 222
233 224
233 234
233 241
233 256
233 261
233 263
234 203
234 204
234 210
234 213
234 224
234 229
234 233
234 248
234 254
234 256
234 261
234 272
235 197
235 200
235 217
235 218
235 225
235 238
235 242
235 247
235 252
235 259
235 265
236 196
236 202
236 215
236 216
236 223
236 238
236 239
236 249
236 252
236 253
236 260
236 267
237 207
237 211
237 220
237 221
237 228
237 240
237 244
237 251
237 257
237 270
238 202
238 216
238 217
238 235
238 236
238 242
238 249
238 252
238 259
238 260
238 275
239 206
239 215
239 216
239 223
239 236
239 249
239 253
239 260
239 267
239 273
240 214
240 221
240 232
240 237
240 245
240 251
240 257
240 264
240 271
241 205
241 222
241 224
241 233
241 256
241 263
241 276
242 200
242 217
242 218
242 235
242 238
242 252
242 259
243 209
243 219
243 226
243 229
243 246
243 248
243 254
243 255
243 258
243 268
243 279
244 226
244 228
244 230
244 237
244 246
244 258
244 266
244 274
244 283
245 214
245 221
245 227
245 231
245 232
245 240
245 250
245 251
245 264
245 271
245 288
246 219
246 226
246 228
246 230
246 243
246 244
246 255
246 258
246 266
246 274
246 279
247 225
247 227
247 235
247 250
247 262
247 265
247 269
247 278
247 285
248 213
248 224
248 229
248 234
248 243
248 254
248 256
248 261
248 268
248 272
248 277
248 281
249 215
249 216
249 223
249 236
249 238
249 239
249 252
249 253
249 260
249 267
249 273
249 275
249 286
250 212
250 227
250 231
250 232
250 245
250 247
250 262
250 264
250 269
250 285
250 289
251 220
251 221
251 232
251 237
251 240
251 245
251 257
251 264
251 270
251 271
251 282
252 216
252 217
252 235
252 236
252 238
252 242
252 249
252 259
252 260
252 267
252 275
252 287
253 215
253 223
253 236
253 239
253 249
253 260
253 267
253 273
253 286
254 213
254 219
254 229
254 234
254 243
254 248
254 255
254 261
254 268
254 277
254 281
255 219
255 226
255 229
255 243
255 246
255 254
255 258
255 268
255 274
255 279
255 281
256 224
256 233
256 234
256 241
256 248
256 261
256 263
256 272
256 276
256 277
256 280
257 220
257 237
257 240
257 251
257 270
257 271
257 282
258 226
258 230
258 243
258 244
258 246
258 255
258 266
258 274
258 279
258 291
259 235
259 238
259 242
259 252
259 265
259 275
259 284
259 287
260 236
260 238
260 239
260 249
260 252
260 253
260 267
260 275
260 286
260 287
261 224
261 233
261 234
261 248
261 254
261 256
261 268
261 272
261 277
261 280
261 294
262 227
262 231
262 247
262 250
262 265
262 269
262 278
262 285
262 289
263 222
263 233
263 241
263 256
263 272
263 276
263 280
263 292
264 231
264 232
264 240
264 245
264 250
264 251
264 269
264 271
264 288
264 290
264 300
265 225
265 235
265 247
265 259
265 262
265 278
265 284
265 285
265 293
265 299
266 228
266 230
266 244
266 246
266 258
266 274
266 283
266 291
266 297
267 236
267 239
267 249
267 252
267 253
267 260
267 273
267 275
267 286
267 303
267 307
268 229
268 243
268 248
268 254
268 255
268 261
268 272
268 277
268 281
268 294
268 298
269 231
269 247
269 250
269 262
269 264
269 278
269 285
269 288
269 289
269 300
269 310
270 237
270 251
270 257
270 271
270 282
270 295
271 240
271 245
271 251
271 257
271 264
271 270
271 282
271 288
271 290
271 295
271 305
272 234
272 248
272 256
272 261
272 263
272 268
272 276
272 277
272 280
272 294
272 302
273 239
273 249
273 253
273 267
273 286
273 296
273 303
273 306
274 244
274 246
274 255
274 258
274 266
274 279
274 283
274 291
274 297
274 301
275 238
275 249
275 252
275 259
275 260
275 267
275 284
275 286
275 287
275 304
275 307
276 241
276 256
276 263
276 272
276 280
276 292
276 302
276 311
276 314
277 248
277 254
277 256
277 261
277 268
277 272
277 280
277 281
277 294
277 298
277 302
277 313
278 247
278 262
278 265
278 269
278 284
278 285
278 289
278 293
278 299
278 310
278 318
279 243
279 246
279 255
279 258
279 274
279 281
279 291
279 298
279 301
279 309
280 256
280 261
280 263
280 272
280 276
280 277
280 292
280 294
280 302
280 315
281 248
281 254
281 255
281 268
281 277
281 279
281 294
281 298
281 309
281 313
281 317
282 251
282 257
282 270
282 271
282 290
282 295
282 305
282 316
283 244
283 266
283 274
283 291
283 297
283 301
283 308
283 320
284 259
284 265
284 275
284 278
284 287
284 299
284 304
284 312
285 247
285 250
285 262
285 265
285 269
285 278
285 289
285 293
285 299
285 310
286 249
286 253
286 260
286 267
286 273
286 275
286 303
286 306
286 307
286 325
287 252
287 259
287 260
287 275
287 284
287 304
287 307
287 312
288 245
288 264
288 269
288 271
288 289
288 290
288 300
288 305
289 250
289 262
289 269
289 278
289 285
289 288
289 293
289 300
289 310
290 264
290 271
290 282
290 288
290 295
290 300
290 305
290 316
290 319
291 258
291 266
291 274
291 279
291 283
291 297
291 301
291 308
291 309
291 321
291 324
291 328
292 263
292 276
292 280
292 302
292 311
292 314
292 315
292 322
293 265
293 278
293 285
293 289
293 299
293 310
293 318
294 261
294 268
294 272
294 277
294 280
294 281
294 298
294 302
294 313
294 315
294 317
295 270
295 271
295 282
295 290
295 305
295 308
295 316
295 319
295 335
296 273
296 303
296 306
296 326
297 266
297 274
297 283
297 291
297 301
297 308
297 320
297 321
297 334
298 268
298 277
298 279
298 281
298 294
298 309
298 313
298 317
298 324
298 329
299 265
299 278
299 284
299 285
299 293
299 310
299 312
299 318
299 330
300 264
300 269
300 288
300 289
300 290
300 305
300 310
300 319
300 327
301 274
301 279
301 283
301 291
301 297
301 309
301 321
301 324
301 328
301 337
302 272
302 276
302 277
302 280
302 292
302 294
302 313
302 314
302 315
302 332
303 267
303 273
303 286
303 296
303 306
303 307
303 323
303 325
303 338
303 340
304 275
304 284
304 287
304 307
304 312
304 323
304 333
305 271
305 282
305 288
305 290
305 295
305 300
305 316
305 319
305 327
305 336
306 273
306 286
306 296
306 303
306 325
306 326
306 338
306 340
307 267
307 275
307 286
307 287
307 303
307 304
307 312
307 323
307 325
307 333
308 283
308 291
308 295
308 297
308 316
308 320
308 321
308 334
308 343
309 279
309 281
309 291
309 298
309 301
309 317
309 321
309 324
309 328
309 329
309 337
310 269
310 278
310 285
310 289
310 293
310 299
310 300
310 318
310 327
310 331
311 276
311 292
311 314
311 322
311 332
311 341
312 284
312 287
312 299
312 304
312 307
312 318
312 333
313 277
313 281
313 294
313 298
313 302
313 315
313 317
313 329
313 339
313 344
314 276
314 292
314 302
314 311
314 315
314 322
314 332
314 341
314 350
314 351
315 280
315 292
315 294
315 302
315 313
315 314
315 332
315 339
315 344
315 350
316 282
316 290
316 295
316 305
316 308
316 319
316 320
316 335
316 336
316 343
317 281
317 294
317 298
317 309
317 313
317 324
317 329
317 339
317 342
318 278
318 293
318 299
318 310
318 312
318 330
318 331
318 346
318 347
319 290
319 295
319 300
319 305
319 316
319 327
319 335
319 336
320 283
320 297
320 308
320 316
320 321
320 328
320 334
320 343
320 345
321 291
321 297
321 301
321 308
321 309
321 320
321 324
321 328
321 334
321 337
321 345
321 349
322 292
322 311
322 314
322 332
322 341
322 351
323 303
323 304
323 307
323 325
323 333
323 338
323 340
323 353
323 354
323 356
324 291
324 298
324 301
324 309
324 317
324 321
324 328
324 329
324 337
324 342
324 349
325 286
325 303
325 306
325 307
325 323
325 338
325 340
325 354
326 296
326 306
326 338
326 340
326 352
327 300
327 305
327 310
327 319
327 331
327 336
327 348
327 357
328 291
328 301
328 309
328 320
328 321
328 324
328 334
328 337
328 345
328 349
328 361
328 365
329 298
329 309
329 313
329 317
329 324
329 337
329 339
329 342
329 360
329 366
329 372
330 299
330 318
330 331
330 346
330 347
330 355
330 359
330 367
331 310
331 318
331 327
331 330
331 347
331 348
331 355
331 359
332 302
332 311
332 314
332 315
332 322
332 341
332 344
332 350
332 351
332 362
332 368
333 304
333 307
333 312
333 323
333 346
333 353
333 356
333 364
334 297
334 308
334 320
334 321
334 328
334 335
334 343
334 345
334 361
334 373
335 295
335 316
335 319
335 334
335 336
335 343
335 358
335 374
336 305
336 316
336 319
336 327
336 335
336 348
336 357
336 358
336 371
336 374
337 301
337 309
337 321
337 324
337 328
337 329
337 342
337 345
337 349
337 365
337 372
338 303
338 306
338 323
338 325
338 326
338 340
338 352
338 354
338 356
338 363
338 378
339 313
339 315
339 317
339 329
339 342
339 344
339 350
339 360
339 366
339 375
340 303
340 306
340 323
340 325
340 326
340 338
340 352
340 354
340 363
340 369
340 378
341 311
341 314
341 322
341 332
341 350
341 351
341 362
341 381
342 317
342 324
342 329
342 337
342 339
342 349
342 360
342 365
342 366
342 372
342 377
343 308
343 316
343 320
343 334
343 335
343 345
343 358
343 361
343 373
344 313
344 315
344 332
344 339
344 350
344 360
344 366
344 368
344 375
344 379
345 320
345 321
345 328
345 334
345 337
345 343
345 349
345 361
345 365
345 373
345 382
346 318
346 330
346 333
346 347
346 359
346 364
346 367
346 376
346 380
347 318
347 330
347 331
347 346
347 355
347 359
347 367
347 376
347 384
348 327
348 331
348 336
348 355
348 357
348 370
348 371
349 321
349 324
349 328
349 337
349 342
349 345
349 361
349 365
349 372
349 382
349 383
350 314
350 315
350 332
350 339
350 341
350 344
350 351
350 362
350 368
350 375
350 379
351 314
351 322
351 332
351 341
351 350
351 362
351 368
351 381
352 326
352 338
352 340
352 363
352 369
353 323
353 333
353 354
353 356
353 364
353 387
354 323
354 325
354 338
354 340
354 353
354 356
354 363
354 364
354 378
355 330
355 331
355 347
355 348
355 359
355 370
355 376
355 384
355 385
356 323
356 333
356 338
356 353
356 354
356 364
356 378
356 387
357 327
357 336
357 348
357 358
357 370
357 371
357 374
357 386
358 335
358 336
358 343
358 357
358 371
358 373
358 374
358 389
359 330
359 331
359 346
359 347
359 355
359 367
359 376
359 380
359 384
359 393
360 329
360 339
360 342
360 344
360 366
360 372
360 375
360 377
360 379
360 390
360 401
361 328
361 334
361 343
361 345
361 349
361 365
361 373
361 382
361 383
361 394
362 332
362 341
362 350
362 351
362 368
362 381
362 388
363 338
363 340
363 352
363 354
363 369
363 378
363 396
363 397
364 333
364 346
364 353
364 354
364 356
364 367
364 380
364 387
364 392
365 328
365 337
365 342
365 345
365 349
365 361
365 372
365 382
365 383
365 391
365 399
366 329
366 339
366 342
366 344
366 360
366 372
366 375
366 377
366 390
366 391
366 401
367 330
367 346
367 347
367 359
367 364
367 376
367 380
367 392
367 393
368 332
368 344
368 350
368 351
368 362
368 375
368 379
368 381
368 388
368 400
369 340
369 352
369 363
369 378
369 396
370 348
370 355
370 357
370 371
370 384
370 385
370 386
371 336
371 348
371 357
371 358
371 370
371 374
371 386
372 329
372 337
372 342
372 349
372 360
372 365
372 366
372 377
372 383
372 391
372 401
373 334
373 343
373 345
373 358
373 361
373 382
373 389
373 394
373 395
374 335
374 336
374 357
374 358
374 371
374 386
374 389
375 339
375 344
375 350
375 360
375 366
375 368
375 377
375 379
375 390
375 400
375 401
376 346
376 347
376 355
376 359
376 367
376 380
376 384
376 385
376 393
377 342
377 360
377 366
377 372
377 375
377 390
377 391
377 401
378 338
378 340
378 354
378 356
378 363
378 369
378 387
378 396
378 397
378 398
379 344
379 350
379 360
379 368
379 375
379 388
379 390
379 400
380 346
380 359
380 364
380 367
380 376
380 392
380 393
381 341
381 351
381 362
381 368
381 388
381 400
382 345
382 349
382 361
382 365
382 373
382 383
382 394
382 395
382 399
383 349
383 361
383 365
383 372
383 382
383 391
383 394
383 399
384 347
384 355
384 359
384 370
384 376
384 385
384 393
385 355
385 370
385 376
385 384
385 386
385 393
386 357
386 370
386 371
386 374
386 385
387 353
387 356
387 364
387 378
387 392
387 397
387 398
388 362
388 368
388 379
388 381
388 400
389 358
389 373
389 374
389 394
389 395
390 360
390 366
390 375
390 377
390 379
390 400
390 401
391 365
391 366
391 372
391 377
391 383
391 399
391 401
392 364
392 367
392 380
392 387
392 393
393 359
393 367
393 376
393 380
393 384
393 385
393 392
394 361
394 373
394 382
394 383
394 389
394 395
394 399
395 373
395 382
395 389
395 394
396 363
396 369
396 378
396 397
396 398
397 363
397 378
397 387
397 396
397 398
398 378
398 387
398 396
398 397
399 365
399 382
399 383
399 391
399 394
400 368
400 375
400 379
400 381
400 388
400 390
401 360
401 366
401 372
401 375
401 377
401 390
401 391
