1 10
1 27
1 28
2 3
2 18
2 24
3 2
3 18
3 30
4 8
4 9
4 20
4 34
5 6
5 11
5 22
5 33
6 5
6 22
6 32
6 33
7 23
7 26
8 4
8 24
8 38
9 4
9 20
9 25
9 34
10 1
10 28
10 29
10 36
11 5
11 19
11 22
12 16
12 17
12 31
13 15
13 16
13 21
13 35
13 41
14 29
15 13
15 21
15 27
16 12
16 13
16 17
16 21
16 35
16 41
17 12
17 16
17 31
17 41
17 48
18 2
18 3
18 24
18 39
19 11
19 31
19 37
19 44
20 4
20 9
20 25
20 34
20 45
20 47
21 13
21 15
21 16
21 27
21 35
21 41
21 51
22 5
22 6
22 11
22 33
22 42
22 44
23 7
23 26
23 32
23 40
24 2
24 8
24 18
24 38
24 39
24 50
25 9
25 20
25 45
25 57
26 7
26 23
26 30
26 40
27 1
27 15
27 21
27 28
27 43
27 52
28 1
28 10
28 27
28 29
28 36
28 43
28 54
29 10
29 14
29 28
29 36
29 53
30 3
30 26
30 39
30 60
31 12
31 17
31 19
31 37
31 48
31 49
31 55
32 6
32 23
32 33
32 40
32 46
32 61
33 5
33 6
33 22
33 32
33 42
33 46
33 58
33 61
34 4
34 9
34 20
34 45
34 47
34 56
34 63
35 13
35 16
35 21
35 41
35 48
35 51
35 68
36 10
36 28
36 29
36 43
36 54
36 74
37 19
37 31
37 44
37 49
37 55
37 65
38 8
38 24
38 50
38 64
38 67
39 18
39 24
39 30
39 50
39 67
39 72
40 23
40 26
40 32
40 46
40 59
40 61
40 77
41 13
41 16
41 17
41 21
41 35
41 48
41 51
41 68
41 69
42 22
42 33
42 44
42 58
42 62
42 65
42 80
43 27
43 28
43 36
43 52
43 54
43 66
43 75
44 19
44 22
44 37
44 42
44 55
44 62
44 65
44 80
45 20
45 25
45 34
45 56
45 57
45 76
46 32
46 33
46 40
46 58
46 59
46 61
46 73
47 20
47 34
47 56
47 63
47 83
48 17
48 31
48 35
48 41
48 49
48 68
48 69
48 78
49 31
49 37
49 48
49 55
49 69
49 78
49 79
50 24
50 38
50 39
50 64
50 67
50 72
50 82
51 21
51 35
51 41
51 52
51 68
51 70
51 75
52 27
52 43
52 51
52 66
52 70
52 75
52 88
53 29
53 74
54 28
54 36
54 43
54 66
54 74
55 31
55 37
55 44
55 49
55 65
55 78
55 79
55 94
55 95
56 34
56 45
56 47
56 57
56 63
56 76
56 83
57 25
57 45
57 56
57 76
57 86
58 33
58 42
58 46
58 61
58 62
58 73
58 80
58 89
58 92
59 40
59 46
59 60
59 61
59 77
60 30
60 59
60 71
60 84
61 32
61 33
61 40
61 46
61 58
61 59
61 73
61 77
61 89
62 42
62 44
62 58
62 65
62 80
62 92
62 93
63 34
63 47
63 56
63 64
63 81
63 83
64 38
64 50
64 63
64 67
64 81
64 82
64 96
65 37
65 42
65 44
65 55
65 62
65 79
65 80
65 93
66 43
66 52
66 54
66 74
66 75
66 88
66 98
67 38
67 39
67 50
67 64
67 72
67 81
67 82
67 90
68 35
68 41
68 48
68 51
68 69
68 70
68 85
68 87
68 101
69 41
69 48
69 49
69 68
69 78
69 85
69 101
70 51
70 52
70 68
70 75
70 87
70 88
70 91
71 60
71 72
71 84
71 90
72 39
72 50
72 67
72 71
72 82
72 90
72 105
73 46
73 58
73 61
73 77
73 89
73 92
74 36
74 53
74 54
74 66
74 97
74 98
75 43
75 51
75 52
75 66
75 70
75 87
75 88
75 91
75 98
75 104
76 45
76 56
76 57
76 83
76 86
76 99
77 40
77 59
77 61
77 73
77 84
77 106
78 48
78 49
78 55
78 69
78 79
78 85
78 94
78 95
78 100
78 101
79 49
79 55
79 65
79 78
79 93
79 94
79 95
79 100
80 42
80 44
80 58
80 62
80 65
80 92
80 93
80 107
81 63
81 64
81 67
81 82
81 83
81 96
81 108
82 50
82 64
82 67
82 72
82 81
82 90
82 105
82 111
83 47
83 56
83 63
83 76
83 81
83 99
83 102
84 60
84 71
84 77
84 103
85 68
85 69
85 78
85 87
85 100
85 101
85 118
86 57
86 76
86 99
87 68
87 70
87 75
87 85
87 91
87 101
87 113
88 52
88 66
88 70
88 75
88 91
88 98
88 104
89 58
89 61
89 73
89 92
89 109
89 122
90 67
90 71
90 72
90 82
90 105
90 111
90 115
91 70
91 75
91 87
91 88
91 104
91 113
91 117
92 58
92 62
92 73
92 80
92 89
92 93
92 107
92 109
92 112
93 62
93 65
93 79
93 80
93 92
93 95
93 107
93 114
94 55
94 78
94 79
94 95
94 100
94 116
94 121
95 55
95 78
95 79
95 93
95 94
95 100
95 114
95 116
96 64
96 81
96 102
96 108
96 123
96 125
97 74
97 98
97 110
97 120
98 66
98 74
98 75
98 88
98 97
98 104
98 120
99 76
99 83
99 86
99 102
99 123
99 124
99 126
100 78
100 79
100 85
100 94
100 95
100 101
100 116
100 118
100 121
100 132
101 68
101 69
101 78
101 85
101 87
101 100
101 113
101 118
101 121
101 135
102 83
102 96
102 99
102 108
102 123
102 124
102 137
103 84
103 106
103 119
103 134
104 75
104 88
104 91
104 98
104 117
104 120
104 140
105 72
105 82
105 90
105 111
105 115
105 119
105 129
106 77
106 103
106 127
106 139
107 80
107 92
107 93
107 112
107 114
107 128
107 130
107 131
108 81
108 96
108 102
108 111
108 123
108 125
108 141
109 89
109 92
109 112
109 122
109 130
109 136
110 97
110 120
110 138
111 82
111 90
111 105
111 108
111 115
111 125
111 129
111 142
112 92
112 107
112 109
112 122
112 128
112 130
112 136
112 147
113 87
113 91
113 101
113 117
113 118
113 133
113 135
114 93
114 95
114 107
114 116
114 128
114 131
114 150
115 90
115 105
115 111
115 119
115 129
115 142
115 145
116 94
116 95
116 100
116 114
116 121
116 131
116 132
117 91
117 104
117 113
117 133
117 144
117 151
118 85
118 100
118 101
118 113
118 121
118 133
118 135
118 148
119 103
119 105
119 115
119 134
120 97
120 98
120 104
120 110
120 140
120 143
121 94
121 100
121 101
121 116
121 118
121 132
121 135
122 89
122 109
122 112
122 127
122 130
122 136
122 139
123 96
123 99
123 102
123 108
123 124
123 125
123 137
123 141
124 99
124 102
124 123
124 126
124 137
124 149
124 154
125 96
125 108
125 111
125 123
125 129
125 137
125 141
126 99
126 124
126 149
127 106
127 122
127 134
127 136
127 139
127 155
128 107
128 112
128 114
128 130
128 131
128 147
128 150
128 163
129 105
129 111
129 115
129 125
129 141
129 142
129 145
130 107
130 109
130 112
130 122
130 128
130 136
130 147
130 166
131 107
131 114
131 116
131 128
131 132
131 150
131 152
131 156
132 100
132 116
132 121
132 131
132 152
132 153
132 156
132 159
133 113
133 117
133 118
133 135
133 144
133 148
133 151
134 103
134 119
134 127
134 146
134 162
135 101
135 113
135 118
135 121
135 133
135 148
135 159
136 109
136 112
136 122
136 127
136 130
136 139
136 147
136 155
136 157
137 102
137 123
137 124
137 125
137 141
137 154
138 110
138 143
138 161
138 164
139 106
139 122
139 127
139 136
139 146
139 155
139 157
139 168
140 104
140 120
140 143
140 144
140 165
141 108
141 123
141 125
141 129
141 137
141 142
141 158
142 111
142 115
142 129
142 141
142 145
142 158
142 160
142 172
143 120
143 138
143 140
143 161
143 164
143 165
144 117
144 133
144 140
144 151
144 167
144 169
145 115
145 129
145 142
145 160
145 162
145 172
146 134
146 139
146 162
146 180
147 112
147 128
147 130
147 136
147 150
147 157
147 163
147 166
147 177
147 181
148 118
148 133
148 135
148 151
148 159
148 171
148 183
149 124
149 126
149 154
149 174
149 182
150 114
150 128
150 131
150 147
150 152
150 156
150 163
150 166
150 170
150 179
151 117
151 133
151 144
151 148
151 167
151 169
152 131
152 132
152 150
152 153
152 156
152 163
152 170
152 179
153 132
153 152
153 156
153 159
153 170
153 176
154 124
154 137
154 149
154 173
154 174
154 178
154 182
155 127
155 136
155 139
155 157
155 168
155 185
156 131
156 132
156 150
156 152
156 153
156 159
156 170
156 176
156 179
156 193
157 136
157 139
157 147
157 155
157 166
157 168
157 177
157 185
158 141
158 142
158 173
158 186
159 132
159 135
159 148
159 153
159 156
159 171
159 176
159 183
160 142
160 145
160 162
160 172
160 190
160 191
161 138
161 143
161 164
161 175
162 134
162 145
162 146
162 160
162 172
162 180
162 189
163 128
163 147
163 150
163 152
163 166
163 170
163 179
163 181
163 194
163 195
164 138
164 143
164 161
164 165
164 175
164 184
165 140
165 143
165 164
165 167
165 184
165 187
165 196
166 130
166 147
166 150
166 157
166 163
166 177
166 179
166 181
166 192
166 195
167 144
167 151
167 165
167 169
167 187
167 188
168 139
168 155
168 157
168 177
168 180
168 185
169 144
169 151
169 167
169 171
169 188
169 197
169 200
170 150
170 152
170 153
170 156
170 163
170 176
170 179
170 193
170 194
171 148
171 159
171 169
171 183
171 197
172 142
172 145
172 160
172 162
172 190
172 191
172 209
173 154
173 158
173 178
173 186
173 204
173 210
174 149
174 154
174 182
174 205
175 161
175 164
175 184
175 199
175 206
176 153
176 156
176 159
176 170
176 183
176 193
176 201
177 147
177 157
177 166
177 168
177 181
177 185
177 192
177 195
177 207
178 154
178 173
178 182
178 204
178 210
179 150
179 152
179 156
179 163
179 166
179 170
179 181
179 193
179 194
179 195
180 146
180 162
180 168
180 189
180 198
180 208
181 147
181 163
181 166
181 177
181 179
181 192
181 194
181 195
181 207
181 214
182 149
182 154
182 174
182 178
182 204
182 205
183 148
183 159
183 171
183 176
183 197
183 200
183 201
183 218
184 164
184 165
184 175
184 187
184 196
184 202
184 206
184 215
185 155
185 157
185 168
185 177
185 207
185 211
185 220
186 158
186 173
186 191
186 203
186 213
187 165
187 167
187 184
187 188
187 196
187 202
187 216
188 167
188 169
188 187
188 200
188 202
188 216
188 217
189 162
189 180
189 190
189 198
189 208
189 209
190 160
190 172
190 189
190 191
190 209
190 219
191 160
191 172
191 186
191 190
191 203
191 209
191 213
191 219
192 166
192 177
192 181
192 195
192 207
192 214
192 221
193 156
193 170
193 176
193 179
193 194
193 201
193 212
193 227
194 163
194 170
194 179
194 181
194 193
194 195
194 212
194 214
195 163
195 166
195 177
195 179
195 181
195 192
195 194
195 207
195 214
195 221
196 165
196 184
196 187
196 202
196 206
196 215
196 216
196 223
197 169
197 171
197 183
197 200
197 218
198 180
198 189
198 208
198 211
198 228
198 230
199 175
199 206
199 223
200 169
200 183
200 188
200 197
200 217
200 218
201 176
201 183
201 193
201 212
201 225
201 227
202 184
202 187
202 188
202 196
202 216
202 217
203 186
203 191
203 210
203 213
203 224
203 229
204 173
204 178
204 182
204 205
204 210
204 222
204 224
204 233
205 174
205 182
205 204
205 222
206 175
206 184
206 196
206 199
206 215
206 223
207 177
207 181
207 185
207 192
207 195
207 211
207 220
207 221
208 180
208 189
208 198
208 209
208 226
208 228
208 230
209 172
209 189
209 190
209 191
209 208
209 219
209 226
210 173
210 178
210 203
210 204
210 224
210 233
210 234
211 185
211 198
211 207
211 220
211 228
211 237
212 193
212 194
212 201
212 227
212 231
213 186
213 191
213 203
213 219
213 229
213 234
214 181
214 192
214 194
214 195
214 221
214 231
214 232
214 240
214 245
215 184
215 196
215 206
215 216
215 223
215 236
215 239
216 187
216 188
216 196
216 202
216 215
216 217
216 236
216 238
216 249
217 188
217 200
217 202
217 216
217 218
217 235
217 238
217 242
218 183
218 197
218 200
218 217
218 235
218 242
219 190
219 191
219 209
219 213
219 226
219 229
219 243
220 185
220 207
220 211
220 221
220 237
220 257
221 192
221 195
221 207
221 214
221 220
221 232
221 237
221 240
221 251
222 204
222 205
222 233
222 241
223 196
223 199
223 206
223 215
223 239
223 253
224 203
224 204
224 210
224 233
224 234
224 256
225 201
225 227
225 247
226 208
226 209
226 219
226 228
226 230
226 243
226 246
226 255
226 258
227 193
227 201
227 212
227 225
227 231
227 250
228 198
228 208
228 211
228 226
228 230
228 244
229 203
229 213
229 219
229 234
229 243
229 248
229 254
230 198
230 208
230 226
230 228
230 244
230 246
230 258
230 266
231 212
231 214
231 227
231 232
231 245
231 250
232 214
232 221
232 231
232 240
232 245
232 251
232 264
233 204
233 210
233 222
233 224
233 234
233 241
233 256
234 210
234 213
234 224
234 229
234 233
234 248
234 256
234 261
235 217
235 218
235 242
235 259
236 215
236 216
236 238
236 239
236 249
236 252
236 253
236 260
236 267
237 211
237 220
237 221
237 251
237 257
237 270
238 216
238 217
238 236
238 242
238 249
238 252
238 260
239 215
239 223
239 236
239 249
239 253
239 267
240 214
240 221
240 232
240 245
240 251
240 264
240 271
241 222
241 233
241 256
241 263
242 217
242 218
242 235
242 238
242 252
242 259
243 219
243 226
243 229
243 246
243 254
243 255
243 258
244 228
244 230
244 246
244 266
245 214
245 231
245 232
245 240
245 250
245 251
245 264
246 226
246 230
246 243
246 244
246 255
246 258
246 266
246 274
247 225
247 262
247 265
247 278
248 229
248 234
248 254
248 261
248 268
248 272
248 277
249 216
249 236
249 238
249 239
249 252
249 253
249 260
249 267
249 275
250 227
250 231
250 245
250 262
250 264
250 269
251 221
251 232
251 237
251 240
251 245
251 257
251 270
251 271
252 236
252 238
252 242
252 249
252 259
252 260
252 275
253 223
253 236
253 239
253 249
253 267
253 273
254 229
254 243
254 248
254 255
254 261
254 268
254 281
255 226
255 243
255 246
255 254
255 258
255 274
255 279
256 224
256 233
256 234
256 241
256 261
256 263
256 272
256 276
256 277
256 280
257 220
257 237
257 251
257 270
257 271
257 282
258 226
258 230
258 243
258 246
258 255
258 266
258 274
258 279
259 235
259 242
259 252
259 265
259 284
259 287
260 236
260 238
260 249
260 252
260 267
260 275
260 286
261 234
261 248
261 254
261 256
261 268
261 272
261 277
261 280
262 247
262 250
262 269
262 285
262 289
263 241
263 256
263 276
263 280
263 292
264 232
264 240
264 245
264 250
264 269
264 271
264 288
265 247
265 259
265 278
266 230
266 244
266 246
266 258
266 274
266 283
266 291
267 236
267 239
267 249
267 253
267 260
267 273
267 275
267 286
268 248
268 254
268 261
268 272
268 277
268 281
268 294
268 298
269 250
269 262
269 264
269 285
269 288
269 289
270 237
270 251
270 257
270 271
270 282
270 295
271 240
271 251
271 257
271 264
271 270
271 282
271 290
271 295
272 248
272 256
272 261
272 268
272 277
272 280
272 294
272 302
273 253
273 267
273 286
273 296
273 306
274 246
274 255
274 258
274 266
274 279
274 283
274 291
274 301
275 249
275 252
275 260
275 267
275 286
275 287
275 307
276 256
276 263
276 280
276 292
277 248
277 256
277 261
277 268
277 272
277 280
277 281
277 294
277 302
277 313
278 247
278 265
278 285
278 293
278 299
279 255
279 258
279 274
279 281
279 291
279 301
279 309
280 256
280 261
280 263
280 272
280 276
280 277
280 292
280 294
280 302
280 315
281 254
281 268
281 277
281 279
281 294
281 298
281 317
282 257
282 270
282 271
282 290
282 295
282 316
283 266
283 274
283 291
283 297
283 301
283 308
284 259
284 287
284 299
284 304
284 312
285 262
285 269
285 278
285 289
285 293
285 310
286 260
286 267
286 273
286 275
286 303
286 307
287 259
287 275
287 284
287 304
287 312
288 264
288 269
288 289
288 290
288 300
288 305
289 262
289 269
289 285
289 288
289 293
289 300
289 310
290 271
290 282
290 288
290 295
290 300
290 305
290 319
291 266
291 274
291 279
291 283
291 297
291 301
291 309
291 321
292 263
292 276
292 280
292 311
292 314
292 322
293 278
293 285
293 289
293 299
293 310
293 318
294 268
294 272
294 277
294 280
294 281
294 298
294 302
294 313
294 315
294 317
295 270
295 271
295 282
295 290
295 305
295 316
295 319
296 273
296 306
296 326
297 283
297 291
297 301
297 308
297 320
297 321
298 268
298 281
298 294
298 309
298 313
298 317
298 329
299 278
299 284
299 293
299 312
299 318
300 288
300 289
300 290
300 305
300 319
300 327
301 274
301 279
301 283
301 291
301 297
301 309
301 321
301 324
301 328
302 272
302 277
302 280
302 294
302 313
302 314
302 315
303 286
303 306
303 307
303 323
303 325
304 284
304 287
304 307
304 312
304 323
304 333
305 288
305 290
305 295
305 300
305 319
305 327
305 336
306 273
306 296
306 303
306 325
306 326
307 275
307 286
307 303
307 304
307 323
307 325
308 283
308 297
308 316
308 320
308 321
308 334
309 279
309 291
309 298
309 301
309 324
309 328
309 329
309 337
310 285
310 289
310 293
310 318
310 331
311 292
311 314
311 322
312 284
312 287
312 299
312 304
312 333
313 277
313 294
313 298
313 302
313 315
313 317
313 339
314 292
314 302
314 311
314 315
314 322
314 332
315 280
315 294
315 302
315 313
315 314
315 332
315 344
316 282
316 295
316 308
316 319
316 335
317 281
317 294
317 298
317 313
317 329
317 342
318 293
318 299
318 310
318 330
318 331
318 347
319 290
319 295
319 300
319 305
319 316
319 327
319 335
319 336
320 297
320 308
320 321
320 334
320 343
320 345
321 291
321 297
321 301
321 308
321 320
321 324
321 328
321 334
321 337
321 345
321 349
322 292
322 311
322 314
322 332
322 341
322 351
323 303
323 304
323 307
323 325
323 333
323 338
323 354
324 301
324 309
324 321
324 328
324 329
324 337
324 342
324 349
325 303
325 306
325 307
325 323
325 338
325 340
325 354
326 296
326 306
326 340
326 352
327 300
327 305
327 319
327 336
327 348
328 301
328 309
328 321
328 324
328 337
328 345
328 349
329 298
329 309
329 317
329 324
329 337
329 342
330 318
330 331
330 346
330 347
330 359
331 310
331 318
331 330
331 347
331 348
331 355
331 359
332 314
332 315
332 322
332 341
332 350
332 351
332 368
333 304
333 312
333 323
333 353
333 356
333 364
334 308
334 320
334 321
334 343
334 345
334 361
335 316
335 319
335 336
335 343
335 358
336 305
336 319
336 327
336 335
336 357
336 358
336 371
337 309
337 321
337 324
337 328
337 329
337 342
337 349
337 365
338 323
338 325
338 340
338 354
338 363
339 313
339 344
339 360
339 366
339 375
340 325
340 326
340 338
340 352
340 354
340 363
340 369
341 322
341 332
341 351
341 362
342 317
342 324
342 329
342 337
342 366
342 372
343 320
343 334
343 335
343 345
343 361
343 373
344 315
344 339
344 350
344 360
344 366
344 368
344 375
345 320
345 321
345 328
345 334
345 343
345 349
345 361
346 330
346 347
346 359
346 367
347 318
347 330
347 331
347 346
347 355
347 359
347 376
348 327
348 331
348 355
348 357
348 370
348 371
349 321
349 324
349 328
349 337
349 345
349 361
349 365
350 332
350 344
350 351
350 368
350 379
351 322
351 332
351 341
351 350
351 362
351 368
351 381
352 326
352 340
352 363
352 369
353 333
353 354
353 356
353 364
354 323
354 325
354 338
354 340
354 353
354 356
354 363
354 378
355 331
355 347
355 348
355 359
355 370
355 376
355 384
355 385
356 333
356 353
356 354
356 364
356 387
357 336
357 348
357 370
357 371
357 374
357 386
358 335
358 336
358 374
359 330
359 331
359 346
359 347
359 355
359 367
359 376
359 380
359 384
360 339
360 344
360 366
360 375
360 377
360 390
361 334
361 343
361 345
361 349
361 373
361 382
361 383
361 394
362 341
362 351
362 368
362 381
362 388
363 338
363 340
363 352
363 354
363 369
363 378
364 333
364 353
364 356
364 387
365 337
365 349
365 372
365 383
365 399
366 339
366 342
366 344
366 360
366 372
366 375
366 377
366 390
366 401
367 346
367 359
367 376
367 380
367 392
368 332
368 344
368 350
368 351
368 362
368 375
368 379
368 388
368 400
369 340
369 352
369 363
369 396
370 348
370 355
370 357
370 371
370 385
370 386
371 336
371 348
371 357
371 370
371 374
371 386
372 342
372 365
372 366
372 377
372 391
373 343
373 361
373 382
373 389
373 394
373 395
374 357
374 358
374 371
375 339
375 344
375 360
375 366
375 368
375 377
375 379
375 390
375 401
376 347
376 355
376 359
376 367
376 380
376 384
376 385
376 393
377 360
377 366
377 372
377 375
377 390
377 391
377 401
378 354
378 363
378 387
378 396
378 397
378 398
379 350
379 368
379 375
379 388
379 390
379 400
380 359
380 367
380 376
380 392
380 393
381 351
381 362
381 388
382 361
382 373
382 383
382 394
382 399
383 361
383 365
383 382
383 394
383 399
384 355
384 359
384 376
384 385
384 393
385 355
385 370
385 376
385 384
385 386
386 357
386 370
386 371
386 385
387 356
387 364
387 378
387 398
388 362
388 368
388 379
388 381
388 400
389 373
389 395
390 360
390 366
390 375
390 377
390 379
390 400
390 401
391 372
391 377
391 399
391 401
392 367
392 380
392 393
393 376
393 380
393 384
393 392
394 361
394 373
394 382
394 383
394 395
394 399
395 373
395 389
395 394
396 369
396 378
396 397
397 378
397 396
397 398
398 378
398 387
398 397
399 365
399 382
399 383
399 391
399 394
400 368
400 379
400 388
400 390
401 366
401 375
401 377
401 390
401 391
