1 11
1 18
1 30
2 9
2 17
3 5
3 16
3 20
3 29
4 14
4 21
4 39
5 3
5 20
6 13
6 15
6 24
7 19
7 27
8 12
8 31
8 35
9 2
9 17
9 36
10 14
10 16
10 28
10 32
10 34
11 1
11 18
11 40
12 8
12 26
12 31
13 6
13 19
13 24
14 4
14 10
14 21
14 32
14 34
15 6
15 24
15 38
16 3
16 10
16 28
16 29
16 32
17 2
17 9
17 36
17 41
18 1
18 11
18 30
18 40
19 7
19 13
19 27
20 3
20 5
20 29
20 42
20 49
21 4
21 14
21 23
21 34
21 39
22 25
22 37
22 41
22 46
23 21
23 33
23 39
23 52
24 6
24 13
24 15
24 44
24 45
25 22
25 37
25 46
25 54
26 12
26 31
26 38
26 43
26 59
27 7
27 19
27 33
27 48
27 58
28 10
28 16
28 29
28 32
28 56
28 62
29 3
29 16
29 20
29 28
29 42
29 49
29 56
30 1
30 18
30 35
30 51
31 8
31 12
31 26
31 35
31 43
31 59
32 10
32 14
32 16
32 28
32 34
32 47
32 55
32 62
33 23
33 27
33 48
33 52
33 58
34 10
34 14
34 21
34 32
34 39
34 47
34 55
35 8
35 30
35 31
35 51
35 66
36 9
36 17
36 41
36 50
36 57
37 22
37 25
37 40
37 46
37 54
38 15
38 26
38 43
38 45
38 61
39 4
39 21
39 23
39 34
39 47
39 52
39 65
40 11
40 18
40 37
40 60
41 17
41 22
41 36
41 46
41 50
41 67
42 20
42 29
42 49
42 53
42 56
42 69
43 26
43 31
43 38
43 59
43 70
44 24
44 45
44 63
44 64
45 24
45 38
45 44
45 61
45 64
45 77
46 22
46 25
46 37
46 41
46 54
46 67
47 32
47 34
47 39
47 55
47 65
47 71
48 27
48 33
48 58
48 63
48 68
49 20
49 29
49 42
49 53
49 56
49 69
49 80
50 36
50 41
50 57
50 72
50 73
51 30
51 35
51 66
51 82
52 23
52 33
52 39
52 58
52 65
52 74
53 42
53 49
53 56
53 69
53 80
54 25
54 37
54 46
54 60
54 67
54 76
54 90
55 32
55 34
55 47
55 62
55 71
55 84
55 85
56 28
56 29
56 42
56 49
56 53
56 62
56 69
56 79
56 80
57 36
57 50
57 72
57 73
58 27
58 33
58 48
58 52
58 68
58 74
58 89
59 26
59 31
59 43
59 61
59 70
59 86
60 40
60 54
60 76
60 81
61 38
61 45
61 59
61 75
61 93
62 28
62 32
62 55
62 56
62 79
62 85
63 44
63 48
63 68
63 78
63 83
63 97
64 44
64 45
64 75
64 77
64 83
65 39
65 47
65 52
65 71
65 87
66 35
66 51
66 82
66 101
67 41
67 46
67 54
67 90
67 92
68 48
68 58
68 63
68 78
68 88
68 89
68 105
69 42
69 49
69 53
69 56
69 79
69 80
69 94
69 102
70 43
70 59
70 86
70 103
71 47
71 55
71 65
71 84
71 87
71 91
72 50
72 57
72 73
72 98
73 50
73 57
73 72
73 98
74 52
74 58
74 88
74 89
74 107
75 61
75 64
75 77
75 93
75 108
76 54
76 60
76 81
76 90
76 95
76 106
77 45
77 64
77 75
77 83
77 109
77 113
78 63
78 68
78 83
78 88
78 97
78 105
79 56
79 62
79 69
79 80
79 85
79 94
79 96
79 100
79 120
80 49
80 53
80 56
80 69
80 79
80 94
80 96
80 102
81 60
81 76
81 82
81 95
81 99
82 51
82 66
82 81
82 95
82 99
82 101
82 119
83 63
83 64
83 77
83 78
83 97
83 109
84 55
84 71
84 85
84 91
84 100
84 117
85 55
85 62
85 79
85 84
85 96
85 100
85 115
86 59
86 70
86 93
86 103
87 65
87 71
87 91
87 104
87 116
88 68
88 74
88 78
88 89
88 97
88 105
88 111
88 124
89 58
89 68
89 74
89 88
89 105
89 107
89 111
89 125
90 54
90 67
90 76
90 92
90 106
90 122
91 71
91 84
91 87
91 104
91 117
92 67
92 90
92 114
92 122
93 61
93 75
93 86
93 108
93 123
94 69
94 79
94 80
94 96
94 102
94 120
95 76
95 81
95 82
95 106
95 126
96 79
96 80
96 85
96 94
96 100
96 102
96 115
96 120
97 63
97 78
97 83
97 88
97 105
97 109
97 121
97 124
98 72
98 73
98 110
98 118
99 81
99 82
99 101
99 112
99 119
100 79
100 84
100 85
100 96
100 115
100 120
100 127
100 128
101 66
101 82
101 99
101 103
101 112
101 119
102 69
102 80
102 94
102 96
103 70
103 86
103 101
103 112
103 131
104 87
104 91
104 107
104 116
104 117
104 130
105 68
105 78
105 88
105 89
105 97
105 111
105 124
106 76
106 90
106 95
106 126
107 74
107 89
107 104
107 111
107 116
107 125
108 75
108 93
108 113
108 123
108 129
108 141
109 77
109 83
109 97
109 113
109 121
109 129
109 133
110 98
110 114
110 118
110 132
110 137
111 88
111 89
111 105
111 107
111 124
111 125
112 99
112 101
112 103
112 119
112 131
113 77
113 108
113 109
113 121
113 129
113 145
114 92
114 110
114 122
114 135
115 85
115 96
115 100
115 117
115 120
115 127
115 128
115 143
116 87
116 104
116 107
116 117
116 130
117 84
117 91
117 104
117 115
117 116
117 127
117 142
118 98
118 110
118 132
118 137
118 147
119 82
119 99
119 101
119 112
119 138
119 140
120 79
120 94
120 96
120 100
120 115
120 128
120 134
120 143
121 97
121 109
121 113
121 124
121 129
121 133
121 136
122 90
122 92
122 114
122 135
123 93
123 108
123 141
124 88
124 97
124 105
124 111
124 121
124 125
124 136
124 150
125 89
125 107
125 111
125 124
125 144
125 150
126 95
126 106
126 139
127 100
127 115
127 117
127 128
127 142
127 151
128 100
128 115
128 120
128 127
128 143
128 155
129 108
129 109
129 113
129 121
129 133
129 145
129 149
130 104
130 116
130 142
130 144
130 153
131 103
131 112
131 140
131 148
131 164
132 110
132 118
132 137
132 147
133 109
133 121
133 129
133 136
133 149
133 154
134 120
134 152
134 158
135 114
135 122
135 146
135 162
136 121
136 124
136 133
136 150
136 154
136 161
137 110
137 118
137 132
137 146
137 147
138 119
138 139
138 140
138 160
139 126
139 138
139 156
139 159
140 119
140 131
140 138
140 148
140 160
141 108
141 123
141 145
141 157
141 165
141 170
142 117
142 127
142 130
142 151
142 153
142 168
142 169
143 115
143 120
143 128
143 155
143 158
143 167
143 173
144 125
144 130
144 150
144 153
145 113
145 129
145 141
145 149
145 157
145 165
146 135
146 137
146 162
146 163
147 118
147 132
147 137
148 131
148 140
148 164
148 177
149 129
149 133
149 145
149 154
149 165
149 171
150 124
150 125
150 136
150 144
150 161
150 166
150 175
151 127
151 142
151 168
151 169
152 134
152 158
152 174
153 130
153 142
153 144
153 180
154 133
154 136
154 149
154 161
154 171
154 172
155 128
155 143
155 158
155 167
155 173
155 186
156 139
156 159
156 162
157 141
157 145
157 165
157 170
158 134
158 143
158 152
158 155
158 173
158 174
159 139
159 156
159 187
160 138
160 140
160 178
161 136
161 150
161 154
161 166
161 171
161 172
161 175
162 135
162 146
162 156
162 163
162 179
163 146
163 162
163 179
163 184
164 131
164 148
164 177
165 141
165 145
165 149
165 157
165 170
165 181
165 182
165 193
166 150
166 161
166 175
166 176
166 190
167 143
167 155
167 168
167 173
167 183
167 186
167 198
168 142
168 151
168 167
168 169
168 183
168 196
169 142
169 151
169 168
169 180
169 183
169 196
170 141
170 157
170 165
170 182
170 189
171 149
171 154
171 161
171 172
171 181
171 185
172 154
172 161
172 171
172 185
173 143
173 155
173 158
173 167
173 174
173 186
173 192
173 198
174 152
174 158
174 173
174 188
174 192
175 150
175 161
175 166
175 176
175 190
176 166
176 175
176 180
176 190
176 199
176 201
177 148
177 164
177 195
178 160
178 195
178 200
179 162
179 163
179 194
179 203
180 153
180 169
180 176
180 196
180 199
181 165
181 171
181 182
181 185
181 193
181 205
182 165
182 170
182 181
182 189
182 193
182 205
183 167
183 168
183 169
183 196
183 212
184 163
184 191
184 213
185 171
185 172
185 181
185 202
186 155
186 167
186 173
186 192
186 198
186 207
187 159
187 197
187 203
188 174
188 192
188 206
189 170
189 182
189 193
189 204
190 166
190 175
190 176
190 201
190 202
190 209
190 210
191 184
192 173
192 174
192 186
192 188
192 198
192 206
193 165
193 181
193 182
193 189
193 205
193 215
194 179
194 203
194 214
195 177
195 178
195 200
195 208
196 168
196 169
196 180
196 183
196 199
196 212
196 219
197 187
197 203
197 222
198 167
198 173
198 186
198 192
198 206
198 207
198 218
199 176
199 180
199 196
199 201
199 211
199 219
200 178
200 195
200 220
200 221
201 176
201 190
201 199
201 209
201 210
201 211
202 185
202 190
202 209
202 216
202 217
202 223
202 227
203 179
203 187
203 194
203 197
203 222
203 224
204 189
204 215
205 181
205 182
205 193
205 215
205 216
205 225
205 230
206 188
206 192
206 198
206 218
206 229
206 237
207 186
207 198
207 212
207 218
207 226
207 232
208 195
208 228
209 190
209 201
209 202
209 210
209 223
209 231
210 190
210 201
210 209
210 211
210 223
210 231
210 233
211 199
211 201
211 210
211 219
211 233
212 183
212 196
212 207
212 219
212 226
213 184
213 214
213 235
214 194
214 213
214 235
215 193
215 204
215 205
215 225
215 230
216 202
216 205
216 217
216 225
216 227
216 247
217 202
217 216
217 223
217 227
218 198
218 206
218 207
218 232
218 238
219 196
219 199
219 211
219 212
219 226
219 241
219 243
220 200
220 221
220 222
220 240
221 200
221 220
221 228
221 240
221 246
222 197
222 203
222 220
222 224
223 202
223 209
223 210
223 217
223 231
223 245
223 249
224 203
224 222
224 244
225 205
225 215
225 216
225 230
225 248
225 253
226 207
226 212
226 219
226 238
226 241
226 243
226 256
227 202
227 216
227 217
227 247
227 250
227 253
228 208
228 221
228 240
228 246
229 206
229 234
229 237
229 258
230 205
230 215
230 225
230 236
230 248
230 257
231 209
231 210
231 223
231 245
231 249
232 207
232 218
232 237
232 238
233 210
233 211
233 241
233 254
234 229
234 261
235 213
235 214
235 244
235 252
236 230
236 239
236 257
236 262
237 206
237 229
237 232
237 255
237 258
238 218
238 226
238 232
238 243
238 256
238 265
238 266
239 236
239 259
239 262
239 271
240 220
240 221
240 228
240 246
240 251
240 269
241 219
241 226
241 233
241 243
241 254
241 256
242 252
242 267
243 219
243 226
243 238
243 241
243 256
243 265
244 224
244 235
244 260
244 263
245 223
245 231
245 249
245 250
245 264
246 221
246 228
246 240
246 259
247 216
247 227
247 248
247 250
247 253
247 268
248 225
248 230
248 247
248 253
248 257
249 223
249 231
249 245
249 250
249 264
249 280
250 227
250 245
250 247
250 249
250 253
250 268
250 277
251 240
251 260
251 269
252 235
252 242
252 263
252 275
253 225
253 227
253 247
253 248
253 250
253 268
254 233
254 241
254 264
254 270
255 237
255 258
255 266
255 272
256 226
256 238
256 241
256 243
256 265
256 273
257 230
257 236
257 248
257 274
257 286
258 229
258 237
258 255
258 261
258 272
259 239
259 246
259 262
259 271
260 244
260 251
260 263
260 278
261 234
261 258
262 236
262 239
262 259
262 271
262 274
262 290
263 244
263 252
263 260
263 278
263 293
264 245
264 249
264 254
264 270
264 280
264 281
264 288
265 238
265 243
265 256
265 266
265 273
265 279
265 289
266 238
266 255
266 265
266 272
266 279
266 294
267 242
267 275
267 283
268 247
268 250
268 253
268 277
268 282
268 299
269 240
269 251
269 285
270 254
270 264
270 276
270 288
270 296
271 239
271 259
271 262
271 290
272 255
272 258
272 266
272 291
272 305
273 256
273 265
273 276
273 289
273 295
273 296
274 257
274 262
274 286
274 297
275 252
275 267
275 283
275 287
276 270
276 273
276 295
276 296
277 250
277 268
277 280
277 299
277 300
278 260
278 263
278 285
278 293
279 265
279 266
279 289
279 294
279 303
280 249
280 264
280 277
280 281
280 300
280 307
281 264
281 280
281 288
281 307
281 308
282 268
282 286
282 298
282 299
282 304
283 267
283 275
283 287
284 310
285 269
285 278
285 302
286 257
286 274
286 282
286 297
286 298
286 304
286 318
287 275
287 283
287 293
287 313
288 264
288 270
288 281
288 296
288 307
288 308
289 265
289 273
289 279
289 294
289 295
289 303
289 309
289 314
289 320
290 262
290 271
290 297
290 306
291 272
291 292
291 294
291 305
292 291
292 301
292 312
293 263
293 278
293 287
293 311
294 266
294 279
294 289
294 291
294 303
294 305
294 314
295 273
295 276
295 289
295 296
295 309
295 321
296 270
296 273
296 276
296 288
296 295
296 308
296 309
296 321
297 274
297 286
297 290
297 304
297 306
297 318
297 327
298 282
298 286
298 299
298 304
298 317
298 319
299 268
299 277
299 282
299 298
299 300
299 315
299 317
300 277
300 280
300 299
300 307
300 315
300 331
301 292
301 312
302 285
302 310
302 316
302 324
303 279
303 289
303 294
303 314
303 320
304 282
304 286
304 297
304 298
304 318
304 319
305 272
305 291
305 294
305 312
305 336
306 290
306 297
306 327
306 328
307 280
307 281
307 288
307 300
307 308
307 315
307 323
307 325
307 329
308 281
308 288
308 296
308 307
308 323
308 325
309 289
309 295
309 296
309 320
309 321
309 338
310 284
310 302
310 330
311 293
311 313
311 326
311 334
312 292
312 301
312 305
312 333
313 287
313 311
313 322
313 332
314 289
314 294
314 303
314 320
314 339
315 299
315 300
315 307
315 317
315 329
315 331
315 348
316 302
316 324
316 326
316 337
317 298
317 299
317 315
317 319
317 331
317 344
318 286
318 297
318 304
318 319
318 327
318 335
319 298
319 304
319 317
319 318
319 335
319 347
320 289
320 303
320 309
320 314
320 321
320 338
320 339
320 340
321 295
321 296
321 309
321 320
321 325
321 338
321 342
322 313
322 332
322 349
323 307
323 308
323 325
323 329
323 346
323 350
324 302
324 316
324 337
324 343
324 356
325 307
325 308
325 321
325 323
325 329
325 342
325 346
326 311
326 316
326 334
326 337
326 355
327 297
327 306
327 318
327 328
327 335
327 351
328 306
328 327
328 341
328 351
329 307
329 315
329 323
329 325
329 331
329 346
329 348
329 350
330 310
330 352
331 300
331 315
331 317
331 329
331 344
331 348
331 350
332 313
332 322
332 334
332 349
332 354
332 358
333 312
333 345
333 362
334 311
334 326
334 332
334 354
334 355
335 318
335 319
335 327
335 347
335 351
335 367
336 305
336 357
337 316
337 324
337 326
337 343
337 355
337 356
337 368
338 309
338 320
338 321
338 340
338 342
338 359
338 360
339 314
339 320
339 340
339 353
339 360
339 366
340 320
340 338
340 339
340 353
340 359
340 360
341 328
341 351
341 369
342 321
342 325
342 338
342 346
342 359
342 361
343 324
343 337
343 352
343 356
343 373
344 317
344 331
344 347
344 348
344 364
344 365
345 333
345 362
346 323
346 325
346 329
346 342
346 350
346 361
346 363
347 319
347 335
347 344
347 364
347 375
348 315
348 329
348 331
348 344
348 350
348 364
348 365
348 380
349 322
349 332
349 358
349 371
350 323
350 329
350 331
350 346
350 348
350 363
350 365
351 327
351 328
351 335
351 341
351 367
351 374
352 330
352 343
352 373
353 339
353 340
353 360
353 366
354 332
354 334
354 355
354 358
354 372
354 376
355 326
355 334
355 337
355 354
355 368
355 372
356 324
356 337
356 343
356 368
356 373
357 336
357 362
357 366
357 370
357 384
358 332
358 349
358 354
358 371
358 376
359 338
359 340
359 342
359 360
359 361
359 378
359 379
360 338
360 339
360 340
360 353
360 359
360 366
360 378
360 395
361 342
361 346
361 359
361 363
361 379
361 383
361 385
362 333
362 345
362 357
362 377
362 391
363 346
363 350
363 361
363 382
363 383
363 385
364 344
364 347
364 348
364 365
364 375
364 380
364 381
365 344
365 348
365 350
365 364
365 380
365 387
366 339
366 353
366 357
366 360
366 370
366 384
366 386
367 335
367 351
367 374
367 375
367 397
368 337
368 355
368 356
368 372
368 393
369 341
369 374
369 390
369 392
370 357
370 366
370 384
370 386
371 349
371 358
371 388
371 396
372 354
372 355
372 368
372 376
372 389
373 343
373 352
373 356
373 399
374 351
374 367
374 369
374 392
374 397
375 347
375 364
375 367
375 381
375 394
376 354
376 358
376 372
376 389
377 362
377 391
378 359
378 360
378 379
378 386
378 395
378 398
379 359
379 361
379 378
379 383
379 385
379 395
379 398
380 348
380 364
380 365
380 381
380 387
381 364
381 375
381 380
381 394
382 363
382 383
382 385
382 387
383 361
383 363
383 379
383 382
383 385
383 398
384 357
384 366
384 370
384 386
385 361
385 363
385 379
385 382
385 383
385 387
386 366
386 370
386 378
386 384
386 395
387 365
387 380
387 382
387 385
388 371
388 396
389 372
389 376
390 369
390 392
391 362
391 377
392 369
392 374
392 390
392 397
393 368
393 399
394 375
394 381
394 397
395 360
395 378
395 379
395 386
395 398
396 371
396 388
397 367
397 374
397 392
397 394
398 378
398 379
398 383
398 395
399 373
399 393
