1 8
1 11
1 18
1 30
1 35
1 40
2 9
2 17
2 22
2 25
2 36
2 41
2 46
2 50
3 5
3 10
3 16
3 20
3 28
3 29
3 32
3 42
3 49
3 56
4 10
4 14
4 21
4 23
4 32
4 34
4 39
4 47
5 3
5 16
5 20
5 28
5 29
5 42
5 49
5 53
6 13
6 15
6 19
6 24
6 38
6 44
6 45
7 13
7 19
7 23
7 27
7 33
7 48
8 1
8 12
8 18
8 26
8 30
8 31
8 35
8 43
8 51
9 2
9 17
9 36
9 41
9 50
9 57
10 3
10 4
10 14
10 16
10 21
10 28
10 29
10 32
10 34
10 47
10 55
10 62
11 1
11 18
11 25
11 30
11 37
11 40
11 60
12 8
12 26
12 30
12 31
12 35
12 38
12 43
12 59
13 6
13 7
13 15
13 19
13 24
13 27
13 44
13 45
14 4
14 10
14 16
14 21
14 28
14 32
14 34
14 39
14 47
14 55
15 6
15 13
15 24
15 26
15 38
15 44
15 45
15 61
16 3
16 5
16 10
16 14
16 20
16 28
16 29
16 32
16 34
16 42
16 55
16 56
16 62
17 2
17 9
17 22
17 36
17 41
17 46
17 50
17 57
18 1
18 8
18 11
18 25
18 30
18 35
18 37
18 40
18 51
18 60
19 6
19 7
19 13
19 23
19 24
19 27
19 33
19 44
19 48
19 58
19 63
19 68
20 3
20 5
20 16
20 28
20 29
20 42
20 49
20 53
20 56
20 69
21 4
21 10
21 14
21 23
21 32
21 33
21 34
21 39
21 47
21 52
21 65
22 2
22 17
22 25
22 36
22 37
22 41
22 46
22 50
22 54
22 67
23 4
23 7
23 19
23 21
23 27
23 33
23 39
23 48
23 52
23 58
23 65
23 74
24 6
24 13
24 15
24 19
24 38
24 44
24 45
24 61
24 63
24 64
24 77
25 2
25 11
25 18
25 22
25 37
25 40
25 41
25 46
25 54
25 60
25 67
26 8
26 12
26 15
26 31
26 35
26 38
26 43
26 59
26 61
26 70
27 7
27 13
27 19
27 23
27 33
27 44
27 48
27 52
27 58
27 63
27 68
27 74
28 3
28 5
28 10
28 14
28 16
28 20
28 29
28 32
28 34
28 42
28 47
28 49
28 55
28 56
28 62
28 79
29 3
29 5
29 10
29 16
29 20
29 28
29 32
29 42
29 49
29 53
29 55
29 56
29 62
29 69
29 79
29 80
30 1
30 8
30 11
30 12
30 18
30 31
30 35
30 40
30 51
30 60
30 66
30 82
31 8
31 12
31 26
31 30
31 35
31 38
31 43
31 51
31 59
31 61
31 66
31 70
31 86
32 3
32 4
32 10
32 14
32 16
32 21
32 28
32 29
32 34
32 39
32 47
32 55
32 56
32 62
32 71
32 84
33 7
33 19
33 21
33 23
33 27
33 39
33 48
33 52
33 58
33 65
33 68
33 74
34 4
34 10
34 14
34 16
34 21
34 28
34 32
34 39
34 47
34 55
34 62
34 65
34 71
34 84
35 1
35 8
35 12
35 18
35 26
35 30
35 31
35 43
35 51
35 59
35 66
35 70
36 2
36 9
36 17
36 22
36 41
36 46
36 50
36 57
36 67
36 72
36 73
37 11
37 18
37 22
37 25
37 40
37 41
37 46
37 54
37 60
37 67
37 76
37 90
38 6
38 12
38 15
38 24
38 26
38 31
38 43
38 44
38 45
38 59
38 61
38 64
38 70
38 75
38 77
38 93
39 4
39 14
39 21
39 23
39 32
39 33
39 34
39 47
39 52
39 55
39 58
39 65
39 71
39 74
39 87
40 1
40 11
40 18
40 25
40 30
40 37
40 51
40 54
40 60
40 76
40 81
40 82
41 2
41 9
41 17
41 22
41 25
41 36
41 37
41 46
41 50
41 54
41 57
41 67
41 72
41 92
42 3
42 5
42 16
42 20
42 28
42 29
42 49
42 53
42 56
42 62
42 69
42 79
42 80
42 94
43 8
43 12
43 26
43 31
43 35
43 38
43 51
43 59
43 61
43 66
43 70
43 75
43 86
43 93
44 6
44 13
44 15
44 19
44 24
44 27
44 38
44 45
44 48
44 61
44 63
44 64
44 68
44 75
44 77
44 78
44 83
45 6
45 13
45 15
45 24
45 38
45 44
45 61
45 63
45 64
45 75
45 77
45 83
46 2
46 17
46 22
46 25
46 36
46 37
46 41
46 50
46 54
46 67
46 72
46 76
46 90
46 92
47 4
47 10
47 14
47 21
47 28
47 32
47 34
47 39
47 52
47 55
47 62
47 65
47 71
47 84
47 85
47 87
47 91
48 7
48 19
48 23
48 27
48 33
48 44
48 52
48 58
48 63
48 68
48 74
48 78
48 88
48 89
48 105
49 3
49 5
49 20
49 28
49 29
49 42
49 53
49 56
49 62
49 69
49 79
49 80
49 94
49 96
49 102
50 2
50 9
50 17
50 22
50 36
50 41
50 46
50 57
50 67
50 72
50 73
50 92
50 98
51 8
51 18
51 30
51 31
51 35
51 40
51 43
51 59
51 60
51 66
51 70
51 81
51 82
51 86
51 99
51 101
52 21
52 23
52 27
52 33
52 39
52 47
52 48
52 58
52 65
52 68
52 71
52 74
52 87
52 89
52 104
52 107
53 5
53 20
53 29
53 42
53 49
53 56
53 62
53 69
53 79
53 80
53 94
53 96
53 102
54 22
54 25
54 37
54 40
54 41
54 46
54 60
54 67
54 76
54 81
54 90
54 92
54 95
54 106
55 10
55 14
55 16
55 28
55 29
55 32
55 34
55 39
55 47
55 56
55 62
55 65
55 71
55 79
55 84
55 85
55 91
55 100
56 3
56 16
56 20
56 28
56 29
56 32
56 42
56 49
56 53
56 55
56 62
56 69
56 79
56 80
56 85
56 94
56 96
56 100
56 102
57 9
57 17
57 36
57 41
57 50
57 72
57 73
57 98
57 110
58 19
58 23
58 27
58 33
58 39
58 48
58 52
58 63
58 65
58 68
58 74
58 78
58 87
58 88
58 89
58 105
58 107
58 111
59 12
59 26
59 31
59 35
59 38
59 43
59 51
59 61
59 66
59 70
59 75
59 86
59 93
59 103
60 11
60 18
60 25
60 30
60 37
60 40
60 51
60 54
60 76
60 81
60 82
60 90
60 95
60 99
60 106
61 15
61 24
61 26
61 31
61 38
61 43
61 44
61 45
61 59
61 64
61 70
61 75
61 77
61 83
61 86
61 93
61 108
62 10
62 16
62 28
62 29
62 32
62 34
62 42
62 47
62 49
62 53
62 55
62 56
62 69
62 71
62 79
62 80
62 84
62 85
62 91
62 94
62 96
62 100
62 115
63 19
63 24
63 27
63 44
63 45
63 48
63 58
63 64
63 68
63 77
63 78
63 83
63 88
63 89
63 97
63 105
64 24
64 38
64 44
64 45
64 61
64 63
64 75
64 77
64 78
64 83
64 93
64 97
64 109
64 113
65 21
65 23
65 33
65 34
65 39
65 47
65 52
65 55
65 58
65 71
65 74
65 84
65 87
65 89
65 91
65 104
65 107
65 116
66 30
66 31
66 35
66 43
66 51
66 59
66 70
66 81
66 82
66 86
66 99
66 101
66 103
66 112
66 119
67 22
67 25
67 36
67 37
67 41
67 46
67 50
67 54
67 72
67 76
67 90
67 92
67 114
67 122
68 19
68 27
68 33
68 44
68 48
68 52
68 58
68 63
68 74
68 78
68 83
68 88
68 89
68 97
68 105
68 107
68 111
68 124
69 20
69 29
69 42
69 49
69 53
69 56
69 62
69 79
69 80
69 94
69 96
69 102
70 26
70 31
70 35
70 38
70 43
70 51
70 59
70 61
70 66
70 75
70 86
70 93
70 101
70 103
70 108
70 112
70 123
71 32
71 34
71 39
71 47
71 52
71 55
71 62
71 65
71 84
71 85
71 87
71 91
71 100
71 104
71 115
71 116
71 117
71 127
72 36
72 41
72 46
72 50
72 57
72 67
72 73
72 92
72 98
72 110
72 114
72 118
73 36
73 50
73 57
73 72
73 98
73 110
73 118
74 23
74 27
74 33
74 39
74 48
74 52
74 58
74 65
74 68
74 78
74 87
74 88
74 89
74 104
74 105
74 107
74 111
74 116
74 125
75 38
75 43
75 44
75 45
75 59
75 61
75 64
75 70
75 77
75 83
75 86
75 93
75 108
75 109
75 113
75 123
76 37
76 40
76 46
76 54
76 60
76 67
76 81
76 82
76 90
76 92
76 95
76 99
76 106
76 122
76 126
77 24
77 38
77 44
77 45
77 61
77 63
77 64
77 75
77 78
77 83
77 93
77 97
77 108
77 109
77 113
77 121
77 129
78 44
78 48
78 58
78 63
78 64
78 68
78 74
78 77
78 83
78 88
78 89
78 97
78 105
78 109
78 111
78 121
78 124
79 28
79 29
79 42
79 49
79 53
79 55
79 56
79 62
79 69
79 80
79 84
79 85
79 94
79 96
79 100
79 102
79 115
79 120
79 128
80 29
80 42
80 49
80 53
80 56
80 62
80 69
80 79
80 85
80 94
80 96
80 100
80 102
80 120
80 134
81 40
81 51
81 54
81 60
81 66
81 76
81 82
81 90
81 95
81 99
81 101
81 106
81 119
81 126
82 30
82 40
82 51
82 60
82 66
82 76
82 81
82 95
82 99
82 101
82 103
82 106
82 112
82 119
82 126
83 44
83 45
83 61
83 63
83 64
83 68
83 75
83 77
83 78
83 88
83 97
83 105
83 108
83 109
83 113
83 121
83 129
83 133
84 32
84 34
84 47
84 55
84 62
84 65
84 71
84 79
84 85
84 87
84 91
84 96
84 100
84 104
84 115
84 116
84 117
84 127
84 128
85 47
85 55
85 56
85 62
85 71
85 79
85 80
85 84
85 91
85 94
85 96
85 100
85 115
85 117
85 120
85 127
85 128
86 31
86 43
86 51
86 59
86 61
86 66
86 70
86 75
86 93
86 99
86 101
86 103
86 108
86 112
86 123
86 131
87 39
87 47
87 52
87 58
87 65
87 71
87 74
87 84
87 89
87 91
87 104
87 107
87 111
87 116
87 117
87 130
88 48
88 58
88 63
88 68
88 74
88 78
88 83
88 89
88 97
88 105
88 107
88 111
88 121
88 124
88 125
88 136
89 48
89 52
89 58
89 63
89 65
89 68
89 74
89 78
89 87
89 88
89 97
89 104
89 105
89 107
89 111
89 116
89 124
89 125
90 37
90 46
90 54
90 60
90 67
90 76
90 81
90 92
90 95
90 106
90 114
90 122
90 126
90 135
91 47
91 55
91 62
91 65
91 71
91 84
91 85
91 87
91 100
91 104
91 115
91 116
91 117
91 127
91 128
91 130
91 142
92 41
92 46
92 50
92 54
92 67
92 72
92 76
92 90
92 106
92 110
92 114
92 122
92 135
93 38
93 43
93 59
93 61
93 64
93 70
93 75
93 77
93 86
93 103
93 108
93 109
93 113
93 123
93 129
93 141
94 42
94 49
94 53
94 56
94 62
94 69
94 79
94 80
94 85
94 96
94 100
94 102
94 115
94 120
94 134
94 152
95 54
95 60
95 76
95 81
95 82
95 90
95 99
95 101
95 106
95 119
95 122
95 126
95 138
95 139
96 49
96 53
96 56
96 62
96 69
96 79
96 80
96 84
96 85
96 94
96 100
96 102
96 115
96 120
96 127
96 128
96 134
96 143
97 63
97 64
97 68
97 77
97 78
97 83
97 88
97 89
97 105
97 109
97 111
97 113
97 121
97 124
97 129
97 133
97 136
98 50
98 57
98 72
98 73
98 110
98 114
98 118
98 132
98 137
98 147
99 51
99 60
99 66
99 76
99 81
99 82
99 86
99 95
99 101
99 103
99 106
99 112
99 119
99 126
99 131
99 138
99 139
99 140
100 55
100 56
100 62
100 71
100 79
100 80
100 84
100 85
100 91
100 94
100 96
100 115
100 117
100 120
100 127
100 128
100 143
101 51
101 66
101 70
101 81
101 82
101 86
101 95
101 99
101 103
101 112
101 119
101 131
101 138
101 140
101 148
102 49
102 53
102 56
102 69
102 79
102 80
102 94
102 96
102 120
102 134
102 152
103 59
103 66
103 70
103 82
103 86
103 93
103 99
103 101
103 108
103 112
103 119
103 123
103 131
103 140
103 148
104 52
104 65
104 71
104 74
104 84
104 87
104 89
104 91
104 107
104 111
104 116
104 117
104 125
104 127
104 130
104 142
104 144
104 151
104 153
105 48
105 58
105 63
105 68
105 74
105 78
105 83
105 88
105 89
105 97
105 107
105 109
105 111
105 121
105 124
105 125
105 133
105 136
105 150
106 54
106 60
106 76
106 81
106 82
106 90
106 92
106 95
106 99
106 119
106 122
106 126
106 135
106 139
107 52
107 58
107 65
107 68
107 74
107 87
107 88
107 89
107 104
107 105
107 111
107 116
107 124
107 125
107 130
107 144
107 150
107 153
108 61
108 70
108 75
108 77
108 83
108 86
108 93
108 103
108 109
108 113
108 123
108 129
108 141
108 145
108 149
108 157
109 64
109 75
109 77
109 78
109 83
109 93
109 97
109 105
109 108
109 113
109 121
109 124
109 129
109 133
109 136
109 145
109 149
109 154
110 57
110 72
110 73
110 92
110 98
110 114
110 118
110 122
110 132
110 137
110 146
110 147
111 58
111 68
111 74
111 78
111 87
111 88
111 89
111 97
111 104
111 105
111 107
111 116
111 124
111 125
111 130
111 136
111 144
111 150
111 153
112 66
112 70
112 82
112 86
112 99
112 101
112 103
112 119
112 123
112 131
112 138
112 140
112 148
112 164
113 64
113 75
113 77
113 83
113 93
113 97
113 108
113 109
113 121
113 123
113 129
113 133
113 141
113 145
113 149
113 154
114 67
114 72
114 90
114 92
114 98
114 110
114 118
114 122
114 132
114 135
114 137
114 146
114 163
115 62
115 71
115 79
115 84
115 85
115 91
115 94
115 96
115 100
115 117
115 120
115 127
115 128
115 142
115 143
115 151
115 155
116 65
116 71
116 74
116 84
116 87
116 89
116 91
116 104
116 107
116 111
116 117
116 125
116 127
116 130
116 142
116 144
116 151
116 153
117 71
117 84
117 85
117 87
117 91
117 100
117 104
117 115
117 116
117 127
117 128
117 130
117 142
117 143
117 151
117 153
118 72
118 73
118 98
118 110
118 114
118 132
118 137
118 146
118 147
119 66
119 81
119 82
119 95
119 99
119 101
119 103
119 106
119 112
119 126
119 131
119 138
119 139
119 140
119 148
119 160
120 79
120 80
120 85
120 94
120 96
120 100
120 102
120 115
120 127
120 128
120 134
120 143
120 152
120 155
120 158
121 77
121 78
121 83
121 88
121 97
121 105
121 109
121 113
121 124
121 129
121 133
121 136
121 145
121 149
121 150
121 154
121 161
122 67
122 76
122 90
122 92
122 95
122 106
122 110
122 114
122 126
122 135
122 139
122 146
122 156
122 162
123 70
123 75
123 86
123 93
123 103
123 108
123 112
123 113
123 129
123 131
123 141
123 145
123 149
123 157
124 68
124 78
124 88
124 89
124 97
124 105
124 107
124 109
124 111
124 121
124 125
124 133
124 136
124 144
124 150
124 154
124 161
124 166
125 74
125 88
125 89
125 104
125 105
125 107
125 111
125 116
125 124
125 130
125 136
125 144
125 150
125 153
125 166
126 76
126 81
126 82
126 90
126 95
126 99
126 106
126 119
126 122
126 135
126 138
126 139
126 140
126 156
126 159
126 160
127 71
127 84
127 85
127 91
127 96
127 100
127 104
127 115
127 116
127 117
127 120
127 128
127 130
127 142
127 143
127 151
127 155
127 167
127 168
127 169
128 79
128 84
128 85
128 91
128 96
128 100
128 115
128 117
128 120
128 127
128 134
128 142
128 143
128 151
128 152
128 155
128 158
128 167
128 168
128 173
129 77
129 83
129 93
129 97
129 108
129 109
129 113
129 121
129 123
129 133
129 141
129 145
129 149
129 154
129 157
129 165
129 171
129 181
130 87
130 91
130 104
130 107
130 111
130 116
130 117
130 125
130 127
130 142
130 144
130 150
130 151
130 153
130 169
130 180
131 86
131 99
131 101
131 103
131 112
131 119
131 123
131 138
131 140
131 141
131 148
131 157
131 160
131 164
131 177
132 98
132 110
132 114
132 118
132 137
132 146
132 147
132 163
133 83
133 97
133 105
133 109
133 113
133 121
133 124
133 129
133 136
133 145
133 149
133 150
133 154
133 161
133 171
133 172
134 80
134 94
134 96
134 102
134 120
134 128
134 143
134 152
134 155
134 158
134 174
135 90
135 92
135 106
135 114
135 122
135 126
135 139
135 146
135 156
135 159
135 162
135 163
135 179
136 88
136 97
136 105
136 109
136 111
136 121
136 124
136 125
136 133
136 144
136 149
136 150
136 154
136 161
136 166
136 171
136 172
136 175
137 98
137 110
137 114
137 118
137 132
137 146
137 147
137 163
137 184
138 95
138 99
138 101
138 112
138 119
138 126
138 131
138 139
138 140
138 148
138 159
138 160
138 164
138 178
139 95
139 99
139 106
139 119
139 122
139 126
139 135
139 138
139 140
139 156
139 159
139 160
139 178
139 187
140 99
140 101
140 103
140 112
140 119
140 126
140 131
140 138
140 139
140 148
140 160
140 164
140 177
140 178
141 93
141 108
141 113
141 123
141 129
141 131
141 145
141 149
141 157
141 165
141 170
141 181
141 182
141 189
142 91
142 104
142 115
142 116
142 117
142 127
142 128
142 130
142 144
142 151
142 153
142 167
142 168
142 169
142 180
142 183
143 96
143 100
143 115
143 117
143 120
143 127
143 128
143 134
143 151
143 152
143 155
143 158
143 167
143 168
143 173
143 174
143 186
144 104
144 107
144 111
144 116
144 124
144 125
144 130
144 136
144 142
144 150
144 153
144 161
144 166
144 175
144 176
144 180
145 108
145 109
145 113
145 121
145 123
145 129
145 133
145 141
145 149
145 154
145 157
145 165
145 170
145 171
145 181
145 182
145 193
146 110
146 114
146 118
146 122
146 132
146 135
146 137
146 147
146 156
146 162
146 163
146 179
146 184
146 194
147 98
147 110
147 118
147 132
147 137
147 146
147 163
147 184
147 191
148 101
148 103
148 112
148 119
148 131
148 138
148 140
148 157
148 160
148 164
148 177
148 178
148 195
149 108
149 109
149 113
149 121
149 123
149 129
149 133
149 136
149 141
149 145
149 154
149 157
149 161
149 165
149 170
149 171
149 172
149 181
149 182
149 185
149 193
150 105
150 107
150 111
150 121
150 124
150 125
150 130
150 133
150 136
150 144
150 153
150 154
150 161
150 166
150 172
150 175
150 176
150 190
151 104
151 115
151 116
151 117
151 127
151 128
151 130
151 142
151 143
151 153
151 155
151 167
151 168
151 169
151 173
151 180
151 183
151 196
152 94
152 102
152 120
152 128
152 134
152 143
152 155
152 158
152 173
152 174
152 188
152 192
153 104
153 107
153 111
153 116
153 117
153 125
153 130
153 142
153 144
153 150
153 151
153 166
153 168
153 169
153 176
153 180
153 196
153 199
154 109
154 113
154 121
154 124
154 129
154 133
154 136
154 145
154 149
154 150
154 161
154 165
154 166
154 171
154 172
154 175
154 181
154 185
155 115
155 120
155 127
155 128
155 134
155 143
155 151
155 152
155 158
155 167
155 168
155 173
155 174
155 183
155 186
155 188
155 192
155 198
156 122
156 126
156 135
156 139
156 146
156 159
156 162
156 179
156 187
156 197
156 203
157 108
157 123
157 129
157 131
157 141
157 145
157 148
157 149
157 164
157 165
157 170
157 177
157 181
157 182
157 189
157 193
158 120
158 128
158 134
158 143
158 152
158 155
158 167
158 173
158 174
158 186
158 188
158 192
159 126
159 135
159 138
159 139
159 156
159 160
159 162
159 178
159 179
159 187
159 197
159 203
160 119
160 126
160 131
160 138
160 139
160 140
160 148
160 159
160 164
160 177
160 178
160 187
160 195
160 200
161 121
161 124
161 133
161 136
161 144
161 149
161 150
161 154
161 166
161 171
161 172
161 175
161 176
161 185
161 190
161 202
162 122
162 135
162 146
162 156
162 159
162 163
162 179
162 187
162 194
162 197
162 203
163 114
163 132
163 135
163 137
163 146
163 147
163 162
163 179
163 184
163 191
163 194
164 112
164 131
164 138
164 140
164 148
164 157
164 160
164 170
164 177
164 178
164 189
164 195
164 208
165 129
165 141
165 145
165 149
165 154
165 157
165 170
165 171
165 172
165 181
165 182
165 185
165 189
165 193
165 205
166 124
166 125
166 136
166 144
166 150
166 153
166 154
166 161
166 172
166 175
166 176
166 180
166 190
166 199
166 201
166 202
166 209
166 210
167 127
167 128
167 142
167 143
167 151
167 155
167 158
167 168
167 169
167 173
167 174
167 183
167 186
167 192
167 196
167 198
167 207
168 127
168 128
168 142
168 143
168 151
168 153
168 155
168 167
168 169
168 173
168 180
168 183
168 186
168 196
168 198
168 207
168 212
169 127
169 130
169 142
169 151
169 153
169 167
169 168
169 176
169 180
169 183
169 196
169 199
169 212
169 219
170 141
170 145
170 149
170 157
170 164
170 165
170 177
170 181
170 182
170 189
170 193
170 204
170 205
170 215
171 129
171 133
171 136
171 145
171 149
171 154
171 161
171 165
171 172
171 175
171 181
171 182
171 185
171 190
171 193
171 202
171 205
171 216
171 217
172 133
172 136
172 149
172 150
172 154
172 161
172 165
172 166
172 171
172 175
172 181
172 182
172 185
172 190
172 193
172 202
172 216
172 217
173 128
173 143
173 151
173 152
173 155
173 158
173 167
173 168
173 174
173 183
173 186
173 188
173 192
173 198
173 206
173 207
173 218
174 134
174 143
174 152
174 155
174 158
174 167
174 173
174 186
174 188
174 192
174 198
174 206
175 136
175 144
175 150
175 154
175 161
175 166
175 171
175 172
175 176
175 180
175 185
175 190
175 199
175 201
175 202
175 209
175 210
175 223
176 144
176 150
176 153
176 161
176 166
176 169
176 175
176 180
176 190
176 196
176 199
176 201
176 209
176 210
176 211
177 131
177 140
177 148
177 157
177 160
177 164
177 170
177 178
177 189
177 195
177 200
177 204
177 208
178 138
178 139
178 140
178 148
178 159
178 160
178 164
178 177
178 187
178 195
178 197
178 200
178 208
178 220
178 221
179 135
179 146
179 156
179 159
179 162
179 163
179 184
179 187
179 194
179 197
179 203
179 214
179 224
180 130
180 142
180 144
180 151
180 153
180 166
180 168
180 169
180 175
180 176
180 183
180 196
180 199
180 201
180 210
180 211
180 212
180 219
181 129
181 141
181 145
181 149
181 154
181 157
181 165
181 170
181 171
181 172
181 182
181 185
181 189
181 193
181 202
181 205
181 215
181 216
181 225
182 141
182 145
182 149
182 157
182 165
182 170
182 171
182 172
182 181
182 185
182 189
182 193
182 204
182 205
182 215
182 216
182 225
183 142
183 151
183 155
183 167
183 168
183 169
183 173
183 180
183 186
183 196
183 198
183 199
183 207
183 212
183 218
183 219
183 226
184 137
184 146
184 147
184 163
184 179
184 191
184 194
184 213
184 214
185 149
185 154
185 161
185 165
185 171
185 172
185 175
185 181
185 182
185 190
185 193
185 202
185 205
185 209
185 216
185 217
185 227
186 143
186 155
186 158
186 167
186 168
186 173
186 174
186 183
186 188
186 192
186 198
186 206
186 207
186 212
186 218
186 232
187 139
187 156
187 159
187 160
187 162
187 178
187 179
187 197
187 200
187 203
187 220
187 221
187 222
187 224
188 152
188 155
188 158
188 173
188 174
188 186
188 192
188 198
188 206
188 229
189 141
189 157
189 164
189 165
189 170
189 177
189 181
189 182
189 193
189 204
189 205
189 208
189 215
189 230
190 150
190 161
190 166
190 171
190 172
190 175
190 176
190 185
190 199
190 201
190 202
190 209
190 210
190 211
190 217
190 223
190 231
191 147
191 163
191 184
191 194
191 213
191 214
192 152
192 155
192 158
192 167
192 173
192 174
192 186
192 188
192 198
192 206
192 207
192 218
192 229
192 237
193 145
193 149
193 157
193 165
193 170
193 171
193 172
193 181
193 182
193 185
193 189
193 204
193 205
193 215
193 216
193 225
193 227
193 230
194 146
194 162
194 163
194 179
194 184
194 191
194 197
194 203
194 213
194 214
194 224
194 235
195 148
195 160
195 164
195 177
195 178
195 200
195 204
195 208
195 220
195 221
195 228
196 151
196 153
196 167
196 168
196 169
196 176
196 180
196 183
196 198
196 199
196 201
196 207
196 211
196 212
196 219
196 226
196 241
196 243
197 156
197 159
197 162
197 178
197 179
197 187
197 194
197 200
197 203
197 214
197 220
197 222
197 224
198 155
198 167
198 168
198 173
198 174
198 183
198 186
198 188
198 192
198 196
198 206
198 207
198 212
198 218
198 226
198 232
198 237
198 238
199 153
199 166
199 169
199 175
199 176
199 180
199 183
199 190
199 196
199 201
199 209
199 210
199 211
199 212
199 219
199 226
199 233
199 241
200 160
200 177
200 178
200 187
200 195
200 197
200 208
200 220
200 221
200 222
200 228
200 240
201 166
201 175
201 176
201 180
201 190
201 196
201 199
201 202
201 209
201 210
201 211
201 219
201 223
201 231
201 233
202 161
202 166
202 171
202 172
202 175
202 181
202 185
202 190
202 201
202 205
202 209
202 210
202 216
202 217
202 223
202 227
202 231
202 245
202 250
203 156
203 159
203 162
203 179
203 187
203 194
203 197
203 214
203 220
203 222
203 224
203 244
204 170
204 177
204 182
204 189
204 193
204 195
204 205
204 208
204 215
204 225
204 230
204 236
204 239
205 165
205 170
205 171
205 181
205 182
205 185
205 189
205 193
205 202
205 204
205 215
205 216
205 217
205 225
205 227
205 230
205 247
205 248
205 253
206 173
206 174
206 186
206 188
206 192
206 198
206 207
206 218
206 229
206 232
206 234
206 237
206 255
206 258
207 167
207 168
207 173
207 183
207 186
207 192
207 196
207 198
207 206
207 212
207 218
207 219
207 226
207 232
207 237
207 238
207 243
208 164
208 177
208 178
208 189
208 195
208 200
208 204
208 220
208 221
208 228
208 236
208 239
208 240
208 246
208 259
209 166
209 175
209 176
209 185
209 190
209 199
209 201
209 202
209 210
209 211
209 217
209 223
209 227
209 231
209 233
209 245
209 249
210 166
210 175
210 176
210 180
210 190
210 199
210 201
210 202
210 209
210 211
210 217
210 219
210 223
210 231
210 233
210 245
210 249
210 254
211 176
211 180
211 190
211 196
211 199
211 201
211 209
211 210
211 212
211 219
211 223
211 226
211 231
211 233
211 241
211 243
211 254
212 168
212 169
212 180
212 183
212 186
212 196
212 198
212 199
212 207
212 211
212 218
212 219
212 226
212 232
212 238
212 241
212 243
212 256
213 184
213 191
213 194
213 214
213 235
213 242
213 252
214 179
214 184
214 191
214 194
214 197
214 203
214 213
214 224
214 235
214 242
214 244
214 252
215 170
215 181
215 182
215 189
215 193
215 204
215 205
215 216
215 225
215 227
215 230
215 236
215 239
215 247
215 248
215 253
215 257
216 171
216 172
216 181
216 182
216 185
216 193
216 202
216 205
216 215
216 217
216 223
216 225
216 227
216 230
216 247
216 248
216 250
216 253
217 171
217 172
217 185
217 190
217 202
217 205
217 209
217 210
217 216
217 223
217 225
217 227
217 231
217 245
217 247
217 249
217 250
217 253
218 173
218 183
218 186
218 192
218 198
218 206
218 207
218 212
218 226
218 229
218 232
218 237
218 238
218 243
218 255
218 266
219 169
219 180
219 183
219 196
219 199
219 201
219 207
219 210
219 211
219 212
219 226
219 233
219 238
219 241
219 243
219 254
219 256
220 178
220 187
220 195
220 197
220 200
220 203
220 208
220 221
220 222
220 224
220 228
220 240
220 246
220 251
221 178
221 187
221 195
221 200
221 208
221 220
221 222
221 228
221 240
221 246
221 251
221 259
222 187
222 197
222 200
222 203
222 220
222 221
222 224
222 240
222 244
222 251
222 260
222 263
223 175
223 190
223 201
223 202
223 209
223 210
223 211
223 216
223 217
223 227
223 231
223 233
223 245
223 247
223 249
223 250
223 254
223 264
224 179
224 187
224 194
224 197
224 203
224 214
224 220
224 222
224 235
224 244
224 251
224 252
224 260
224 263
225 181
225 182
225 193
225 204
225 205
225 215
225 216
225 217
225 227
225 230
225 236
225 247
225 248
225 250
225 253
225 257
226 183
226 196
226 198
226 199
226 207
226 211
226 212
226 218
226 219
226 232
226 233
226 238
226 241
226 243
226 256
226 265
226 273
227 185
227 193
227 202
227 205
227 209
227 215
227 216
227 217
227 223
227 225
227 231
227 245
227 247
227 248
227 249
227 250
227 253
227 268
228 195
228 200
228 208
228 220
228 221
228 239
228 240
228 246
228 251
228 259
229 188
229 192
229 206
229 218
229 232
229 234
229 237
229 255
229 258
229 261
229 272
230 189
230 193
230 204
230 205
230 215
230 216
230 225
230 236
230 239
230 247
230 248
230 253
230 257
230 262
230 274
231 190
231 201
231 202
231 209
231 210
231 211
231 217
231 223
231 227
231 233
231 245
231 247
231 249
231 250
231 254
231 264
231 280
231 281
232 186
232 198
232 206
232 207
232 212
232 218
232 226
232 229
232 237
232 238
232 243
232 255
232 256
232 258
232 265
232 266
232 279
233 199
233 201
233 209
233 210
233 211
233 219
233 223
233 226
233 231
233 241
233 243
233 245
233 249
233 254
233 256
233 264
233 270
233 276
234 206
234 229
234 237
234 255
234 258
234 261
235 194
235 213
235 214
235 224
235 242
235 244
235 252
235 260
235 263
235 267
235 275
236 204
236 208
236 215
236 225
236 230
236 239
236 248
236 257
236 259
236 262
236 271
236 274
237 192
237 198
237 206
237 207
237 218
237 229
237 232
237 234
237 238
237 255
237 258
237 261
237 266
237 272
237 279
238 198
238 207
238 212
238 218
238 219
238 226
238 232
238 237
238 241
238 243
238 255
238 256
238 265
238 266
238 273
238 279
238 289
239 204
239 208
239 215
239 228
239 230
239 236
239 246
239 257
239 259
239 262
239 271
239 274
239 290
240 200
240 208
240 220
240 221
240 222
240 228
240 246
240 251
240 259
240 260
240 269
240 284
241 196
241 199
241 211
241 212
241 219
241 226
241 233
241 238
241 243
241 254
241 256
241 265
241 270
241 273
241 276
242 213
242 214
242 235
242 252
242 267
242 275
242 283
243 196
243 207
243 211
243 212
243 218
243 219
243 226
243 232
243 233
243 238
243 241
243 254
243 256
243 265
243 266
243 270
243 273
243 276
243 289
243 295
244 203
244 214
244 222
244 224
244 235
244 251
244 252
244 260
244 263
244 278
244 293
245 202
245 209
245 210
245 217
245 223
245 227
245 231
245 233
245 247
245 249
245 250
245 254
245 264
245 268
245 270
245 277
245 280
245 281
246 208
246 220
246 221
246 228
246 239
246 240
246 251
246 259
246 262
246 269
246 271
246 284
247 205
247 215
247 216
247 217
247 223
247 225
247 227
247 230
247 231
247 245
247 248
247 249
247 250
247 253
247 257
247 268
247 277
247 282
248 205
248 215
248 216
248 225
248 227
248 230
248 236
248 247
248 250
248 253
248 257
248 262
248 268
248 274
248 282
248 286
249 209
249 210
249 217
249 223
249 227
249 231
249 233
249 245
249 247
249 250
249 253
249 254
249 264
249 268
249 277
249 280
249 281
249 300
250 202
250 216
250 217
250 223
250 225
250 227
250 231
250 245
250 247
250 248
250 249
250 253
250 264
250 268
250 277
250 280
250 281
250 282
250 299
250 300
251 220
251 221
251 222
251 224
251 228
251 240
251 244
251 246
251 260
251 263
251 269
251 278
251 284
251 285
252 213
252 214
252 224
252 235
252 242
252 244
252 263
252 267
252 275
252 283
252 287
252 293
253 205
253 215
253 216
253 217
253 225
253 227
253 230
253 247
253 248
253 249
253 250
253 257
253 268
253 274
253 277
253 282
253 286
253 298
253 299
254 210
254 211
254 219
254 223
254 231
254 233
254 241
254 243
254 245
254 249
254 256
254 264
254 270
254 273
254 276
254 280
254 281
254 288
254 296
255 206
255 218
255 229
255 232
255 234
255 237
255 238
255 258
255 261
255 265
255 266
255 272
255 279
255 291
255 292
255 294
255 305
256 212
256 219
256 226
256 232
256 233
256 238
256 241
256 243
256 254
256 265
256 266
256 270
256 273
256 276
256 279
256 289
256 295
256 296
257 215
257 225
257 230
257 236
257 239
257 247
257 248
257 253
257 262
257 268
257 271
257 274
257 282
257 286
257 290
257 297
257 298
257 304
258 206
258 229
258 232
258 234
258 237
258 255
258 261
258 266
258 272
258 279
258 291
258 292
258 305
259 208
259 221
259 228
259 236
259 239
259 240
259 246
259 262
259 269
259 271
259 284
259 290
259 306
260 222
260 224
260 235
260 240
260 244
260 251
260 263
260 269
260 278
260 285
260 293
261 229
261 234
261 237
261 255
261 258
261 272
261 291
261 292
261 301
262 230
262 236
262 239
262 246
262 248
262 257
262 259
262 271
262 274
262 286
262 290
262 297
262 306
263 222
263 224
263 235
263 244
263 251
263 252
263 260
263 275
263 278
263 285
263 287
263 293
263 311
264 223
264 231
264 233
264 245
264 249
264 250
264 254
264 270
264 276
264 277
264 280
264 281
264 288
264 300
264 307
264 308
265 226
265 232
265 238
265 241
265 243
265 255
265 256
265 266
265 272
265 273
265 276
265 279
265 289
265 294
265 295
265 303
266 218
266 232
266 237
266 238
266 243
266 255
266 256
266 258
266 265
266 272
266 273
266 279
266 289
266 291
266 294
266 303
266 305
267 235
267 242
267 252
267 275
267 283
267 287
267 313
268 227
268 245
268 247
268 248
268 249
268 250
268 253
268 257
268 277
268 280
268 281
268 282
268 286
268 298
268 299
268 300
268 317
269 240
269 246
269 251
269 259
269 260
269 278
269 284
269 285
269 302
269 310
270 233
270 241
270 243
270 245
270 254
270 256
270 264
270 273
270 276
270 280
270 281
270 288
270 295
270 296
270 308
270 309
271 236
271 239
271 246
271 257
271 259
271 262
271 274
271 284
271 286
271 290
271 297
271 306
272 229
272 237
272 255
272 258
272 261
272 265
272 266
272 279
272 291
272 292
272 294
272 301
272 303
272 305
272 312
273 226
273 238
273 241
273 243
273 254
273 256
273 265
273 266
273 270
273 276
273 279
273 289
273 294
273 295
273 296
273 303
273 309
273 320
273 321
274 230
274 236
274 239
274 248
274 253
274 257
274 262
274 271
274 282
274 286
274 290
274 297
274 298
274 304
274 306
274 318
274 319
274 327
275 235
275 242
275 252
275 263
275 267
275 283
275 287
275 293
275 311
275 313
275 322
276 233
276 241
276 243
276 254
276 256
276 264
276 265
276 270
276 273
276 281
276 288
276 289
276 295
276 296
276 308
276 309
276 321
277 245
277 247
277 249
277 250
277 253
277 264
277 268
277 280
277 281
277 282
277 298
277 299
277 300
277 307
277 315
277 317
278 244
278 251
278 260
278 263
278 269
278 285
278 293
278 302
278 311
278 316
278 324
278 326
279 232
279 237
279 238
279 255
279 256
279 258
279 265
279 266
279 272
279 273
279 289
279 291
279 294
279 295
279 303
279 305
279 314
279 320
280 231
280 245
280 249
280 250
280 254
280 264
280 268
280 270
280 277
280 281
280 288
280 299
280 300
280 307
280 308
280 315
280 323
280 329
281 231
281 245
281 249
281 250
281 254
281 264
281 268
281 270
281 276
281 277
281 280
281 288
281 296
281 299
281 300
281 307
281 308
281 315
281 323
281 325
281 329
282 247
282 248
282 250
282 253
282 257
282 268
282 274
282 277
282 286
282 297
282 298
282 299
282 300
282 304
282 317
282 318
282 319
283 242
283 252
283 267
283 275
283 287
283 313
283 322
284 240
284 246
284 251
284 259
284 269
284 271
284 285
284 290
284 302
284 306
284 310
284 328
284 330
285 251
285 260
285 263
285 269
285 278
285 284
285 293
285 302
285 310
285 316
285 324
285 326
286 248
286 253
286 257
286 262
286 268
286 271
286 274
286 282
286 290
286 297
286 298
286 299
286 304
286 317
286 318
286 319
286 327
286 335
287 252
287 263
287 267
287 275
287 283
287 293
287 311
287 313
287 322
287 332
288 254
288 264
288 270
288 276
288 280
288 281
288 295
288 296
288 300
288 307
288 308
288 309
288 321
288 323
288 325
288 329
289 238
289 243
289 256
289 265
289 266
289 273
289 276
289 279
289 294
289 295
289 296
289 303
289 309
289 314
289 320
289 321
289 339
290 239
290 257
290 259
290 262
290 271
290 274
290 284
290 286
290 297
290 304
290 306
290 318
290 327
290 328
291 255
291 258
291 261
291 266
291 272
291 279
291 292
291 294
291 301
291 303
291 305
291 312
291 314
291 336
292 255
292 258
292 261
292 272
292 291
292 301
292 305
292 312
292 333
293 244
293 252
293 260
293 263
293 275
293 278
293 285
293 287
293 311
293 313
293 316
293 326
293 334
294 255
294 265
294 266
294 272
294 273
294 279
294 289
294 291
294 303
294 305
294 314
294 320
294 336
294 339
295 243
295 256
295 265
295 270
295 273
295 276
295 279
295 288
295 289
295 296
295 303
295 308
295 309
295 314
295 320
295 321
295 338
296 254
296 256
296 270
296 273
296 276
296 281
296 288
296 289
296 295
296 308
296 309
296 320
296 321
296 323
296 325
296 338
296 342
297 257
297 262
297 271
297 274
297 282
297 286
297 290
297 298
297 304
297 306
297 318
297 319
297 327
297 328
297 335
298 253
298 257
298 268
298 274
298 277
298 282
298 286
298 297
298 299
298 300
298 304
298 315
298 317
298 318
298 319
298 331
298 335
298 344
298 347
299 250
299 253
299 268
299 277
299 280
299 281
299 282
299 286
299 298
299 300
299 304
299 307
299 315
299 317
299 319
299 329
299 331
299 344
299 348
300 249
300 250
300 264
300 268
300 277
300 280
300 281
300 282
300 288
300 298
300 299
300 307
300 308
300 315
300 317
300 323
300 329
300 331
300 348
300 350
301 261
301 272
301 291
301 292
301 305
301 312
301 333
301 345
302 269
302 278
302 284
302 285
302 310
302 316
302 324
302 326
302 330
302 337
302 343
303 265
303 266
303 272
303 273
303 279
303 289
303 291
303 294
303 295
303 305
303 309
303 314
303 320
303 336
303 339
303 340
303 353
304 257
304 274
304 282
304 286
304 290
304 297
304 298
304 299
304 306
304 317
304 318
304 319
304 327
304 335
304 347
305 255
305 258
305 266
305 272
305 279
305 291
305 292
305 294
305 301
305 303
305 312
305 314
305 333
305 336
305 357
306 259
306 262
306 271
306 274
306 284
306 290
306 297
306 304
306 310
306 318
306 327
306 328
306 330
306 335
306 341
306 351
307 264
307 277
307 280
307 281
307 288
307 299
307 300
307 308
307 315
307 323
307 325
307 329
307 331
307 346
307 348
307 350
308 264
308 270
308 276
308 280
308 281
308 288
308 295
308 296
308 300
308 307
308 309
308 315
308 321
308 323
308 325
308 329
308 338
308 342
308 346
308 350
309 270
309 273
309 276
309 288
309 289
309 295
309 296
309 303
309 308
309 314
309 320
309 321
309 325
309 338
309 339
309 340
309 342
309 359
310 269
310 284
310 285
310 302
310 306
310 316
310 324
310 328
310 330
310 343
310 352
311 263
311 275
311 278
311 287
311 293
311 313
311 316
311 322
311 326
311 332
311 334
311 337
311 354
311 355
312 272
312 291
312 292
312 301
312 305
312 333
312 336
312 345
312 362
313 267
313 275
313 283
313 287
313 293
313 311
313 322
313 326
313 332
313 334
313 349
313 354
313 358
314 279
314 289
314 291
314 294
314 295
314 303
314 305
314 309
314 320
314 336
314 339
314 340
314 353
314 357
314 360
314 366
315 277
315 280
315 281
315 298
315 299
315 300
315 307
315 308
315 317
315 319
315 323
315 325
315 329
315 331
315 344
315 348
315 350
315 365
316 278
316 285
316 293
316 302
316 310
316 311
316 324
316 326
316 334
316 337
316 343
316 355
316 356
316 368
317 268
317 277
317 282
317 286
317 298
317 299
317 300
317 304
317 315
317 318
317 319
317 331
317 335
317 344
317 347
317 348
317 364
318 274
318 282
318 286
318 290
318 297
318 298
318 304
318 306
318 317
318 319
318 327
318 328
318 335
318 344
318 347
318 351
318 367
319 274
319 282
319 286
319 297
319 298
319 299
319 304
319 315
319 317
319 318
319 327
319 331
319 335
319 344
319 347
319 364
320 273
320 279
320 289
320 294
320 295
320 296
320 303
320 309
320 314
320 321
320 338
320 339
320 340
320 342
320 353
320 359
320 360
321 273
321 276
321 288
321 289
321 295
321 296
321 308
321 309
321 320
321 323
321 325
321 338
321 340
321 342
321 346
321 359
321 360
321 361
322 275
322 283
322 287
322 311
322 313
322 332
322 334
322 349
322 354
322 358
322 371
323 280
323 281
323 288
323 296
323 300
323 307
323 308
323 315
323 321
323 325
323 329
323 331
323 342
323 346
323 348
323 350
323 361
323 363
324 278
324 285
324 302
324 310
324 316
324 326
324 330
324 337
324 343
324 352
324 355
324 356
324 368
325 281
325 288
325 296
325 307
325 308
325 309
325 315
325 321
325 323
325 329
325 338
325 342
325 346
325 350
325 359
325 361
325 363
326 278
326 285
326 293
326 302
326 311
326 313
326 316
326 324
326 332
326 334
326 337
326 343
326 354
326 355
326 356
326 368
326 372
327 274
327 286
327 290
327 297
327 304
327 306
327 318
327 319
327 328
327 335
327 341
327 347
327 351
327 367
327 374
328 284
328 290
328 297
328 306
328 310
328 318
328 327
328 330
328 335
328 341
328 351
328 352
328 367
328 369
328 374
329 280
329 281
329 288
329 299
329 300
329 307
329 308
329 315
329 323
329 325
329 331
329 342
329 346
329 348
329 350
329 361
329 363
329 365
329 382
330 284
330 302
330 306
330 310
330 324
330 328
330 341
330 343
330 352
330 356
330 369
330 373
331 298
331 299
331 300
331 307
331 315
331 317
331 319
331 323
331 329
331 344
331 346
331 347
331 348
331 350
331 363
331 364
331 365
331 380
332 287
332 311
332 313
332 322
332 326
332 334
332 349
332 354
332 355
332 358
332 371
332 376
333 292
333 301
333 305
333 312
333 336
333 345
333 357
333 362
333 377
334 293
334 311
334 313
334 316
334 322
334 326
334 332
334 337
334 349
334 354
334 355
334 356
334 358
334 368
334 372
334 376
335 286
335 297
335 298
335 304
335 306
335 317
335 318
335 319
335 327
335 328
335 341
335 344
335 347
335 351
335 364
335 367
335 374
335 375
336 291
336 294
336 303
336 305
336 312
336 314
336 333
336 339
336 345
336 353
336 357
336 362
336 366
336 370
336 377
336 384
337 302
337 311
337 316
337 324
337 326
337 334
337 343
337 352
337 354
337 355
337 356
337 368
337 372
337 373
338 295
338 296
338 308
338 309
338 320
338 321
338 325
338 339
338 340
338 342
338 346
338 353
338 359
338 360
338 361
338 378
338 379
338 383
339 289
339 294
339 303
339 309
339 314
339 320
339 336
339 338
339 340
339 353
339 357
339 359
339 360
339 366
339 370
339 378
339 386
340 303
340 309
340 314
340 320
340 321
340 338
340 339
340 342
340 353
340 359
340 360
340 361
340 366
340 378
340 379
340 386
340 395
341 306
341 327
341 328
341 330
341 335
341 351
341 352
341 367
341 369
341 374
341 390
341 392
342 296
342 308
342 309
342 320
342 321
342 323
342 325
342 329
342 338
342 340
342 346
342 350
342 359
342 360
342 361
342 363
342 378
342 379
342 382
342 383
342 385
342 398
343 302
343 310
343 316
343 324
343 326
343 330
343 337
343 352
343 355
343 356
343 368
343 373
343 393
343 399
344 298
344 299
344 315
344 317
344 318
344 319
344 331
344 335
344 347
344 348
344 350
344 364
344 365
344 375
344 380
344 381
345 301
345 312
345 333
345 336
345 357
345 362
345 377
345 391
346 307
346 308
346 321
346 323
346 325
346 329
346 331
346 338
346 342
346 348
346 350
346 359
346 361
346 363
346 379
346 382
346 383
346 385
347 298
347 304
347 317
347 318
347 319
347 327
347 331
347 335
347 344
347 348
347 351
347 364
347 365
347 367
347 375
347 380
347 381
347 394
348 299
348 300
348 307
348 315
348 317
348 323
348 329
348 331
348 344
348 346
348 347
348 350
348 363
348 364
348 365
348 380
348 381
348 382
348 387
349 313
349 322
349 332
349 334
349 354
349 358
349 371
349 376
349 388
349 396
350 300
350 307
350 308
350 315
350 323
350 325
350 329
350 331
350 342
350 344
350 346
350 348
350 361
350 363
350 364
350 365
350 380
350 382
350 385
350 387
351 306
351 318
351 327
351 328
351 335
351 341
351 347
351 367
351 369
351 374
351 375
351 392
351 397
352 310
352 324
352 328
352 330
352 337
352 341
352 343
352 356
352 369
352 373
352 390
352 399
353 303
353 314
353 320
353 336
353 338
353 339
353 340
353 357
353 359
353 360
353 366
353 370
353 378
353 384
353 386
353 395
354 311
354 313
354 322
354 326
354 332
354 334
354 337
354 349
354 355
354 358
354 368
354 371
354 372
354 376
354 389
354 396
355 311
355 316
355 324
355 326
355 332
355 334
355 337
355 343
355 354
355 356
355 358
355 368
355 372
355 376
355 389
355 393
356 316
356 324
356 326
356 330
356 334
356 337
356 343
356 352
356 355
356 368
356 372
356 373
356 393
356 399
357 305
357 314
357 333
357 336
357 339
357 345
357 353
357 362
357 366
357 370
357 377
357 384
357 386
358 313
358 322
358 332
358 334
358 349
358 354
358 355
358 371
358 372
358 376
358 388
358 389
358 396
359 309
359 320
359 321
359 325
359 338
359 339
359 340
359 342
359 346
359 353
359 360
359 361
359 363
359 366
359 378
359 379
359 383
359 385
359 395
359 398
360 314
360 320
360 321
360 338
360 339
360 340
360 342
360 353
360 359
360 361
360 366
360 378
360 379
360 383
360 386
360 395
360 398
361 321
361 323
361 325
361 329
361 338
361 340
361 342
361 346
361 350
361 359
361 360
361 363
361 378
361 379
361 382
361 383
361 385
361 395
361 398
362 312
362 333
362 336
362 345
362 357
362 370
362 377
362 384
362 391
363 323
363 325
363 329
363 331
363 342
363 346
363 348
363 350
363 359
363 361
363 365
363 379
363 380
363 382
363 383
363 385
363 387
364 317
364 319
364 331
364 335
364 344
364 347
364 348
364 350
364 365
364 375
364 380
364 381
364 387
364 394
365 315
365 329
365 331
365 344
365 347
365 348
365 350
365 363
365 364
365 375
365 380
365 381
365 382
365 387
366 314
366 336
366 339
366 340
366 353
366 357
366 359
366 360
366 370
366 378
366 384
366 386
366 395
367 318
367 327
367 328
367 335
367 341
367 347
367 351
367 369
367 374
367 375
367 381
367 392
367 394
367 397
368 316
368 324
368 326
368 334
368 337
368 343
368 354
368 355
368 356
368 372
368 373
368 376
368 389
368 393
368 399
369 328
369 330
369 341
369 351
369 352
369 367
369 373
369 374
369 390
369 392
369 397
370 336
370 339
370 353
370 357
370 362
370 366
370 377
370 384
370 386
371 322
371 332
371 349
371 354
371 358
371 376
371 388
371 396
372 326
372 334
372 337
372 354
372 355
372 356
372 358
372 368
372 376
372 389
372 393
373 330
373 337
373 343
373 352
373 356
373 368
373 369
373 390
373 393
373 399
374 327
374 328
374 335
374 341
374 351
374 367
374 369
374 375
374 390
374 392
374 394
374 397
375 335
375 344
375 347
375 351
375 364
375 365
375 367
375 374
375 380
375 381
375 394
375 397
376 332
376 334
376 349
376 354
376 355
376 358
376 368
376 371
376 372
376 388
376 389
376 396
377 333
377 336
377 345
377 357
377 362
377 370
377 384
377 391
378 338
378 339
378 340
378 342
378 353
378 359
378 360
378 361
378 366
378 379
378 383
378 386
378 395
378 398
379 338
379 340
379 342
379 346
379 359
379 360
379 361
379 363
379 378
379 382
379 383
379 385
379 395
379 398
380 331
380 344
380 347
380 348
380 350
380 363
380 364
380 365
380 375
380 381
380 382
380 387
381 344
381 347
381 348
381 364
381 365
381 367
381 375
381 380
381 387
381 394
381 397
382 329
382 342
382 346
382 348
382 350
382 361
382 363
382 365
382 379
382 380
382 383
382 385
382 387
383 338
383 342
383 346
383 359
383 360
383 361
383 363
383 378
383 379
383 382
383 385
383 387
383 395
383 398
384 336
384 353
384 357
384 362
384 366
384 370
384 377
384 386
385 342
385 346
385 350
385 359
385 361
385 363
385 379
385 382
385 383
385 387
385 398
386 339
386 340
386 353
386 357
386 360
386 366
386 370
386 378
386 384
386 395
386 398
387 348
387 350
387 363
387 364
387 365
387 380
387 381
387 382
387 383
387 385
388 349
388 358
388 371
388 376
388 396
389 354
389 355
389 358
389 368
389 372
389 376
389 393
389 396
390 341
390 352
390 369
390 373
390 374
390 392
390 397
390 399
391 345
391 362
391 377
392 341
392 351
392 367
392 369
392 374
392 390
392 397
393 343
393 355
393 356
393 368
393 372
393 373
393 389
393 399
394 347
394 364
394 367
394 374
394 375
394 381
394 397
395 340
395 353
395 359
395 360
395 361
395 366
395 378
395 379
395 383
395 386
395 398
396 349
396 354
396 358
396 371
396 376
396 388
396 389
397 351
397 367
397 369
397 374
397 375
397 381
397 390
397 392
397 394
398 342
398 359
398 360
398 361
398 378
398 379
398 383
398 385
398 386
398 395
399 343
399 352
399 356
399 368
399 373
399 390
399 393
