1 8
1 11
1 18
1 30
1 40
2 9
2 17
2 22
2 36
2 41
3 5
3 10
3 16
3 20
3 28
3 29
3 42
4 10
4 14
4 21
4 23
4 34
4 39
5 3
5 16
5 20
5 29
5 42
5 49
6 13
6 15
6 19
6 24
6 38
6 44
6 45
7 13
7 19
7 23
7 27
7 33
7 48
8 1
8 12
8 26
8 30
8 31
8 35
8 43
9 2
9 17
9 36
9 50
10 3
10 4
10 14
10 16
10 21
10 28
10 29
10 32
10 34
10 47
10 55
11 1
11 18
11 25
11 30
11 37
11 40
12 8
12 26
12 31
12 35
12 43
13 6
13 7
13 15
13 19
13 24
13 44
13 45
14 4
14 10
14 16
14 21
14 28
14 32
14 34
14 39
14 47
14 55
15 6
15 13
15 24
15 26
15 38
15 45
16 3
16 5
16 10
16 14
16 28
16 29
16 32
16 34
16 56
16 62
17 2
17 9
17 22
17 36
17 41
17 46
17 50
18 1
18 11
18 30
18 35
18 37
18 40
18 51
18 60
19 6
19 7
19 13
19 24
19 27
19 33
19 44
19 48
19 63
20 3
20 5
20 29
20 42
20 49
20 53
20 69
21 4
21 10
21 14
21 23
21 32
21 33
21 34
21 39
21 47
21 52
21 65
22 2
22 17
22 25
22 36
22 37
22 41
22 46
22 54
22 67
23 4
23 7
23 21
23 27
23 33
23 39
23 48
23 52
23 58
24 6
24 13
24 15
24 19
24 38
24 44
24 45
24 64
25 11
25 22
25 37
25 40
25 41
25 46
25 54
25 60
26 8
26 12
26 15
26 31
26 35
26 38
26 43
26 59
26 61
26 70
27 7
27 19
27 23
27 33
27 48
27 52
27 58
27 63
27 68
28 3
28 10
28 14
28 16
28 29
28 32
28 34
28 42
28 47
28 49
28 55
28 56
28 62
29 3
29 5
29 10
29 16
29 20
29 28
29 32
29 42
29 49
29 53
29 56
29 62
29 69
30 1
30 8
30 11
30 18
30 31
30 35
30 40
30 51
30 60
30 66
31 8
31 12
31 26
31 30
31 35
31 38
31 43
31 51
31 59
31 66
31 70
32 10
32 14
32 16
32 21
32 28
32 29
32 34
32 39
32 47
32 55
32 56
32 62
32 71
33 7
33 19
33 21
33 23
33 27
33 39
33 48
33 52
33 58
33 68
33 74
34 4
34 10
34 14
34 16
34 21
34 28
34 32
34 39
34 47
34 55
34 62
34 65
34 71
35 8
35 12
35 18
35 26
35 30
35 31
35 43
35 51
35 59
35 66
35 70
36 2
36 9
36 17
36 22
36 41
36 46
36 50
36 57
36 67
36 72
36 73
37 11
37 18
37 22
37 25
37 40
37 41
37 46
37 54
37 60
37 67
37 76
38 6
38 15
38 24
38 26
38 31
38 43
38 45
38 59
38 61
38 64
38 75
39 4
39 14
39 21
39 23
39 32
39 33
39 34
39 47
39 52
39 65
39 71
39 87
40 1
40 11
40 18
40 25
40 30
40 37
40 51
40 54
40 60
40 76
40 81
41 2
41 17
41 22
41 25
41 36
41 37
41 46
41 50
41 54
41 57
41 67
41 72
41 92
42 3
42 5
42 20
42 28
42 29
42 49
42 53
42 56
42 69
42 79
42 80
43 8
43 12
43 26
43 31
43 35
43 38
43 59
43 61
43 66
43 70
43 86
44 6
44 13
44 19
44 24
44 45
44 63
44 64
44 68
44 77
44 78
44 83
45 6
45 13
45 15
45 24
45 38
45 44
45 61
45 63
45 64
45 75
45 77
45 83
46 17
46 22
46 25
46 36
46 37
46 41
46 50
46 54
46 67
46 72
46 90
46 92
47 10
47 14
47 21
47 28
47 32
47 34
47 39
47 55
47 62
47 65
47 71
47 84
47 87
47 91
48 7
48 19
48 23
48 27
48 33
48 52
48 58
48 63
48 68
48 74
48 78
48 88
48 89
49 5
49 20
49 28
49 29
49 42
49 53
49 56
49 62
49 69
49 79
49 80
49 94
49 102
50 9
50 17
50 36
50 41
50 46
50 57
50 67
50 72
50 73
50 92
50 98
51 18
51 30
51 31
51 35
51 40
51 60
51 66
51 81
51 82
51 99
51 101
52 21
52 23
52 27
52 33
52 39
52 48
52 58
52 65
52 74
52 87
52 89
53 20
53 29
53 42
53 49
53 56
53 69
53 79
53 80
53 94
53 102
54 22
54 25
54 37
54 40
54 41
54 46
54 60
54 67
54 76
54 81
54 90
54 92
54 95
54 106
55 10
55 14
55 28
55 32
55 34
55 47
55 56
55 62
55 65
55 71
55 79
55 84
55 85
55 91
55 100
56 16
56 28
56 29
56 32
56 42
56 49
56 53
56 55
56 62
56 69
56 79
56 80
56 85
56 94
56 96
56 100
57 36
57 41
57 50
57 72
57 73
57 98
58 23
58 27
58 33
58 48
58 52
58 63
58 65
58 68
58 74
58 88
58 89
58 107
59 26
59 31
59 35
59 38
59 43
59 61
59 66
59 70
59 75
59 86
59 93
59 103
60 18
60 25
60 30
60 37
60 40
60 51
60 54
60 76
60 81
60 82
60 90
60 95
60 106
61 26
61 38
61 43
61 45
61 59
61 64
61 70
61 75
61 77
61 86
61 93
62 16
62 28
62 29
62 32
62 34
62 47
62 49
62 55
62 56
62 71
62 79
62 80
62 84
62 85
62 96
62 100
63 19
63 27
63 44
63 45
63 48
63 58
63 64
63 68
63 77
63 78
63 83
63 88
63 97
63 105
64 24
64 38
64 44
64 45
64 61
64 63
64 75
64 77
64 78
64 83
64 97
64 109
64 113
65 21
65 34
65 39
65 47
65 52
65 55
65 58
65 71
65 74
65 84
65 87
65 91
65 104
65 116
66 30
66 31
66 35
66 43
66 51
66 59
66 70
66 81
66 82
66 86
66 99
66 101
66 103
66 112
67 22
67 36
67 37
67 41
67 46
67 50
67 54
67 72
67 90
67 92
67 114
68 27
68 33
68 44
68 48
68 58
68 63
68 74
68 78
68 83
68 88
68 89
68 97
68 105
68 111
68 124
69 20
69 29
69 42
69 49
69 53
69 56
69 79
69 80
69 94
69 96
69 102
70 26
70 31
70 35
70 43
70 59
70 61
70 66
70 75
70 86
70 93
70 103
70 112
71 32
71 34
71 39
71 47
71 55
71 62
71 65
71 84
71 85
71 87
71 91
71 100
71 104
71 116
71 117
72 36
72 41
72 46
72 50
72 57
72 67
72 73
72 92
72 98
72 110
72 114
72 118
73 36
73 50
73 57
73 72
73 98
73 110
73 118
74 33
74 48
74 52
74 58
74 65
74 68
74 87
74 88
74 89
74 104
74 105
74 107
74 111
74 125
75 38
75 45
75 59
75 61
75 64
75 70
75 77
75 83
75 86
75 93
75 108
75 109
75 113
75 123
76 37
76 40
76 54
76 60
76 81
76 82
76 90
76 95
76 106
76 126
77 44
77 45
77 61
77 63
77 64
77 75
77 78
77 83
77 93
77 97
77 108
77 109
77 113
77 121
78 44
78 48
78 63
78 64
78 68
78 77
78 83
78 88
78 89
78 97
78 105
78 109
78 121
78 124
79 42
79 49
79 53
79 55
79 56
79 62
79 69
79 80
79 85
79 94
79 96
79 100
79 102
79 115
79 120
80 42
80 49
80 53
80 56
80 62
80 69
80 79
80 85
80 94
80 96
80 102
80 120
81 40
81 51
81 54
81 60
81 66
81 76
81 82
81 90
81 95
81 99
81 101
81 106
81 119
81 126
82 51
82 60
82 66
82 76
82 81
82 95
82 99
82 101
82 112
82 119
83 44
83 45
83 63
83 64
83 68
83 75
83 77
83 78
83 97
83 109
83 113
83 121
84 47
84 55
84 62
84 65
84 71
84 85
84 87
84 91
84 100
84 104
84 115
84 117
84 127
85 55
85 56
85 62
85 71
85 79
85 80
85 84
85 91
85 94
85 96
85 100
85 115
85 117
85 120
85 127
85 128
86 43
86 59
86 61
86 66
86 70
86 75
86 93
86 101
86 103
86 112
86 123
86 131
87 39
87 47
87 52
87 65
87 71
87 74
87 84
87 89
87 91
87 104
87 107
87 116
87 117
87 130
88 48
88 58
88 63
88 68
88 74
88 78
88 89
88 97
88 105
88 107
88 111
88 121
88 124
88 125
88 136
89 48
89 52
89 58
89 68
89 74
89 78
89 87
89 88
89 97
89 104
89 105
89 107
89 111
89 124
89 125
90 46
90 54
90 60
90 67
90 76
90 81
90 92
90 95
90 106
90 114
90 122
90 126
90 135
91 47
91 55
91 65
91 71
91 84
91 85
91 87
91 100
91 104
91 115
91 116
91 117
91 127
92 41
92 46
92 50
92 54
92 67
92 72
92 90
92 106
92 110
92 114
92 122
92 135
93 59
93 61
93 70
93 75
93 77
93 86
93 103
93 108
93 113
93 123
94 49
94 53
94 56
94 69
94 79
94 80
94 85
94 96
94 100
94 102
94 115
94 120
94 134
95 54
95 60
95 76
95 81
95 82
95 90
95 99
95 106
95 119
95 126
95 139
96 56
96 62
96 69
96 79
96 80
96 85
96 94
96 100
96 102
96 115
96 120
96 128
96 134
96 143
97 63
97 64
97 68
97 77
97 78
97 83
97 88
97 89
97 105
97 109
97 111
97 113
97 121
97 124
97 133
97 136
98 50
98 57
98 72
98 73
98 110
98 114
98 118
98 132
98 137
98 147
99 51
99 66
99 81
99 82
99 95
99 101
99 103
99 112
99 119
99 126
99 138
99 140
100 55
100 56
100 62
100 71
100 79
100 84
100 85
100 91
100 94
100 96
100 115
100 117
100 120
100 127
100 128
100 143
101 51
101 66
101 81
101 82
101 86
101 99
101 103
101 112
101 119
101 131
101 138
101 140
102 49
102 53
102 69
102 79
102 80
102 94
102 96
102 120
102 134
102 152
103 59
103 66
103 70
103 86
103 93
103 99
103 101
103 108
103 112
103 123
103 131
104 65
104 71
104 74
104 84
104 87
104 89
104 91
104 107
104 111
104 116
104 117
104 125
104 127
104 130
104 142
104 153
105 63
105 68
105 74
105 78
105 88
105 89
105 97
105 107
105 111
105 121
105 124
105 125
105 133
105 136
105 150
106 54
106 60
106 76
106 81
106 90
106 92
106 95
106 122
106 126
106 135
106 139
107 58
107 74
107 87
107 88
107 89
107 104
107 105
107 111
107 116
107 124
107 125
107 130
107 144
108 75
108 77
108 93
108 103
108 109
108 113
108 123
108 129
108 141
108 145
108 149
109 64
109 75
109 77
109 78
109 83
109 97
109 108
109 113
109 121
109 129
109 133
109 136
109 145
109 149
109 154
110 72
110 73
110 92
110 98
110 114
110 118
110 132
110 137
110 146
110 147
111 68
111 74
111 88
111 89
111 97
111 104
111 105
111 107
111 116
111 124
111 125
111 130
111 136
111 144
111 150
112 66
112 70
112 82
112 86
112 99
112 101
112 103
112 119
112 131
112 138
112 140
112 148
113 64
113 75
113 77
113 83
113 93
113 97
113 108
113 109
113 121
113 123
113 129
113 133
113 141
113 145
113 149
114 67
114 72
114 90
114 92
114 98
114 110
114 118
114 122
114 135
114 137
114 146
115 79
115 84
115 85
115 91
115 94
115 96
115 100
115 117
115 120
115 127
115 128
115 143
115 151
115 155
116 65
116 71
116 87
116 91
116 104
116 107
116 111
116 117
116 125
116 127
116 130
116 142
116 144
116 151
116 153
117 71
117 84
117 85
117 87
117 91
117 100
117 104
117 115
117 116
117 127
117 128
117 130
117 142
117 151
118 72
118 73
118 98
118 110
118 114
118 132
118 137
118 147
119 81
119 82
119 95
119 99
119 101
119 112
119 126
119 131
119 138
119 139
119 140
119 148
119 160
120 79
120 80
120 85
120 94
120 96
120 100
120 102
120 115
120 127
120 128
120 134
120 143
120 152
120 155
120 158
121 77
121 78
121 83
121 88
121 97
121 105
121 109
121 113
121 124
121 129
121 133
121 136
121 149
121 154
122 90
122 92
122 106
122 114
122 126
122 135
122 146
122 156
122 162
123 75
123 86
123 93
123 103
123 108
123 113
123 129
123 131
123 141
123 145
123 157
124 68
124 78
124 88
124 89
124 97
124 105
124 107
124 111
124 121
124 125
124 133
124 136
124 144
124 150
124 154
124 161
125 74
125 88
125 89
125 104
125 105
125 107
125 111
125 116
125 124
125 130
125 136
125 144
125 150
125 153
126 76
126 81
126 90
126 95
126 99
126 106
126 119
126 122
126 135
126 138
126 139
126 156
126 159
127 84
127 85
127 91
127 100
127 104
127 115
127 116
127 117
127 120
127 128
127 130
127 142
127 143
127 151
127 155
128 85
128 96
128 100
128 115
128 117
128 120
128 127
128 142
128 143
128 151
128 155
128 158
128 167
128 173
129 108
129 109
129 113
129 121
129 123
129 133
129 141
129 145
129 149
129 154
129 157
129 165
129 171
130 87
130 104
130 107
130 111
130 116
130 117
130 125
130 127
130 142
130 144
130 151
130 153
130 169
131 86
131 101
131 103
131 112
131 119
131 123
131 138
131 140
131 141
131 148
131 157
131 164
131 177
132 98
132 110
132 118
132 137
132 146
132 147
133 97
133 105
133 109
133 113
133 121
133 124
133 129
133 136
133 145
133 149
133 154
133 161
133 171
133 172
134 94
134 96
134 102
134 120
134 143
134 152
134 155
134 158
134 174
135 90
135 92
135 106
135 114
135 122
135 126
135 146
135 156
135 159
135 162
135 163
135 179
136 88
136 97
136 105
136 109
136 111
136 121
136 124
136 125
136 133
136 144
136 150
136 154
136 161
136 166
136 172
136 175
137 98
137 110
137 114
137 118
137 132
137 146
137 147
137 163
138 99
138 101
138 112
138 119
138 126
138 131
138 139
138 140
138 148
138 159
138 160
138 178
139 95
139 106
139 119
139 126
139 138
139 140
139 156
139 159
139 160
140 99
140 101
140 112
140 119
140 131
140 138
140 139
140 148
140 160
140 164
140 177
140 178
141 108
141 113
141 123
141 129
141 131
141 145
141 149
141 157
141 165
141 170
141 182
142 104
142 116
142 117
142 127
142 128
142 130
142 151
142 153
142 168
142 169
142 180
142 183
143 96
143 100
143 115
143 120
143 127
143 128
143 134
143 151
143 152
143 155
143 158
143 167
143 173
143 174
143 186
144 107
144 111
144 116
144 124
144 125
144 130
144 136
144 150
144 153
144 166
144 175
144 176
144 180
145 108
145 109
145 113
145 123
145 129
145 133
145 141
145 149
145 154
145 157
145 165
145 170
145 171
145 181
145 182
146 110
146 114
146 122
146 132
146 135
146 137
146 147
146 162
146 163
146 179
146 184
147 98
147 110
147 118
147 132
147 137
147 146
147 163
147 184
147 191
148 112
148 119
148 131
148 138
148 140
148 160
148 164
148 177
149 108
149 109
149 113
149 121
149 129
149 133
149 141
149 145
149 154
149 157
149 165
149 171
149 172
149 181
149 182
149 185
150 105
150 111
150 124
150 125
150 136
150 144
150 154
150 161
150 166
150 172
150 175
150 176
150 190
151 115
151 116
151 117
151 127
151 128
151 130
151 142
151 143
151 153
151 155
151 167
151 168
151 169
151 180
151 183
152 102
152 120
152 134
152 143
152 155
152 158
152 173
152 174
152 188
153 104
153 116
153 125
153 130
153 142
153 144
153 151
153 168
153 169
153 176
153 180
154 109
154 121
154 124
154 129
154 133
154 136
154 145
154 149
154 150
154 161
154 171
154 172
154 175
154 181
154 185
155 115
155 120
155 127
155 128
155 134
155 143
155 151
155 152
155 158
155 167
155 168
155 173
155 174
155 186
155 192
155 198
156 122
156 126
156 135
156 139
156 159
156 162
156 179
156 187
156 197
157 123
157 129
157 131
157 141
157 145
157 149
157 164
157 165
157 170
157 181
157 182
157 189
157 193
158 120
158 128
158 134
158 143
158 152
158 155
158 167
158 173
158 174
158 186
158 188
158 192
159 126
159 135
159 138
159 139
159 156
159 160
159 162
159 178
159 179
159 187
159 197
160 119
160 138
160 139
160 140
160 148
160 159
160 164
160 177
160 178
160 187
160 195
160 200
161 124
161 133
161 136
161 150
161 154
161 166
161 171
161 172
161 175
161 176
161 185
161 190
161 202
162 122
162 135
162 146
162 156
162 159
162 163
162 179
162 194
162 197
162 203
163 135
163 137
163 146
163 147
163 162
163 179
163 184
163 191
163 194
164 131
164 140
164 148
164 157
164 160
164 170
164 177
164 178
164 189
164 195
165 129
165 141
165 145
165 149
165 157
165 170
165 171
165 181
165 182
165 185
165 189
165 193
165 205
166 136
166 144
166 150
166 161
166 172
166 175
166 176
166 180
166 190
166 201
166 209
166 210
167 128
167 143
167 151
167 155
167 158
167 168
167 169
167 173
167 174
167 183
167 186
167 192
167 198
167 207
168 142
168 151
168 153
168 155
168 167
168 169
168 173
168 180
168 183
168 186
168 196
168 198
168 207
168 212
169 130
169 142
169 151
169 153
169 167
169 168
169 180
169 183
169 196
169 199
169 212
170 141
170 145
170 157
170 164
170 165
170 177
170 181
170 182
170 189
170 193
170 204
171 129
171 133
171 145
171 149
171 154
171 161
171 165
171 172
171 181
171 182
171 185
171 193
171 202
171 205
172 133
172 136
172 149
172 150
172 154
172 161
172 166
172 171
172 175
172 181
172 185
172 190
172 202
173 128
173 143
173 152
173 155
173 158
173 167
173 168
173 174
173 183
173 186
173 188
173 192
173 198
173 206
173 207
174 134
174 143
174 152
174 155
174 158
174 167
174 173
174 186
174 188
174 192
174 198
174 206
175 136
175 144
175 150
175 154
175 161
175 166
175 172
175 176
175 185
175 190
175 201
175 202
175 209
175 210
176 144
176 150
176 153
176 161
176 166
176 175
176 180
176 190
176 199
176 201
176 209
176 210
176 211
177 131
177 140
177 148
177 160
177 164
177 170
177 178
177 189
177 195
177 200
177 204
177 208
178 138
178 140
178 159
178 160
178 164
178 177
178 187
178 195
178 200
178 220
178 221
179 135
179 146
179 156
179 159
179 162
179 163
179 187
179 194
179 197
179 203
179 214
180 142
180 144
180 151
180 153
180 166
180 168
180 169
180 176
180 183
180 196
180 199
180 201
180 211
180 219
181 145
181 149
181 154
181 157
181 165
181 170
181 171
181 172
181 182
181 185
181 189
181 193
181 205
181 215
181 216
182 141
182 145
182 149
182 157
182 165
182 170
182 171
182 181
182 185
182 189
182 193
182 204
182 205
182 215
183 142
183 151
183 167
183 168
183 169
183 173
183 180
183 186
183 196
183 198
183 199
183 207
183 212
183 219
183 226
184 146
184 147
184 163
184 191
184 194
184 213
184 214
185 149
185 154
185 161
185 165
185 171
185 172
185 175
185 181
185 182
185 190
185 193
185 202
185 205
185 216
185 217
185 227
186 143
186 155
186 158
186 167
186 168
186 173
186 174
186 183
186 188
186 192
186 198
186 206
186 207
186 218
187 156
187 159
187 160
187 178
187 179
187 197
187 200
187 203
187 220
187 222
188 152
188 158
188 173
188 174
188 186
188 192
188 198
188 206
188 229
189 157
189 164
189 165
189 170
189 177
189 181
189 182
189 193
189 204
189 205
189 215
189 230
190 150
190 161
190 166
190 172
190 175
190 176
190 185
190 199
190 201
190 202
190 209
190 210
190 211
190 217
190 223
190 231
191 147
191 163
191 184
191 213
192 155
192 158
192 167
192 173
192 174
192 186
192 188
192 198
192 206
192 207
192 218
192 229
193 157
193 165
193 170
193 171
193 181
193 182
193 185
193 189
193 204
193 205
193 215
193 216
193 225
193 230
194 162
194 163
194 179
194 184
194 197
194 203
194 213
194 214
194 224
194 235
195 160
195 164
195 177
195 178
195 200
195 208
195 221
195 228
196 168
196 169
196 180
196 183
196 199
196 207
196 211
196 212
196 219
196 226
197 156
197 159
197 162
197 179
197 187
197 194
197 200
197 203
197 220
197 222
197 224
198 155
198 167
198 168
198 173
198 174
198 183
198 186
198 188
198 192
198 206
198 207
198 212
198 218
198 232
199 169
199 176
199 180
199 183
199 190
199 196
199 201
199 209
199 210
199 211
199 212
199 219
199 233
200 160
200 177
200 178
200 187
200 195
200 197
200 208
200 220
200 221
200 228
201 166
201 175
201 176
201 180
201 190
201 199
201 209
201 210
201 211
201 219
201 223
201 231
201 233
202 161
202 171
202 172
202 175
202 185
202 190
202 209
202 210
202 216
202 217
202 223
202 227
202 231
203 162
203 179
203 187
203 194
203 197
203 214
203 222
203 224
203 244
204 170
204 177
204 182
204 189
204 193
204 205
204 208
204 215
204 225
204 230
204 236
204 239
205 165
205 171
205 181
205 182
205 185
205 189
205 193
205 204
205 215
205 216
205 217
205 225
205 227
205 230
205 248
206 173
206 174
206 186
206 188
206 192
206 198
206 207
206 218
206 229
206 232
206 237
207 167
207 168
207 173
207 183
207 186
207 192
207 196
207 198
207 206
207 212
207 218
207 219
207 226
207 232
207 238
207 243
208 177
208 195
208 200
208 204
208 221
208 228
208 239
208 246
209 166
209 175
209 176
209 190
209 199
209 201
209 202
209 210
209 211
209 217
209 223
209 231
209 233
209 245
209 249
210 166
210 175
210 176
210 190
210 199
210 201
210 202
210 209
210 211
210 223
210 231
210 233
210 245
210 254
211 176
211 180
211 190
211 196
211 199
211 201
211 209
211 210
211 212
211 219
211 226
211 233
211 241
211 254
212 168
212 169
212 183
212 196
212 198
212 199
212 207
212 211
212 218
212 219
212 226
212 232
212 238
212 241
212 243
213 184
213 191
213 194
213 214
213 235
213 242
213 252
214 179
214 184
214 194
214 203
214 213
214 224
214 235
214 242
214 244
214 252
215 181
215 182
215 189
215 193
215 204
215 205
215 216
215 225
215 230
215 236
215 248
215 257
216 181
216 185
216 193
216 202
216 205
216 215
216 217
216 223
216 225
216 227
216 230
216 247
216 248
216 250
216 253
217 185
217 190
217 202
217 205
217 209
217 216
217 223
217 225
217 227
217 231
217 245
217 247
217 249
217 250
217 253
218 186
218 192
218 198
218 206
218 207
218 212
218 226
218 229
218 232
218 237
218 238
218 255
219 180
219 183
219 196
219 199
219 201
219 207
219 211
219 212
219 226
219 233
219 238
219 241
219 243
219 256
220 178
220 187
220 197
220 200
220 221
220 222
220 228
220 240
220 246
220 251
221 178
221 195
221 200
221 208
221 220
221 222
221 228
221 240
221 246
221 251
222 187
222 197
222 203
222 220
222 221
222 224
222 240
222 244
222 251
222 260
223 190
223 201
223 202
223 209
223 210
223 216
223 217
223 227
223 231
223 233
223 245
223 249
223 250
224 194
224 197
224 203
224 214
224 222
224 235
224 244
224 260
224 263
225 193
225 204
225 205
225 215
225 216
225 217
225 227
225 230
225 236
225 247
225 248
225 253
225 257
226 183
226 196
226 207
226 211
226 212
226 218
226 219
226 232
226 233
226 238
226 241
226 243
226 256
226 265
227 185
227 202
227 205
227 216
227 217
227 223
227 225
227 231
227 245
227 247
227 248
227 249
227 250
227 253
227 268
228 195
228 200
228 208
228 220
228 221
228 239
228 240
228 246
228 259
229 188
229 192
229 206
229 218
229 232
229 234
229 237
229 255
229 258
229 261
230 189
230 193
230 204
230 205
230 215
230 216
230 225
230 236
230 239
230 248
230 253
230 257
230 262
231 190
231 201
231 202
231 209
231 210
231 217
231 223
231 227
231 233
231 245
231 249
231 250
231 254
231 264
232 198
232 206
232 207
232 212
232 218
232 226
232 229
232 237
232 238
232 243
232 255
232 256
232 265
232 266
233 199
233 201
233 209
233 210
233 211
233 219
233 223
233 226
233 231
233 241
233 243
233 245
233 254
233 264
233 270
234 229
234 237
234 258
234 261
235 194
235 213
235 214
235 224
235 242
235 244
235 252
235 263
235 275
236 204
236 215
236 225
236 230
236 239
236 248
236 257
236 259
236 262
236 271
236 274
237 206
237 218
237 229
237 232
237 234
237 238
237 255
237 258
237 266
237 272
238 207
238 212
238 218
238 219
238 226
238 232
238 237
238 241
238 243
238 255
238 256
238 265
238 266
238 273
238 279
239 204
239 208
239 228
239 230
239 236
239 246
239 257
239 259
239 262
239 271
240 220
240 221
240 222
240 228
240 246
240 251
240 259
240 260
240 269
241 211
241 212
241 219
241 226
241 233
241 238
241 243
241 254
241 256
241 265
241 270
241 273
241 276
242 213
242 214
242 235
242 252
242 267
242 275
242 283
243 207
243 212
243 219
243 226
243 232
243 233
243 238
243 241
243 256
243 265
243 273
243 276
244 203
244 214
244 222
244 224
244 235
244 251
244 252
244 260
244 263
244 278
245 209
245 210
245 217
245 223
245 227
245 231
245 233
245 247
245 249
245 250
245 254
245 264
245 268
245 277
245 280
245 281
246 208
246 220
246 221
246 228
246 239
246 240
246 251
246 259
246 262
246 269
246 271
246 284
247 216
247 217
247 225
247 227
247 245
247 248
247 249
247 250
247 253
247 257
247 268
247 277
247 282
248 205
248 215
248 216
248 225
248 227
248 230
248 236
248 247
248 250
248 253
248 257
248 268
248 274
248 282
248 286
249 209
249 217
249 223
249 227
249 231
249 245
249 247
249 250
249 254
249 264
249 268
249 277
249 280
249 281
250 216
250 217
250 223
250 227
250 231
250 245
250 247
250 248
250 249
250 253
250 264
250 268
250 277
250 280
251 220
251 221
251 222
251 240
251 244
251 246
251 260
251 269
251 278
251 285
252 213
252 214
252 235
252 242
252 244
252 263
252 267
252 275
252 287
252 293
253 216
253 217
253 225
253 227
253 230
253 247
253 248
253 250
253 257
253 268
253 277
253 282
253 286
254 210
254 211
254 231
254 233
254 241
254 245
254 249
254 264
254 270
254 276
254 281
254 288
255 218
255 229
255 232
255 237
255 238
255 258
255 261
255 265
255 266
255 272
255 279
255 291
255 294
256 219
256 226
256 232
256 238
256 241
256 243
256 265
256 266
256 270
256 273
256 276
256 279
256 289
256 295
257 215
257 225
257 230
257 236
257 239
257 247
257 248
257 253
257 262
257 271
257 274
257 282
257 286
257 297
258 229
258 234
258 237
258 255
258 261
258 266
258 272
258 291
258 292
259 228
259 236
259 239
259 240
259 246
259 262
259 271
259 284
259 290
260 222
260 224
260 240
260 244
260 251
260 263
260 269
260 278
260 285
260 293
261 229
261 234
261 255
261 258
261 272
261 292
261 301
262 230
262 236
262 239
262 246
262 257
262 259
262 271
262 274
262 290
262 297
263 224
263 235
263 244
263 252
263 260
263 275
263 278
263 287
263 293
264 231
264 233
264 245
264 249
264 250
264 254
264 270
264 276
264 280
264 281
264 288
264 307
265 226
265 232
265 238
265 241
265 243
265 255
265 256
265 266
265 273
265 279
265 289
265 294
265 295
265 303
266 232
266 237
266 238
266 255
266 256
266 258
266 265
266 272
266 273
266 279
266 289
266 291
266 294
266 303
267 242
267 252
267 275
267 283
267 287
268 227
268 245
268 247
268 248
268 249
268 250
268 253
268 277
268 280
268 282
268 298
268 299
268 300
269 240
269 246
269 251
269 260
269 278
269 284
269 285
269 302
269 310
270 233
270 241
270 254
270 256
270 264
270 273
270 276
270 281
270 288
270 295
270 296
270 308
271 236
271 239
271 246
271 257
271 259
271 262
271 274
271 284
271 290
271 297
271 306
272 237
272 255
272 258
272 261
272 266
272 279
272 291
272 292
272 294
272 305
272 312
273 238
273 241
273 243
273 256
273 265
273 266
273 270
273 276
273 279
273 289
273 294
273 295
273 296
273 303
273 309
273 320
274 236
274 248
274 257
274 262
274 271
274 282
274 286
274 290
274 297
274 298
274 304
274 306
274 318
275 235
275 242
275 252
275 263
275 267
275 283
275 287
275 293
275 311
275 313
276 241
276 243
276 254
276 256
276 264
276 270
276 273
276 288
276 289
276 295
276 296
276 308
276 309
276 321
277 245
277 247
277 249
277 250
277 253
277 268
277 280
277 281
277 282
277 298
277 299
277 300
277 307
277 315
277 317
278 244
278 251
278 260
278 263
278 269
278 285
278 293
278 302
278 311
278 316
279 238
279 255
279 256
279 265
279 266
279 272
279 273
279 289
279 291
279 294
279 303
279 305
279 314
280 245
280 249
280 250
280 264
280 268
280 277
280 281
280 288
280 299
280 300
280 307
280 308
280 315
281 245
281 249
281 254
281 264
281 270
281 277
281 280
281 288
281 300
281 307
281 308
281 315
281 323
282 247
282 248
282 253
282 257
282 268
282 274
282 277
282 286
282 297
282 298
282 299
282 304
282 317
282 318
282 319
283 242
283 267
283 275
283 287
283 313
283 322
284 246
284 259
284 269
284 271
284 285
284 290
284 302
284 306
284 310
284 330
285 251
285 260
285 269
285 278
285 284
285 293
285 302
285 310
285 316
285 324
286 248
286 253
286 257
286 274
286 282
286 290
286 297
286 298
286 304
286 317
286 318
286 319
286 327
287 252
287 263
287 267
287 275
287 283
287 293
287 311
287 313
287 322
287 332
288 254
288 264
288 270
288 276
288 280
288 281
288 295
288 296
288 307
288 308
288 309
288 321
288 323
288 325
289 256
289 265
289 266
289 273
289 276
289 279
289 294
289 295
289 296
289 303
289 309
289 314
289 320
290 259
290 262
290 271
290 274
290 284
290 286
290 297
290 306
290 327
290 328
291 255
291 258
291 266
291 272
291 279
291 292
291 294
291 301
291 303
291 305
291 312
291 314
292 258
292 261
292 272
292 291
292 301
292 305
292 312
292 333
293 252
293 260
293 263
293 275
293 278
293 285
293 287
293 311
293 313
293 316
293 326
293 334
294 255
294 265
294 266
294 272
294 273
294 279
294 289
294 291
294 303
294 305
294 314
294 320
295 256
295 265
295 270
295 273
295 276
295 288
295 289
295 296
295 303
295 309
295 320
295 321
295 338
296 270
296 273
296 276
296 288
296 289
296 295
296 308
296 309
296 320
296 321
296 325
296 338
297 257
297 262
297 271
297 274
297 282
297 286
297 290
297 298
297 304
297 306
297 318
297 319
297 327
297 328
297 335
298 268
298 274
298 277
298 282
298 286
298 297
298 299
298 300
298 304
298 315
298 317
298 318
298 319
299 268
299 277
299 280
299 282
299 298
299 300
299 304
299 307
299 315
299 317
299 319
299 331
299 344
300 268
300 277
300 280
300 281
300 298
300 299
300 307
300 308
300 315
300 317
300 323
300 329
300 331
301 261
301 291
301 292
301 305
301 312
301 333
301 345
302 269
302 278
302 284
302 285
302 310
302 316
302 324
302 330
302 337
302 343
303 265
303 266
303 273
303 279
303 289
303 291
303 294
303 295
303 305
303 309
303 314
303 320
303 336
303 339
304 274
304 282
304 286
304 297
304 298
304 299
304 317
304 318
304 319
304 327
304 335
304 347
305 272
305 279
305 291
305 292
305 294
305 301
305 303
305 312
305 314
305 333
305 336
306 271
306 274
306 284
306 290
306 297
306 318
306 327
306 328
306 341
307 264
307 277
307 280
307 281
307 288
307 299
307 300
307 308
307 315
307 323
307 325
307 329
307 331
307 346
307 350
308 270
308 276
308 280
308 281
308 288
308 296
308 300
308 307
308 309
308 321
308 323
308 325
308 329
308 342
308 346
309 273
309 276
309 288
309 289
309 295
309 296
309 303
309 308
309 314
309 320
309 321
309 325
309 338
309 340
309 342
310 269
310 284
310 285
310 302
310 324
310 330
310 343
310 352
311 275
311 278
311 287
311 293
311 313
311 316
311 322
311 326
311 332
311 334
311 337
311 354
311 355
312 272
312 291
312 292
312 301
312 305
312 333
312 336
312 345
313 275
313 283
313 287
313 293
313 311
313 322
313 332
313 334
313 349
313 354
313 358
314 279
314 289
314 291
314 294
314 303
314 305
314 309
314 320
314 336
314 339
314 340
314 353
315 277
315 280
315 281
315 298
315 299
315 300
315 307
315 317
315 323
315 329
315 331
315 344
315 348
315 350
316 278
316 285
316 293
316 302
316 311
316 324
316 326
316 334
316 337
316 343
316 355
316 356
317 277
317 282
317 286
317 298
317 299
317 300
317 304
317 315
317 318
317 319
317 331
317 344
317 347
317 348
317 364
318 274
318 282
318 286
318 297
318 298
318 304
318 306
318 317
318 319
318 327
318 335
318 347
318 351
319 282
319 286
319 297
319 298
319 299
319 304
319 317
319 318
319 327
319 335
319 344
319 347
320 273
320 289
320 294
320 295
320 296
320 303
320 309
320 314
320 321
320 338
320 339
320 340
320 353
320 359
320 360
321 276
321 288
321 295
321 296
321 308
321 309
321 320
321 323
321 325
321 338
321 340
321 342
321 346
321 359
321 360
321 361
322 283
322 287
322 311
322 313
322 332
322 334
322 349
322 354
322 358
323 281
323 288
323 300
323 307
323 308
323 315
323 321
323 325
323 329
323 331
323 342
323 346
323 350
323 361
323 363
324 285
324 302
324 310
324 316
324 326
324 330
324 337
324 343
324 352
324 356
325 288
325 296
325 307
325 308
325 309
325 321
325 323
325 329
325 338
325 342
325 346
325 350
325 361
325 363
326 293
326 311
326 316
326 324
326 332
326 334
326 337
326 343
326 354
326 355
326 356
326 368
327 286
327 290
327 297
327 304
327 306
327 318
327 319
327 328
327 335
327 341
327 347
327 351
327 367
328 290
328 297
328 306
328 327
328 330
328 335
328 341
328 351
328 369
329 300
329 307
329 308
329 315
329 323
329 325
329 331
329 342
329 346
329 348
329 350
329 363
329 365
330 284
330 302
330 310
330 324
330 328
330 341
330 343
330 352
330 369
330 373
331 299
331 300
331 307
331 315
331 317
331 323
331 329
331 344
331 348
331 350
331 364
331 365
332 287
332 311
332 313
332 322
332 326
332 334
332 349
332 354
332 355
332 358
332 371
332 376
333 292
333 301
333 305
333 312
333 336
333 345
333 357
333 362
333 377
334 293
334 311
334 313
334 316
334 322
334 326
334 332
334 337
334 354
334 355
334 358
334 368
334 372
334 376
335 297
335 304
335 318
335 319
335 327
335 328
335 341
335 347
335 351
335 367
335 374
335 375
336 303
336 305
336 312
336 314
336 333
336 339
336 345
336 353
336 357
336 362
336 366
336 370
337 302
337 311
337 316
337 324
337 326
337 334
337 343
337 354
337 355
337 356
337 368
337 372
338 295
338 296
338 309
338 320
338 321
338 325
338 339
338 340
338 342
338 346
338 353
338 359
338 360
338 361
338 378
338 379
339 303
339 314
339 320
339 336
339 338
339 340
339 353
339 357
339 360
339 366
339 370
340 309
340 314
340 320
340 321
340 338
340 339
340 342
340 353
340 359
340 360
340 366
340 378
341 306
341 327
341 328
341 330
341 335
341 351
341 352
341 367
341 369
341 374
341 392
342 308
342 309
342 321
342 323
342 325
342 329
342 338
342 340
342 346
342 359
342 360
342 361
342 363
342 379
342 383
343 302
343 310
343 316
343 324
343 326
343 330
343 337
343 352
343 355
343 356
343 368
343 373
344 299
344 315
344 317
344 319
344 331
344 347
344 348
344 350
344 364
344 365
344 375
344 380
344 381
345 301
345 312
345 333
345 336
345 362
345 377
345 391
346 307
346 308
346 321
346 323
346 325
346 329
346 338
346 342
346 350
346 359
346 361
346 363
346 379
346 382
346 383
346 385
347 304
347 317
347 318
347 319
347 327
347 335
347 344
347 348
347 351
347 364
347 365
347 367
347 375
347 381
347 394
348 315
348 317
348 329
348 331
348 344
348 347
348 350
348 363
348 364
348 365
348 380
348 387
349 313
349 322
349 332
349 354
349 358
349 371
349 376
349 388
349 396
350 307
350 315
350 323
350 325
350 329
350 331
350 344
350 346
350 348
350 361
350 363
350 365
350 380
350 382
350 385
350 387
351 318
351 327
351 328
351 335
351 341
351 347
351 367
351 369
351 374
351 375
351 392
351 397
352 310
352 324
352 330
352 341
352 343
352 356
352 369
352 373
352 399
353 314
353 320
353 336
353 338
353 339
353 340
353 357
353 359
353 360
353 366
353 370
353 378
353 384
353 386
354 311
354 313
354 322
354 326
354 332
354 334
354 337
354 349
354 355
354 358
354 368
354 371
354 372
354 376
354 389
355 311
355 316
355 326
355 332
355 334
355 337
355 343
355 354
355 356
355 368
355 372
355 376
355 389
356 316
356 324
356 326
356 337
356 343
356 352
356 355
356 368
356 372
356 373
356 393
356 399
357 333
357 336
357 339
357 353
357 362
357 366
357 370
357 377
357 384
357 386
358 313
358 322
358 332
358 334
358 349
358 354
358 371
358 376
358 388
358 396
359 320
359 321
359 338
359 340
359 342
359 346
359 353
359 360
359 361
359 378
359 379
359 383
359 395
359 398
360 320
360 321
360 338
360 339
360 340
360 342
360 353
360 359
360 361
360 366
360 378
360 379
360 386
360 395
360 398
361 321
361 323
361 325
361 338
361 342
361 346
361 350
361 359
361 360
361 363
361 378
361 379
361 382
361 383
361 385
361 398
362 333
362 336
362 345
362 357
362 370
362 377
362 384
362 391
363 323
363 325
363 329
363 342
363 346
363 348
363 350
363 361
363 365
363 379
363 380
363 382
363 383
363 385
363 387
364 317
364 331
364 344
364 347
364 348
364 365
364 375
364 380
364 381
364 394
365 329
365 331
365 344
365 347
365 348
365 350
365 363
365 364
365 380
365 381
365 382
365 387
366 336
366 339
366 340
366 353
366 357
366 360
366 370
366 378
366 384
366 386
366 395
367 327
367 335
367 341
367 347
367 351
367 374
367 375
367 381
367 392
367 394
367 397
368 326
368 334
368 337
368 343
368 354
368 355
368 356
368 372
368 373
368 389
368 393
368 399
369 328
369 330
369 341
369 351
369 352
369 373
369 374
369 390
369 392
370 336
370 339
370 353
370 357
370 362
370 366
370 377
370 384
370 386
371 332
371 349
371 354
371 358
371 376
371 388
371 396
372 334
372 337
372 354
372 355
372 356
372 368
372 376
372 389
372 393
373 330
373 343
373 352
373 356
373 368
373 369
373 390
373 393
373 399
374 335
374 341
374 351
374 367
374 369
374 375
374 390
374 392
374 394
374 397
375 335
375 344
375 347
375 351
375 364
375 367
375 374
375 380
375 381
375 394
375 397
376 332
376 334
376 349
376 354
376 355
376 358
376 371
376 372
376 388
376 389
376 396
377 333
377 345
377 357
377 362
377 370
377 384
377 391
378 338
378 340
378 353
378 359
378 360
378 361
378 366
378 379
378 383
378 386
378 395
378 398
379 338
379 342
379 346
379 359
379 360
379 361
379 363
379 378
379 382
379 383
379 385
379 395
379 398
380 344
380 348
380 350
380 363
380 364
380 365
380 375
380 381
380 382
380 387
381 344
381 347
381 364
381 365
381 367
381 375
381 380
381 394
382 346
382 350
382 361
382 363
382 365
382 379
382 380
382 383
382 385
382 387
383 342
383 346
383 359
383 361
383 363
383 378
383 379
383 382
383 385
383 395
383 398
384 353
384 357
384 362
384 366
384 370
384 377
384 386
385 346
385 350
385 361
385 363
385 379
385 382
385 383
385 387
385 398
386 353
386 357
386 360
386 366
386 370
386 378
386 384
386 395
387 348
387 350
387 363
387 365
387 380
387 382
387 385
388 349
388 358
388 371
388 376
388 396
389 354
389 355
389 368
389 372
389 376
389 393
390 369
390 373
390 374
390 392
390 397
391 345
391 362
391 377
392 341
392 351
392 367
392 369
392 374
392 390
392 397
393 356
393 368
393 372
393 373
393 389
393 399
394 347
394 364
394 367
394 374
394 375
394 381
394 397
395 359
395 360
395 366
395 378
395 379
395 383
395 386
395 398
396 349
396 358
396 371
396 376
396 388
397 351
397 367
397 374
397 375
397 390
397 392
397 394
398 359
398 360
398 361
398 378
398 379
398 383
398 385
398 395
399 352
399 356
399 368
399 373
399 393
