1 2
2 1
3 4
3 8
4 3
4 8
5 12
6 7
7 6
8 3
8 4
8 10
8 23
8 26
9 27
10 8
10 26
10 30
11 12
11 49
12 5
12 11
12 13
12 35
12 49
13 12
13 14
13 34
13 35
13 50
14 13
14 32
14 34
14 35
15 18
15 32
15 37
16 21
16 25
16 42
16 43
16 44
17 25
17 29
17 33
17 38
18 15
18 19
18 37
19 18
19 24
19 37
19 39
20 22
20 28
20 31
20 45
21 16
21 23
21 42
21 44
21 47
22 20
22 28
22 31
22 48
23 8
23 21
23 26
23 41
23 42
23 47
24 19
24 27
24 39
25 16
25 17
25 33
25 43
25 44
26 8
26 10
26 23
26 30
26 41
26 47
27 9
27 24
27 36
27 39
28 20
28 22
28 48
29 17
29 31
29 33
29 38
29 45
29 46
30 10
30 26
30 36
30 40
30 41
31 20
31 22
31 29
31 45
31 46
32 14
32 15
32 34
32 51
32 53
33 17
33 25
33 29
33 38
33 43
34 13
34 14
34 32
34 35
34 50
34 51
34 53
35 12
35 13
35 14
35 34
35 49
35 50
35 52
36 27
36 30
36 39
36 40
36 56
36 59
37 15
37 18
37 19
37 54
37 55
38 17
38 29
38 33
38 46
38 64
38 68
39 19
39 24
39 27
39 36
39 56
39 57
40 30
40 36
40 41
40 58
40 59
41 23
41 26
41 30
41 40
41 47
41 58
41 62
41 71
42 16
42 21
42 23
42 44
42 47
42 61
42 62
42 73
43 16
43 25
43 33
43 44
43 60
43 64
43 70
44 16
44 21
44 25
44 42
44 43
44 47
44 60
44 61
44 70
44 73
45 20
45 29
45 31
45 46
45 65
46 29
46 31
46 38
46 45
46 72
47 21
47 23
47 26
47 41
47 42
47 44
47 61
47 62
47 71
48 22
48 28
48 63
48 69
49 11
49 12
49 35
49 52
50 13
50 34
50 35
50 51
50 52
50 66
50 77
51 32
51 34
51 50
51 53
51 66
51 77
52 35
52 49
52 50
52 74
53 32
53 34
53 51
53 55
53 66
53 67
53 77
54 37
54 55
54 57
54 78
55 37
55 53
55 54
55 67
55 83
56 36
56 39
56 57
56 59
56 79
56 82
57 39
57 54
57 56
57 78
57 79
58 40
58 41
58 71
59 36
59 40
59 56
59 82
59 85
60 43
60 44
60 64
60 68
60 70
60 87
60 89
61 42
61 44
61 47
61 62
61 70
61 71
61 73
61 84
62 41
62 42
62 47
62 61
62 71
62 73
62 84
63 48
63 65
63 69
63 75
64 38
64 43
64 60
64 68
64 70
64 72
64 89
65 45
65 63
65 69
65 75
65 76
66 50
66 51
66 53
66 67
66 77
66 81
66 93
67 53
67 55
67 66
67 81
67 83
68 38
68 60
68 64
68 72
68 92
68 95
69 48
69 63
69 65
69 75
69 94
70 43
70 44
70 60
70 61
70 64
70 73
70 87
70 89
71 41
71 47
71 58
71 61
71 62
71 84
71 86
72 46
72 64
72 68
72 76
72 92
73 42
73 44
73 61
73 62
73 70
73 84
73 87
73 99
74 52
74 80
74 90
74 91
75 63
75 65
75 69
75 76
75 94
75 101
76 65
76 72
76 75
76 92
76 105
77 50
77 51
77 53
77 66
77 90
77 91
77 93
78 54
78 57
78 79
78 88
78 97
79 56
79 57
79 78
79 82
79 97
79 98
79 100
80 74
80 90
81 66
81 67
81 83
81 93
81 96
82 56
82 59
82 79
82 85
82 98
82 100
83 55
83 67
83 81
83 88
83 96
84 61
84 62
84 71
84 73
84 86
84 87
84 99
84 106
85 59
85 82
85 98
85 102
85 103
85 104
86 71
86 84
86 103
86 104
86 106
87 60
87 70
87 73
87 84
87 89
87 95
87 99
87 108
88 78
88 83
88 96
88 97
89 60
89 64
89 70
89 87
89 95
89 99
89 108
90 74
90 77
90 80
90 91
90 112
91 74
91 77
91 90
91 93
91 111
92 68
92 72
92 76
92 95
92 105
92 107
92 108
93 66
93 77
93 81
93 91
93 115
94 69
94 75
94 101
94 109
94 110
95 68
95 87
95 89
95 92
95 107
95 108
96 81
96 83
96 88
96 117
97 78
97 79
97 88
97 100
97 113
97 114
97 119
98 79
98 82
98 85
98 100
98 102
98 116
99 73
99 84
99 87
99 89
99 106
100 79
100 82
100 97
100 98
100 114
100 116
101 75
101 94
101 105
101 109
102 85
102 98
102 103
102 104
102 118
103 85
103 86
103 102
103 104
103 118
103 125
104 85
104 86
104 102
104 103
104 106
104 122
104 125
105 76
105 92
105 101
105 107
105 120
106 84
106 86
106 99
106 104
106 126
107 92
107 95
107 105
107 108
107 120
107 123
108 87
108 89
108 92
108 95
108 107
108 121
108 129
109 94
109 101
109 110
109 127
110 94
110 109
110 127
111 91
111 112
111 115
111 130
111 131
112 90
112 111
112 130
112 146
113 97
113 114
113 117
113 119
113 132
113 139
114 97
114 100
114 113
114 116
114 119
114 135
114 137
115 93
115 111
115 117
115 128
115 131
115 133
116 98
116 100
116 114
116 118
116 134
116 135
117 96
117 113
117 115
117 128
117 132
118 102
118 103
118 116
118 125
118 134
118 141
119 97
119 113
119 114
119 132
119 137
119 139
120 105
120 107
120 123
120 143
120 147
120 149
121 108
121 124
121 126
121 129
121 140
122 104
122 125
122 126
122 136
122 141
122 144
123 107
123 120
123 138
123 147
123 149
124 121
124 126
124 136
125 103
125 104
125 118
125 122
125 134
125 141
125 144
126 106
126 121
126 122
126 124
126 136
127 109
127 110
127 143
127 145
127 151
128 115
128 117
128 131
128 133
128 152
128 153
129 108
129 121
129 138
129 140
130 111
130 112
130 131
130 133
130 146
130 148
130 150
130 156
131 111
131 115
131 128
131 130
131 133
131 148
131 150
132 113
132 117
132 119
132 139
132 153
133 115
133 128
133 130
133 131
133 148
133 150
133 152
133 162
134 116
134 118
134 125
134 135
134 141
134 155
134 158
135 114
135 116
135 134
135 137
135 158
135 163
136 122
136 124
136 126
136 144
136 157
137 114
137 119
137 135
137 139
137 154
137 163
138 123
138 129
138 140
138 147
138 167
139 113
139 119
139 132
139 137
139 154
140 121
140 129
140 138
140 161
141 118
141 122
141 125
141 134
141 144
141 155
141 168
141 173
142 146
142 156
142 159
143 120
143 127
143 145
143 147
143 149
143 169
143 172
143 175
144 122
144 125
144 136
144 141
144 157
144 164
144 168
145 127
145 143
145 149
145 151
145 172
145 175
146 112
146 130
146 142
146 150
146 156
146 159
146 166
147 120
147 123
147 138
147 143
147 149
147 167
147 169
147 170
148 130
148 131
148 133
148 150
148 152
148 156
148 162
148 166
148 171
148 174
149 120
149 123
149 143
149 145
149 147
149 169
149 170
149 175
150 130
150 131
150 133
150 146
150 148
150 156
150 162
150 166
150 171
151 127
151 145
151 172
152 128
152 133
152 148
152 153
152 162
152 165
152 174
153 128
153 132
153 152
153 165
153 174
153 177
153 179
154 137
154 139
154 163
154 179
154 180
155 134
155 141
155 158
155 168
155 173
155 182
156 130
156 142
156 146
156 148
156 150
156 159
156 166
156 171
156 186
157 136
157 144
157 160
157 164
157 176
157 183
158 134
158 135
158 155
158 163
158 173
158 182
158 184
159 142
159 146
159 156
159 166
159 186
160 157
160 161
160 176
160 183
160 185
160 187
161 140
161 160
161 178
161 185
161 193
162 133
162 148
162 150
162 152
162 165
162 166
162 171
162 174
162 188
163 135
163 137
163 154
163 158
163 184
164 144
164 157
164 168
164 176
164 183
165 152
165 153
165 162
165 174
165 177
165 179
165 190
165 195
166 146
166 148
166 150
166 156
166 159
166 162
166 171
166 186
166 191
167 138
167 147
167 170
167 178
167 192
168 141
168 144
168 155
168 164
168 173
168 182
169 143
169 147
169 149
169 170
169 172
169 175
169 181
169 194
170 147
170 149
170 167
170 169
170 175
171 148
171 150
171 156
171 162
171 166
171 174
171 186
171 188
171 191
172 143
172 145
172 151
172 169
172 175
172 181
172 189
172 194
173 141
173 155
173 158
173 168
173 182
173 184
174 148
174 152
174 153
174 162
174 165
174 171
174 188
174 190
175 143
175 145
175 149
175 169
175 170
175 172
175 181
175 194
176 157
176 160
176 164
176 183
176 185
176 187
177 153
177 165
177 179
177 190
177 195
177 196
178 161
178 167
178 185
178 192
178 193
179 153
179 154
179 165
179 177
179 180
179 195
179 196
179 197
180 154
180 179
180 196
180 197
180 199
181 169
181 172
181 175
181 189
181 194
181 205
182 155
182 158
182 168
182 173
182 184
182 200
182 204
182 206
183 157
183 160
183 164
183 176
183 185
183 187
183 202
183 203
184 158
184 163
184 173
184 182
184 198
184 204
184 206
185 160
185 161
185 176
185 178
185 183
185 187
185 193
185 203
185 207
186 156
186 159
186 166
186 171
186 191
186 208
187 160
187 176
187 183
187 185
187 193
187 203
187 207
188 162
188 171
188 174
188 190
188 191
188 210
188 212
189 172
189 181
189 194
189 205
189 213
190 165
190 174
190 177
190 188
190 195
190 212
190 214
191 166
191 171
191 186
191 188
191 208
191 210
192 167
192 178
192 193
192 207
192 209
192 211
193 161
193 178
193 185
193 187
193 192
193 203
193 207
193 211
194 169
194 172
194 175
194 181
194 189
194 205
195 165
195 177
195 179
195 190
195 196
195 214
196 177
196 179
196 180
196 195
196 197
196 214
196 216
196 217
197 179
197 180
197 196
197 199
197 216
197 217
198 184
198 199
198 204
198 218
198 219
199 180
199 197
199 198
199 204
199 217
199 218
200 182
200 201
200 204
200 206
200 226
201 200
201 202
201 206
201 221
201 222
201 226
202 183
202 201
202 221
202 222
203 183
203 185
203 187
203 193
203 207
203 225
203 229
204 182
204 184
204 198
204 199
204 200
204 206
204 218
204 219
205 181
205 189
205 194
205 213
205 215
205 220
205 234
206 182
206 184
206 200
206 201
206 204
206 219
206 226
207 185
207 187
207 192
207 193
207 203
207 211
207 225
207 232
208 186
208 191
208 210
208 223
208 227
208 230
209 192
209 211
209 215
209 220
209 224
209 231
210 188
210 191
210 208
210 212
210 223
210 227
211 192
211 193
211 207
211 209
211 224
211 232
212 188
212 190
212 210
212 214
212 227
212 237
212 238
213 189
213 205
213 234
213 235
214 190
214 195
214 196
214 212
214 216
214 236
214 238
215 205
215 209
215 220
215 231
216 196
216 197
216 214
216 217
216 236
216 242
217 196
217 197
217 199
217 216
217 218
217 236
217 242
218 198
218 199
218 204
218 217
218 219
218 240
219 198
219 204
219 206
219 218
219 240
219 244
219 247
220 205
220 209
220 215
220 231
220 234
221 201
221 202
221 222
221 226
221 241
221 245
222 201
222 202
222 221
222 229
222 233
222 241
223 208
223 210
223 227
223 230
223 237
223 239
224 209
224 211
224 231
224 232
224 252
225 203
225 207
225 229
225 232
225 233
225 248
225 250
226 200
226 201
226 206
226 221
226 243
226 245
226 247
227 208
227 210
227 212
227 223
227 230
227 237
227 239
228 230
229 203
229 222
229 225
229 233
229 241
229 249
229 250
230 208
230 223
230 227
230 228
230 239
230 256
231 209
231 215
231 220
231 224
231 251
231 252
231 255
232 207
232 211
232 224
232 225
232 248
233 222
233 225
233 229
233 241
233 249
233 250
234 205
234 213
234 220
234 235
234 251
234 253
234 254
235 213
235 234
235 253
236 214
236 216
236 217
236 238
236 242
237 212
237 223
237 227
237 238
237 239
237 257
238 212
238 214
238 236
238 237
239 223
239 227
239 230
239 237
239 256
239 257
240 218
240 219
240 244
240 246
240 247
241 221
241 222
241 229
241 233
241 245
241 249
241 250
242 216
242 217
242 236
242 246
242 259
243 226
243 244
243 245
243 247
243 261
243 262
244 219
244 240
244 243
244 247
245 221
245 226
245 241
245 243
245 247
245 262
246 240
246 242
246 259
247 219
247 226
247 240
247 243
247 244
247 245
247 261
248 225
248 232
248 250
248 252
249 229
249 233
249 241
249 250
249 266
250 225
250 229
250 233
250 241
250 248
250 249
250 266
250 267
251 231
251 234
251 254
251 255
252 224
252 231
252 248
252 255
253 234
253 235
253 254
253 272
254 234
254 251
254 253
254 272
254 273
255 231
255 251
255 252
256 230
256 239
256 258
256 260
256 270
257 237
257 239
257 265
257 269
257 270
258 256
258 260
259 242
259 246
259 276
259 277
259 282
260 256
260 258
260 270
260 292
261 243
261 247
261 262
261 271
261 274
261 281
261 286
262 243
262 245
262 261
262 263
262 271
262 275
262 281
262 286
263 262
263 266
263 275
263 281
263 290
263 294
264 265
264 278
264 279
264 280
265 257
265 264
265 269
265 278
265 279
266 249
266 250
266 263
266 267
266 275
266 283
266 290
267 250
267 266
267 268
267 283
268 267
268 288
268 291
269 257
269 265
269 270
269 279
270 256
270 257
270 260
270 269
270 292
271 261
271 262
271 274
271 284
271 286
272 253
272 254
272 273
272 287
272 289
273 254
273 272
273 285
273 289
273 293
274 261
274 271
274 282
274 284
274 286
275 262
275 263
275 266
275 281
275 290
275 294
276 259
276 277
276 282
276 284
277 259
277 276
277 278
277 280
278 264
278 265
278 277
278 279
278 280
279 264
279 265
279 269
279 278
279 280
280 264
280 277
280 278
280 279
281 261
281 262
281 263
281 275
281 286
281 290
281 294
282 259
282 274
282 276
282 284
283 266
283 267
283 290
283 291
284 271
284 274
284 276
284 282
284 286
285 273
285 288
285 293
286 261
286 262
286 271
286 274
286 281
286 284
287 272
287 289
288 268
288 285
288 291
289 272
289 273
289 287
289 293
290 263
290 266
290 275
290 281
290 283
290 294
291 268
291 283
291 288
292 260
292 270
293 273
293 285
293 289
294 263
294 275
294 281
294 290
