1 2
1 6
1 29
2 1
2 17
2 29
3 4
3 8
3 16
3 21
4 3
4 8
4 10
4 21
4 23
5 11
5 12
5 13
6 1
6 7
6 20
6 22
6 28
7 6
7 20
7 22
7 28
8 3
8 4
8 10
8 21
8 23
8 26
9 10
9 27
9 30
9 36
10 4
10 8
10 9
10 23
10 26
10 30
11 5
11 12
11 13
11 35
11 49
11 52
12 5
12 11
12 13
12 14
12 34
12 35
12 49
12 50
12 52
13 5
13 11
13 12
13 14
13 32
13 34
13 35
13 50
13 51
14 12
14 13
14 15
14 32
14 34
14 35
14 50
14 51
14 53
15 14
15 18
15 32
15 37
15 55
16 3
16 21
16 23
16 25
16 33
16 42
16 43
16 44
17 2
17 25
17 29
17 31
17 33
17 38
17 43
17 46
18 15
18 19
18 37
18 54
18 55
19 18
19 24
19 27
19 37
19 39
19 54
19 57
20 6
20 7
20 22
20 28
20 29
20 31
20 45
20 46
20 48
20 65
21 3
21 4
21 8
21 16
21 23
21 25
21 26
21 42
21 43
21 44
21 47
21 61
22 6
22 7
22 20
22 28
22 31
22 45
22 48
22 63
23 4
23 8
23 10
23 16
23 21
23 26
23 41
23 42
23 44
23 47
23 61
23 62
24 19
24 27
24 36
24 39
24 56
24 57
25 16
25 17
25 21
25 33
25 38
25 42
25 43
25 44
25 60
25 64
26 8
26 10
26 21
26 23
26 30
26 40
26 41
26 47
26 58
26 62
27 9
27 19
27 24
27 36
27 39
27 40
27 56
27 59
28 6
28 7
28 20
28 22
28 48
28 63
29 1
29 2
29 17
29 20
29 31
29 33
29 38
29 45
29 46
30 9
30 10
30 26
30 36
30 40
30 41
30 58
31 17
31 20
31 22
31 29
31 38
31 45
31 46
31 65
32 13
32 14
32 15
32 34
32 50
32 51
32 53
32 55
32 66
32 67
33 16
33 17
33 25
33 29
33 38
33 43
33 46
33 60
33 64
33 68
34 12
34 13
34 14
34 32
34 35
34 50
34 51
34 53
34 66
35 11
35 12
35 13
35 14
35 34
35 49
35 50
35 51
35 52
36 9
36 24
36 27
36 30
36 39
36 40
36 56
36 59
37 15
37 18
37 19
37 54
37 55
37 57
37 67
38 17
38 25
38 29
38 31
38 33
38 43
38 45
38 46
38 60
38 64
38 68
38 72
39 19
39 24
39 27
39 36
39 56
39 57
39 59
40 26
40 27
40 30
40 36
40 41
40 58
40 59
41 23
41 26
41 30
41 40
41 42
41 47
41 58
41 61
41 62
41 71
42 16
42 21
42 23
42 25
42 41
42 43
42 44
42 47
42 60
42 61
42 62
42 70
42 73
43 16
43 17
43 21
43 25
43 33
43 38
43 42
43 44
43 60
43 64
43 68
43 70
44 16
44 21
44 23
44 25
44 42
44 43
44 47
44 60
44 61
44 62
44 64
44 70
44 73
45 20
45 22
45 29
45 31
45 38
45 46
45 63
45 65
45 72
45 75
45 76
46 17
46 20
46 29
46 31
46 33
46 38
46 45
46 65
46 68
46 72
46 76
47 21
47 23
47 26
47 41
47 42
47 44
47 58
47 61
47 62
47 71
47 73
48 20
48 22
48 28
48 63
48 65
48 69
49 11
49 12
49 35
49 50
49 52
49 74
49 80
50 12
50 13
50 14
50 32
50 34
50 35
50 49
50 51
50 52
50 53
50 66
50 74
50 77
51 13
51 14
51 32
51 34
51 35
51 50
51 53
51 66
51 67
51 77
52 11
52 12
52 35
52 49
52 50
52 74
52 80
53 14
53 32
53 34
53 50
53 51
53 55
53 66
53 67
53 77
53 81
53 93
54 18
54 19
54 37
54 55
54 57
54 67
54 78
54 83
54 88
55 15
55 18
55 32
55 37
55 53
55 54
55 66
55 67
55 81
55 83
55 88
56 24
56 27
56 36
56 39
56 57
56 59
56 79
56 82
57 19
57 24
57 37
57 39
57 54
57 56
57 78
57 79
57 82
58 26
58 30
58 40
58 41
58 47
58 59
58 62
58 71
58 85
58 86
59 27
59 36
59 39
59 40
59 56
59 58
59 79
59 82
59 85
60 25
60 33
60 38
60 42
60 43
60 44
60 61
60 64
60 68
60 70
60 73
60 87
60 89
60 95
61 21
61 23
61 41
61 42
61 44
61 47
61 60
61 62
61 70
61 71
61 73
61 84
61 87
62 23
62 26
62 41
62 42
62 44
62 47
62 58
62 61
62 71
62 73
62 84
62 86
63 22
63 28
63 45
63 48
63 65
63 69
63 75
63 94
64 25
64 33
64 38
64 43
64 44
64 60
64 68
64 70
64 72
64 87
64 89
64 92
64 95
65 20
65 31
65 45
65 46
65 48
65 63
65 69
65 72
65 75
65 76
65 101
66 32
66 34
66 50
66 51
66 53
66 55
66 67
66 77
66 81
66 91
66 93
67 32
67 37
67 51
67 53
67 54
67 55
67 66
67 81
67 83
67 88
67 93
67 96
68 33
68 38
68 43
68 46
68 60
68 64
68 70
68 72
68 76
68 89
68 92
68 95
69 48
69 63
69 65
69 75
69 94
70 42
70 43
70 44
70 60
70 61
70 64
70 68
70 73
70 84
70 87
70 89
70 95
70 99
71 41
71 47
71 58
71 61
71 62
71 73
71 84
71 86
71 104
71 106
72 38
72 45
72 46
72 64
72 65
72 68
72 76
72 92
72 95
72 105
72 107
73 42
73 44
73 47
73 60
73 61
73 62
73 70
73 71
73 84
73 87
73 89
73 99
73 106
74 49
74 50
74 52
74 77
74 80
74 90
74 91
75 45
75 63
75 65
75 69
75 76
75 94
75 101
75 105
75 109
76 45
76 46
76 65
76 68
76 72
76 75
76 92
76 101
76 105
77 50
77 51
77 53
77 66
77 74
77 81
77 90
77 91
77 93
78 54
78 57
78 79
78 83
78 88
78 96
78 97
78 100
79 56
79 57
79 59
79 78
79 82
79 97
79 98
79 100
79 114
80 49
80 52
80 74
80 90
80 112
81 53
81 55
81 66
81 67
81 77
81 83
81 88
81 91
81 93
81 96
82 56
82 57
82 59
82 79
82 85
82 97
82 98
82 100
82 102
83 54
83 55
83 67
83 78
83 81
83 88
83 93
83 96
84 61
84 62
84 70
84 71
84 73
84 86
84 87
84 99
84 106
85 58
85 59
85 82
85 86
85 98
85 102
85 103
85 104
86 58
86 62
86 71
86 84
86 85
86 102
86 103
86 104
86 106
87 60
87 61
87 64
87 70
87 73
87 84
87 89
87 95
87 99
87 108
88 54
88 55
88 67
88 78
88 81
88 83
88 96
88 97
88 113
89 60
89 64
89 68
89 70
89 73
89 87
89 92
89 95
89 99
89 107
89 108
90 74
90 77
90 80
90 91
90 111
90 112
91 66
91 74
91 77
91 81
91 90
91 93
91 111
91 115
92 64
92 68
92 72
92 76
92 89
92 95
92 105
92 107
92 108
92 123
93 53
93 66
93 67
93 77
93 81
93 83
93 91
93 96
93 111
93 115
94 63
94 69
94 75
94 101
94 109
94 110
94 127
95 60
95 64
95 68
95 70
95 72
95 87
95 89
95 92
95 107
95 108
95 129
96 67
96 78
96 81
96 83
96 88
96 93
96 97
96 113
96 117
96 132
97 78
97 79
97 82
97 88
97 96
97 100
97 113
97 114
97 119
98 79
98 82
98 85
98 100
98 102
98 103
98 114
98 116
98 118
99 70
99 73
99 84
99 87
99 89
99 106
99 108
99 121
99 124
99 126
100 78
100 79
100 82
100 97
100 98
100 102
100 114
100 116
100 119
100 135
101 65
101 75
101 76
101 94
101 105
101 109
101 110
101 120
101 127
102 82
102 85
102 86
102 98
102 100
102 103
102 104
102 116
102 118
102 125
102 134
103 85
103 86
103 98
103 102
103 104
103 118
103 122
103 125
104 71
104 85
104 86
104 102
104 103
104 106
104 118
104 122
104 125
105 72
105 75
105 76
105 92
105 101
105 107
105 109
105 120
105 123
106 71
106 73
106 84
106 86
106 99
106 104
106 122
106 124
106 126
106 136
107 72
107 89
107 92
107 95
107 105
107 108
107 120
107 123
107 129
107 138
108 87
108 89
108 92
108 95
108 99
108 107
108 121
108 123
108 129
108 138
108 140
109 75
109 94
109 101
109 105
109 110
109 127
109 145
110 94
110 101
110 109
110 127
110 151
111 90
111 91
111 93
111 112
111 115
111 130
111 131
111 133
111 146
111 148
111 150
112 80
112 90
112 111
112 130
112 131
112 142
112 146
112 150
113 88
113 96
113 97
113 114
113 117
113 119
113 132
113 137
113 139
114 79
114 97
114 98
114 100
114 113
114 116
114 119
114 135
114 137
114 139
115 91
115 93
115 111
115 117
115 128
115 130
115 131
115 133
115 148
115 152
116 98
116 100
116 102
116 114
116 118
116 125
116 134
116 135
116 137
116 158
117 96
117 113
117 115
117 119
117 128
117 132
117 133
117 139
117 152
117 153
118 98
118 102
118 103
118 104
118 116
118 125
118 134
118 135
118 141
118 144
118 155
118 158
119 97
119 100
119 113
119 114
119 117
119 132
119 135
119 137
119 139
119 154
120 101
120 105
120 107
120 123
120 127
120 138
120 143
120 145
120 147
120 149
121 99
121 108
121 124
121 126
121 129
121 140
121 160
121 161
122 103
122 104
122 106
122 125
122 126
122 136
122 141
122 144
122 157
122 164
123 92
123 105
123 107
123 108
123 120
123 129
123 138
123 143
123 147
123 149
124 99
124 106
124 121
124 126
124 129
124 136
124 140
124 160
125 102
125 103
125 104
125 116
125 118
125 122
125 134
125 136
125 141
125 144
125 155
125 168
126 99
126 106
126 121
126 122
126 124
126 136
126 144
126 157
126 160
127 94
127 101
127 109
127 110
127 120
127 143
127 145
127 151
128 115
128 117
128 131
128 132
128 133
128 148
128 152
128 153
128 165
129 95
129 107
129 108
129 121
129 123
129 124
129 138
129 140
129 161
130 111
130 112
130 115
130 131
130 133
130 142
130 146
130 148
130 150
130 156
130 166
130 171
131 111
131 112
131 115
131 128
131 130
131 133
131 146
131 148
131 150
131 152
131 156
131 162
131 166
131 171
132 96
132 113
132 117
132 119
132 128
132 137
132 139
132 153
133 111
133 115
133 117
133 128
133 130
133 131
133 148
133 150
133 152
133 153
133 162
133 165
133 171
133 174
134 102
134 116
134 118
134 125
134 135
134 141
134 155
134 158
134 163
134 173
135 100
135 114
135 116
135 118
135 119
135 134
135 137
135 154
135 158
135 163
136 106
136 122
136 124
136 125
136 126
136 141
136 144
136 157
136 160
136 164
136 176
137 113
137 114
137 116
137 119
137 132
137 135
137 139
137 154
137 163
137 180
138 107
138 108
138 120
138 123
138 129
138 140
138 147
138 149
138 161
138 167
138 170
138 178
139 113
139 114
139 117
139 119
139 132
139 137
139 153
139 154
139 177
139 179
139 180
140 108
140 121
140 124
140 129
140 138
140 160
140 161
140 167
140 178
141 118
141 122
141 125
141 134
141 136
141 144
141 155
141 158
141 164
141 168
141 173
142 112
142 130
142 146
142 150
142 156
142 159
142 166
143 120
143 123
143 127
143 145
143 147
143 149
143 151
143 169
143 170
143 172
143 175
143 181
144 118
144 122
144 125
144 126
144 136
144 141
144 155
144 157
144 164
144 168
144 173
145 109
145 120
145 127
145 143
145 149
145 151
145 169
145 172
145 175
145 181
146 111
146 112
146 130
146 131
146 142
146 148
146 150
146 156
146 159
146 166
146 171
146 186
147 120
147 123
147 138
147 143
147 149
147 167
147 169
147 170
147 175
148 111
148 115
148 128
148 130
148 131
148 133
148 146
148 150
148 152
148 156
148 162
148 165
148 166
148 171
148 174
149 120
149 123
149 138
149 143
149 145
149 147
149 167
149 169
149 170
149 172
149 175
149 181
150 111
150 112
150 130
150 131
150 133
150 142
150 146
150 148
150 152
150 156
150 159
150 162
150 166
150 171
150 174
150 186
150 191
151 110
151 127
151 143
151 145
151 172
151 175
151 189
152 115
152 117
152 128
152 131
152 133
152 148
152 150
152 153
152 162
152 165
152 171
152 174
152 177
152 188
152 190
153 117
153 128
153 132
153 133
153 139
153 152
153 162
153 165
153 174
153 177
153 179
153 190
153 195
154 119
154 135
154 137
154 139
154 163
154 179
154 180
154 197
155 118
155 125
155 134
155 141
155 144
155 158
155 163
155 168
155 173
155 182
155 184
156 130
156 131
156 142
156 146
156 148
156 150
156 159
156 162
156 166
156 171
156 186
156 191
157 122
157 126
157 136
157 144
157 160
157 164
157 168
157 176
157 183
157 187
158 116
158 118
158 134
158 135
158 141
158 155
158 163
158 168
158 173
158 182
158 184
159 142
159 146
159 150
159 156
159 166
159 171
159 186
160 121
160 124
160 126
160 136
160 140
160 157
160 161
160 176
160 178
160 183
160 185
160 187
160 193
161 121
161 129
161 138
161 140
161 160
161 167
161 176
161 178
161 185
161 187
161 192
161 193
162 131
162 133
162 148
162 150
162 152
162 153
162 156
162 165
162 166
162 171
162 174
162 186
162 188
162 190
162 191
163 134
163 135
163 137
163 154
163 155
163 158
163 173
163 180
163 182
163 184
163 198
163 199
164 122
164 136
164 141
164 144
164 157
164 168
164 173
164 176
164 183
164 201
164 202
165 128
165 133
165 148
165 152
165 153
165 162
165 174
165 177
165 179
165 188
165 190
165 195
166 130
166 131
166 142
166 146
166 148
166 150
166 156
166 159
166 162
166 171
166 174
166 186
166 188
166 191
167 138
167 140
167 147
167 149
167 161
167 169
167 170
167 178
167 192
167 193
168 125
168 141
168 144
168 155
168 157
168 158
168 164
168 173
168 182
168 200
168 201
169 143
169 145
169 147
169 149
169 167
169 170
169 172
169 175
169 181
169 194
170 138
170 143
170 147
170 149
170 167
170 169
170 175
170 178
170 181
170 192
170 194
171 130
171 131
171 133
171 146
171 148
171 150
171 152
171 156
171 159
171 162
171 166
171 174
171 186
171 188
171 191
172 143
172 145
172 149
172 151
172 169
172 175
172 181
172 189
172 194
173 134
173 141
173 144
173 155
173 158
173 163
173 164
173 168
173 182
173 184
173 200
173 206
174 133
174 148
174 150
174 152
174 153
174 162
174 165
174 166
174 171
174 177
174 188
174 190
174 191
174 195
175 143
175 145
175 147
175 149
175 151
175 169
175 170
175 172
175 181
175 189
175 194
175 205
176 136
176 157
176 160
176 161
176 164
176 183
176 185
176 187
176 202
176 203
177 139
177 152
177 153
177 165
177 174
177 179
177 180
177 190
177 195
177 196
177 197
178 138
178 140
178 160
178 161
178 167
178 170
178 185
178 192
178 193
178 207
179 139
179 153
179 154
179 165
179 177
179 180
179 190
179 195
179 196
179 197
180 137
180 139
180 154
180 163
180 177
180 179
180 195
180 196
180 197
180 198
180 199
181 143
181 145
181 149
181 169
181 170
181 172
181 175
181 189
181 194
181 205
182 155
182 158
182 163
182 168
182 173
182 184
182 198
182 200
182 204
182 206
183 157
183 160
183 164
183 176
183 185
183 187
183 202
183 203
184 155
184 158
184 163
184 173
184 182
184 198
184 199
184 200
184 204
184 206
184 219
185 160
185 161
185 176
185 178
185 183
185 187
185 192
185 193
185 203
185 207
186 146
186 150
186 156
186 159
186 162
186 166
186 171
186 188
186 191
186 208
186 210
187 157
187 160
187 161
187 176
187 183
187 185
187 193
187 202
187 203
187 207
188 152
188 162
188 165
188 166
188 171
188 174
188 186
188 190
188 191
188 195
188 208
188 210
188 212
189 151
189 172
189 175
189 181
189 194
189 205
189 213
190 152
190 153
190 162
190 165
190 174
190 177
190 179
190 188
190 195
190 196
190 210
190 212
190 214
191 150
191 156
191 162
191 166
191 171
191 174
191 186
191 188
191 208
191 210
191 223
192 161
192 167
192 170
192 178
192 185
192 193
192 207
192 209
192 211
192 224
193 160
193 161
193 167
193 178
193 185
193 187
193 192
193 203
193 207
193 209
193 211
194 169
194 170
194 172
194 175
194 181
194 189
194 205
194 213
194 215
194 220
195 153
195 165
195 174
195 177
195 179
195 180
195 188
195 190
195 196
195 197
195 212
195 214
195 216
196 177
196 179
196 180
196 190
196 195
196 197
196 199
196 214
196 216
196 217
197 154
197 177
197 179
197 180
197 195
197 196
197 198
197 199
197 216
197 217
197 218
198 163
198 180
198 182
198 184
198 197
198 199
198 204
198 206
198 218
198 219
199 163
199 180
199 184
199 196
199 197
199 198
199 204
199 217
199 218
199 219
200 168
200 173
200 182
200 184
200 201
200 204
200 206
200 219
200 221
200 226
201 164
201 168
201 200
201 202
201 206
201 221
201 222
201 226
202 164
202 176
202 183
202 187
202 201
202 203
202 221
202 222
202 229
202 233
203 176
203 183
203 185
203 187
203 193
203 202
203 207
203 225
203 229
203 232
203 233
204 182
204 184
204 198
204 199
204 200
204 206
204 218
204 219
205 175
205 181
205 189
205 194
205 213
205 215
205 220
205 234
206 173
206 182
206 184
206 198
206 200
206 201
206 204
206 218
206 219
206 221
206 226
207 178
207 185
207 187
207 192
207 193
207 203
207 211
207 224
207 225
207 229
207 232
208 186
208 188
208 191
208 210
208 223
208 227
208 230
208 239
209 192
209 193
209 211
209 215
209 220
209 224
209 231
210 186
210 188
210 190
210 191
210 208
210 212
210 223
210 227
210 230
210 237
210 239
211 192
211 193
211 207
211 209
211 215
211 224
211 225
211 231
211 232
212 188
212 190
212 195
212 210
212 214
212 223
212 227
212 236
212 237
212 238
213 189
213 194
213 205
213 220
213 234
213 235
214 190
214 195
214 196
214 212
214 216
214 217
214 236
214 237
214 238
215 194
215 205
215 209
215 211
215 220
215 224
215 231
215 234
215 251
216 195
216 196
216 197
216 214
216 217
216 236
216 238
216 242
216 246
217 196
217 197
217 199
217 214
217 216
217 218
217 236
217 240
217 242
217 246
218 197
218 198
218 199
218 204
218 206
218 217
218 219
218 240
218 244
218 246
219 184
219 198
219 199
219 200
219 204
219 206
219 218
219 226
219 240
219 243
219 244
219 247
220 194
220 205
220 209
220 213
220 215
220 231
220 234
220 251
220 254
221 200
221 201
221 202
221 206
221 222
221 226
221 233
221 241
221 243
221 245
222 201
222 202
222 221
222 226
222 229
222 233
222 241
222 245
222 249
223 191
223 208
223 210
223 212
223 227
223 230
223 237
223 239
223 256
223 257
224 192
224 207
224 209
224 211
224 215
224 225
224 231
224 232
224 248
224 252
224 255
225 203
225 207
225 211
225 224
225 229
225 232
225 233
225 248
225 249
225 250
226 200
226 201
226 206
226 219
226 221
226 222
226 241
226 243
226 245
226 247
227 208
227 210
227 212
227 223
227 230
227 237
227 238
227 239
227 257
228 230
228 256
229 202
229 203
229 207
229 222
229 225
229 232
229 233
229 241
229 248
229 249
229 250
230 208
230 210
230 223
230 227
230 228
230 239
230 256
231 209
231 211
231 215
231 220
231 224
231 234
231 251
231 252
231 255
232 203
232 207
232 211
232 224
232 225
232 229
232 248
232 250
232 252
233 202
233 203
233 221
233 222
233 225
233 229
233 241
233 249
233 250
234 205
234 213
234 215
234 220
234 231
234 235
234 251
234 253
234 254
235 213
235 234
235 253
236 212
236 214
236 216
236 217
236 238
236 242
236 246
237 210
237 212
237 214
237 223
237 227
237 238
237 239
237 257
238 212
238 214
238 216
238 227
238 236
238 237
238 257
238 264
239 208
239 210
239 223
239 227
239 230
239 237
239 256
239 257
240 217
240 218
240 219
240 242
240 244
240 246
240 247
240 259
241 221
241 222
241 226
241 229
241 233
241 245
241 249
241 250
241 263
241 266
242 216
242 217
242 236
242 240
242 246
242 259
243 219
243 221
243 226
243 244
243 245
243 247
243 261
243 262
244 218
244 219
244 240
244 243
244 246
244 247
244 274
245 221
245 222
245 226
245 241
245 243
245 247
245 261
245 262
245 263
246 216
246 217
246 218
246 236
246 240
246 242
246 244
246 259
247 219
247 226
247 240
247 243
247 244
247 245
247 261
247 262
247 271
248 224
248 225
248 229
248 232
248 249
248 250
248 252
248 267
248 268
249 222
249 225
249 229
249 233
249 241
249 248
249 250
249 263
249 266
249 267
250 225
250 229
250 232
250 233
250 241
250 248
250 249
250 266
250 267
251 215
251 220
251 231
251 234
251 252
251 253
251 254
251 255
251 273
252 224
252 231
252 232
252 248
252 251
252 255
252 268
253 234
253 235
253 251
253 254
253 272
253 273
254 220
254 234
254 251
254 253
254 255
254 272
254 273
255 224
255 231
255 251
255 252
255 254
256 223
256 228
256 230
256 239
256 257
256 258
256 260
256 270
257 223
257 227
257 237
257 238
257 239
257 256
257 264
257 265
257 269
257 270
257 279
258 256
258 260
258 270
258 292
259 240
259 242
259 246
259 274
259 276
259 277
259 280
259 282
260 256
260 258
260 269
260 270
260 292
261 243
261 245
261 247
261 262
261 271
261 274
261 275
261 281
261 284
261 286
262 243
262 245
262 247
262 261
262 263
262 271
262 274
262 275
262 281
262 286
262 294
263 241
263 245
263 249
263 262
263 266
263 267
263 275
263 281
263 283
263 290
263 294
264 238
264 257
264 265
264 269
264 277
264 278
264 279
264 280
265 257
265 264
265 269
265 270
265 278
265 279
266 241
266 249
266 250
266 263
266 267
266 275
266 283
266 290
266 294
267 248
267 249
267 250
267 263
267 266
267 268
267 283
267 290
267 291
268 248
268 252
268 267
268 283
268 288
268 291
269 257
269 260
269 264
269 265
269 270
269 279
270 256
270 257
270 258
270 260
270 265
270 269
270 292
271 247
271 261
271 262
271 274
271 281
271 282
271 284
271 286
272 253
272 254
272 273
272 287
272 289
272 293
273 251
273 253
273 254
273 272
273 285
273 287
273 289
273 293
274 244
274 259
274 261
274 262
274 271
274 276
274 282
274 284
274 286
275 261
275 262
275 263
275 266
275 281
275 286
275 290
275 294
276 259
276 274
276 277
276 280
276 282
276 284
277 259
277 264
277 276
277 278
277 280
277 282
278 264
278 265
278 277
278 279
278 280
279 257
279 264
279 265
279 269
279 278
279 280
280 259
280 264
280 276
280 277
280 278
280 279
281 261
281 262
281 263
281 271
281 275
281 286
281 290
281 294
282 259
282 271
282 274
282 276
282 277
282 284
283 263
283 266
283 267
283 268
283 290
283 291
283 294
284 261
284 271
284 274
284 276
284 282
284 286
285 273
285 288
285 293
286 261
286 262
286 271
286 274
286 275
286 281
286 284
286 294
287 272
287 273
287 289
288 268
288 285
288 291
288 293
289 272
289 273
289 287
289 293
290 263
290 266
290 267
290 275
290 281
290 283
290 294
291 267
291 268
291 283
291 288
292 258
292 260
292 270
293 272
293 273
293 285
293 288
293 289
294 262
294 263
294 266
294 275
294 281
294 283
294 286
294 290
