1 2
2 1
3 4
4 3
4 8
5 11
6 7
7 6
8 4
8 9
8 22
9 8
9 25
10 11
11 5
11 10
11 12
11 34
12 11
12 13
12 33
12 34
13 12
13 31
13 33
14 17
14 31
14 36
15 20
15 24
15 41
15 42
15 43
16 24
16 28
16 32
16 37
17 14
17 18
17 36
18 17
18 23
18 36
18 38
19 21
19 27
19 30
19 44
20 15
20 22
20 41
20 43
20 46
21 19
21 27
21 47
22 8
22 20
22 25
22 40
22 41
22 46
23 18
23 26
23 38
24 15
24 16
24 32
24 42
25 9
25 22
25 29
25 40
25 46
26 23
26 35
26 38
27 19
27 21
27 47
28 16
28 30
28 37
28 44
28 45
29 25
29 39
29 40
30 19
30 28
30 44
30 45
31 13
31 14
31 33
31 50
31 52
32 16
32 24
32 37
32 42
33 12
33 13
33 31
33 34
33 49
33 50
34 11
34 12
34 33
34 49
34 51
35 26
35 38
35 39
35 58
36 14
36 17
36 18
36 53
36 54
37 16
37 28
37 32
37 45
38 18
38 23
38 26
38 35
38 55
38 56
39 29
39 35
39 40
39 57
39 58
40 22
40 25
40 29
40 39
40 46
40 57
41 15
41 20
41 22
41 43
41 46
41 60
42 15
42 24
42 32
42 43
42 59
42 63
42 69
43 15
43 20
43 41
43 42
43 60
44 19
44 28
44 30
44 45
44 64
45 28
45 30
45 37
45 44
46 20
46 22
46 25
46 40
46 41
46 60
46 61
47 21
47 27
47 62
47 68
48 51
49 33
49 34
49 50
49 51
50 31
50 33
50 49
50 52
50 65
50 76
51 34
51 48
51 49
51 73
52 31
52 50
52 65
52 66
53 36
53 54
53 56
54 36
54 53
54 66
55 38
55 56
55 58
55 78
56 38
56 53
56 55
56 77
57 39
57 40
57 70
58 35
58 39
58 55
59 42
59 63
59 67
59 69
60 41
60 43
60 46
60 61
60 72
60 83
61 46
61 60
61 70
61 72
61 83
62 47
62 64
62 68
62 74
63 42
63 59
63 67
63 69
64 44
64 62
64 74
64 75
65 50
65 52
65 66
65 76
65 80
66 52
66 54
66 65
66 80
66 82
67 59
67 63
67 71
67 91
68 47
68 62
68 74
68 93
69 42
69 59
69 63
69 72
69 86
69 88
70 57
70 61
70 85
71 67
71 75
71 91
72 60
72 61
72 69
72 83
72 86
72 98
73 51
73 79
73 89
74 62
74 64
74 68
74 75
74 100
75 64
75 71
75 74
76 50
76 65
76 90
76 92
77 56
77 78
77 87
77 96
78 55
78 77
78 81
78 96
78 97
78 99
79 73
79 89
80 65
80 66
80 82
80 92
80 95
81 78
81 97
81 99
82 66
82 80
82 87
82 95
83 60
83 61
83 72
83 98
83 105
84 97
84 101
84 102
85 70
85 102
85 103
85 105
86 69
86 72
86 88
86 98
87 77
87 82
87 95
87 96
88 69
88 86
88 94
88 107
89 73
89 79
89 90
90 76
90 89
90 92
90 110
91 67
91 71
91 94
91 104
91 106
92 76
92 80
92 90
93 68
93 100
93 108
93 109
94 88
94 91
94 106
94 107
95 80
95 82
95 87
96 77
96 78
96 87
96 99
96 112
96 113
97 78
97 81
97 84
97 99
97 101
97 115
98 72
98 83
98 86
98 105
99 78
99 81
99 96
99 97
99 113
100 74
100 93
100 104
100 108
101 84
101 97
101 102
101 103
101 117
102 84
102 85
102 101
102 103
103 85
103 101
103 102
104 91
104 100
104 106
104 119
105 83
105 85
105 98
106 91
106 94
106 104
106 107
106 122
107 88
107 94
107 106
107 128
108 93
108 100
108 109
108 126
109 93
109 108
109 126
110 90
110 111
110 129
110 130
111 110
111 129
112 96
112 116
112 118
112 131
112 138
113 96
113 99
113 115
113 118
113 134
113 136
114 127
114 130
114 132
115 97
115 113
115 117
115 133
115 134
116 112
116 127
116 131
117 101
117 115
117 124
117 133
117 140
118 112
118 113
118 131
118 136
118 138
119 104
119 122
119 142
119 146
119 148
120 123
120 128
120 139
121 124
121 135
121 140
121 143
122 106
122 119
122 137
122 146
123 120
123 125
123 135
124 117
124 121
124 140
124 143
125 123
125 135
126 108
126 109
126 142
126 144
126 150
127 114
127 116
127 132
127 151
128 107
128 120
128 137
128 139
129 110
129 111
129 130
129 145
129 147
129 149
130 110
130 114
130 129
130 132
130 147
130 149
131 112
131 116
131 118
131 138
132 114
132 127
132 130
132 147
132 151
133 115
133 117
133 134
133 154
133 157
134 113
134 115
134 133
134 136
135 121
135 123
135 125
135 143
135 156
136 113
136 118
136 134
136 138
136 153
137 122
137 128
137 139
137 146
137 166
138 112
138 118
138 131
138 136
138 153
139 120
139 128
139 137
139 160
140 117
140 121
140 124
140 143
140 154
140 167
141 145
141 158
142 119
142 126
142 144
142 148
142 168
142 174
143 121
143 124
143 135
143 140
143 163
143 167
144 126
144 142
144 150
144 171
145 129
145 141
145 149
145 155
145 158
145 165
146 119
146 122
146 137
146 148
146 166
146 168
146 169
147 129
147 130
147 132
147 149
147 151
147 161
147 165
147 170
147 173
148 119
148 142
148 146
148 168
148 169
148 174
149 129
149 130
149 145
149 147
149 155
149 161
149 165
149 170
150 126
150 144
150 171
151 127
151 132
151 147
151 152
151 161
151 164
151 173
152 151
152 164
152 173
152 176
153 136
153 138
153 162
153 179
154 133
154 140
154 157
154 167
154 172
154 181
155 145
155 149
155 158
155 165
155 170
155 185
156 135
156 163
156 175
156 182
157 133
157 154
157 162
157 172
157 181
157 183
158 141
158 145
158 155
158 165
159 160
159 175
159 184
159 186
160 139
160 159
160 177
160 184
160 192
161 147
161 149
161 151
161 165
161 170
161 173
161 187
162 153
162 157
162 183
163 143
163 156
163 167
163 182
164 151
164 152
164 173
164 176
164 189
165 145
165 147
165 149
165 155
165 158
165 161
165 170
165 185
165 190
166 137
166 146
166 169
166 177
166 191
167 140
167 143
167 154
167 163
167 172
168 142
168 146
168 148
168 169
168 174
168 180
168 193
169 146
169 148
169 166
169 168
170 147
170 149
170 155
170 161
170 165
170 173
170 185
170 187
170 190
171 144
171 150
171 174
171 180
171 188
172 154
172 157
172 167
172 181
172 183
173 147
173 151
173 152
173 161
173 164
173 170
173 187
173 189
174 142
174 148
174 168
174 171
174 180
174 193
175 156
175 159
175 182
175 184
175 186
176 152
176 164
176 178
176 189
176 194
176 195
177 160
177 166
177 191
177 192
178 176
178 179
178 194
178 195
178 196
179 153
179 178
179 195
179 196
179 198
180 168
180 171
180 174
180 188
180 193
180 204
181 154
181 157
181 172
181 183
181 199
181 205
182 156
182 163
182 175
182 186
182 201
183 157
183 162
183 172
183 181
183 197
183 203
184 159
184 160
184 175
184 186
184 192
184 202
184 206
185 155
185 165
185 170
185 190
185 207
186 159
186 175
186 182
186 184
186 202
187 161
187 170
187 173
187 189
187 190
187 209
188 171
188 180
188 212
189 164
189 173
189 176
189 187
189 194
189 211
190 165
190 170
190 185
190 187
190 207
190 209
191 166
191 177
191 192
191 208
191 210
192 160
192 177
192 184
192 191
192 206
192 210
193 168
193 174
193 180
193 204
194 176
194 178
194 189
194 195
194 213
195 176
195 178
195 179
195 194
195 196
195 215
196 178
196 179
196 195
196 198
196 216
197 183
197 198
197 203
197 217
197 218
198 179
198 196
198 197
198 217
199 181
199 200
199 203
199 205
200 199
200 201
200 220
201 182
201 200
201 220
201 221
202 184
202 186
202 206
202 224
202 228
203 183
203 197
203 199
203 205
203 217
203 218
204 180
204 193
204 212
204 219
205 181
205 199
205 203
205 218
206 184
206 192
206 202
206 210
206 224
206 231
207 185
207 190
207 209
207 222
207 226
208 191
208 210
208 214
208 223
208 230
209 187
209 190
209 207
209 211
209 222
209 226
210 191
210 192
210 206
210 208
210 223
210 231
211 189
211 209
211 213
211 236
211 237
212 188
212 204
212 233
212 234
213 194
213 211
213 215
213 235
214 208
214 219
214 230
215 195
215 213
215 216
215 235
216 196
216 215
216 217
216 241
217 197
217 198
217 203
217 216
217 218
217 239
218 197
218 203
218 205
218 217
218 243
219 204
219 214
219 230
219 233
220 200
220 201
220 221
220 225
220 244
221 201
221 220
221 228
221 232
221 240
222 207
222 209
222 226
222 229
222 238
223 208
223 210
223 230
223 231
223 251
224 202
224 206
224 228
224 231
224 247
224 249
225 220
225 242
225 244
226 207
226 209
226 222
226 236
226 238
227 229
228 202
228 221
228 224
228 232
228 240
228 248
228 249
229 222
229 227
229 238
230 208
230 214
230 219
230 223
230 250
230 254
231 206
231 210
231 223
231 224
231 247
232 221
232 228
232 240
232 248
232 249
233 212
233 219
233 252
233 253
234 212
235 213
235 215
235 237
235 241
236 211
236 226
236 237
236 238
236 256
237 211
237 235
237 236
238 222
238 226
238 229
238 236
238 256
239 217
239 243
239 245
240 221
240 228
240 232
240 248
241 216
241 235
241 245
242 225
242 244
242 246
243 218
243 239
243 246
244 220
244 225
244 242
245 239
245 241
245 258
246 242
246 243
247 224
247 231
247 249
247 251
248 228
248 232
248 240
248 249
249 224
249 228
249 232
249 247
249 248
250 230
250 253
250 254
251 223
251 247
251 254
252 233
252 253
253 233
253 250
253 252
254 230
254 250
254 251
255 257
255 259
255 269
256 236
256 238
256 264
256 268
257 255
257 259
258 245
258 275
258 276
258 281
259 255
259 257
259 269
260 261
260 270
260 273
260 280
260 285
261 260
261 270
261 274
261 280
261 285
262 265
262 274
262 280
262 289
262 293
263 264
263 277
263 278
263 279
264 256
264 263
264 268
264 277
264 278
265 262
265 266
265 282
265 289
266 265
266 267
266 282
267 266
267 287
267 290
268 256
268 264
268 269
268 278
269 255
269 259
269 268
269 291
270 260
270 261
270 273
270 283
270 285
271 272
271 286
271 288
272 271
272 288
272 292
273 260
273 270
273 281
273 283
274 261
274 262
274 280
274 289
274 293
275 258
275 276
275 281
276 258
276 275
276 277
276 279
277 263
277 264
277 276
277 278
277 279
278 263
278 264
278 268
278 277
279 263
279 276
279 277
280 260
280 261
280 262
280 274
280 285
280 293
281 258
281 273
281 275
281 283
282 265
282 266
282 289
282 290
283 270
283 273
283 281
284 287
284 292
285 260
285 261
285 270
285 280
286 271
286 288
287 267
287 284
287 290
288 271
288 272
288 286
288 292
289 262
289 265
289 274
289 282
289 293
290 267
290 282
290 287
291 269
292 272
292 284
292 288
293 262
293 274
293 280
293 289
