1 2
2 1
3 4
4 3
4 7
5 6
6 5
7 4
7 8
7 21
8 7
9 10
10 9
10 11
10 33
11 10
11 12
11 32
11 33
12 11
12 30
12 32
13 16
13 30
13 35
14 19
14 23
14 41
14 42
15 27
15 31
15 36
16 13
16 17
16 35
17 16
17 22
17 35
17 37
18 20
18 29
18 43
19 14
19 21
19 40
19 42
19 45
20 18
20 26
20 46
21 7
21 19
21 24
21 40
21 45
22 17
22 25
22 37
23 14
23 31
23 41
24 21
24 28
24 39
24 45
25 22
25 34
25 37
26 20
26 46
27 15
27 29
27 36
27 43
27 44
28 24
28 38
28 39
29 18
29 27
29 43
29 44
30 12
30 13
30 32
30 49
30 51
31 15
31 23
31 36
31 41
32 11
32 12
32 30
32 33
32 48
32 49
33 10
33 11
33 32
33 48
33 50
34 25
34 37
34 38
34 57
35 13
35 16
35 17
35 52
35 53
36 15
36 27
36 31
36 44
37 17
37 22
37 25
37 34
37 54
37 55
38 28
38 34
38 56
39 24
39 28
39 45
39 56
40 19
40 21
40 42
40 45
40 59
41 14
41 23
41 31
41 42
41 58
41 62
42 14
42 19
42 40
42 41
42 59
43 18
43 27
43 29
43 44
43 63
44 27
44 29
44 36
44 43
45 19
45 21
45 24
45 39
45 40
45 59
45 60
46 20
46 26
46 61
46 67
47 50
48 32
48 33
48 49
48 50
49 30
49 32
49 48
49 51
49 64
49 75
50 33
50 47
50 48
50 72
51 30
51 49
51 64
51 65
52 35
52 53
52 55
53 35
53 52
53 65
54 37
54 55
54 57
55 37
55 52
55 54
56 38
56 39
56 69
57 34
57 54
58 41
58 62
58 66
58 68
59 40
59 42
59 45
59 60
59 71
59 82
60 45
60 59
60 69
60 71
61 46
61 63
61 67
61 73
62 41
62 58
62 66
62 68
63 43
63 61
63 73
63 74
64 49
64 51
64 65
64 75
65 51
65 53
65 64
65 79
65 81
66 58
66 62
66 70
66 90
67 46
67 61
67 92
68 58
68 62
68 71
68 85
68 87
69 56
69 60
69 84
70 66
70 74
70 90
71 59
71 60
71 68
71 82
71 85
72 50
72 78
72 88
73 61
73 63
73 74
74 63
74 70
74 73
75 49
75 64
75 89
75 91
76 77
76 86
76 95
77 76
77 80
77 95
77 96
77 98
78 72
78 88
79 65
79 81
79 91
79 94
80 77
80 96
80 98
81 65
81 79
81 86
81 94
82 59
82 71
82 97
82 104
83 96
83 100
83 101
84 69
84 102
84 104
85 68
85 71
85 87
85 97
86 76
86 81
86 94
86 95
87 68
87 85
87 93
87 106
88 72
88 78
88 89
89 75
89 88
89 91
90 66
90 70
90 93
90 103
90 105
91 75
91 79
91 89
92 67
92 99
92 107
92 108
93 87
93 90
93 105
93 106
94 79
94 81
94 86
95 76
95 77
95 86
95 98
96 77
96 80
96 83
96 98
96 100
97 82
97 85
97 104
98 77
98 80
98 95
98 96
98 112
99 92
99 103
99 107
100 83
100 96
100 101
100 116
101 83
101 100
101 102
102 84
102 101
103 90
103 99
103 105
104 82
104 84
104 97
105 90
105 93
105 103
105 121
106 87
106 93
106 127
107 92
107 99
107 108
107 125
108 92
108 107
108 125
109 110
109 128
109 129
110 109
110 128
111 115
111 117
111 130
111 137
112 98
112 117
112 133
112 135
113 126
113 129
113 131
114 116
114 132
114 133
115 111
115 126
115 130
116 100
116 114
116 123
116 132
117 111
117 112
117 130
117 135
117 137
118 121
118 141
118 145
118 147
119 122
119 127
119 138
120 123
120 134
120 139
120 142
121 105
121 118
121 136
121 145
122 119
122 124
123 116
123 120
123 139
123 142
124 122
124 134
125 107
125 108
125 141
125 143
125 149
126 113
126 115
126 131
126 150
127 106
127 119
127 136
127 138
128 109
128 110
128 129
128 144
128 146
128 148
129 109
129 113
129 128
129 131
129 146
129 148
130 111
130 115
130 117
130 137
131 113
131 126
131 129
131 146
131 150
132 114
132 116
132 133
132 153
132 156
133 112
133 114
133 132
133 135
134 120
134 124
134 142
134 155
135 112
135 117
135 133
135 137
135 152
136 121
136 127
136 138
136 145
136 165
137 111
137 117
137 130
137 135
137 152
138 119
138 127
138 136
138 159
139 120
139 123
139 142
139 153
139 166
140 144
140 157
141 118
141 125
141 143
141 147
141 167
141 173
142 120
142 123
142 134
142 139
142 162
142 166
143 125
143 141
143 149
143 170
144 128
144 140
144 148
144 154
144 157
144 164
145 118
145 121
145 136
145 147
145 165
145 167
145 168
146 128
146 129
146 131
146 148
146 150
146 160
146 169
146 172
147 118
147 141
147 145
147 167
147 168
147 173
148 128
148 129
148 144
148 146
148 154
148 160
148 164
148 169
149 125
149 143
149 170
150 126
150 131
150 146
150 151
150 160
150 163
150 172
151 150
151 163
151 175
152 135
152 137
152 161
152 178
153 132
153 139
153 156
153 166
153 171
153 180
154 144
154 148
154 157
154 164
154 169
154 184
155 134
155 162
155 174
155 181
156 132
156 153
156 161
156 171
156 180
156 182
157 140
157 144
157 154
157 164
158 159
158 174
158 183
158 185
159 138
159 158
159 176
159 183
160 146
160 148
160 150
160 164
160 169
160 172
160 186
161 152
161 156
161 182
162 142
162 155
162 166
163 150
163 151
163 172
163 175
163 188
164 144
164 148
164 154
164 157
164 160
164 169
164 184
164 189
165 136
165 145
165 168
165 176
165 190
166 139
166 142
166 153
166 162
166 171
167 141
167 145
167 147
167 168
167 173
167 179
167 192
168 145
168 147
168 165
168 167
169 146
169 148
169 154
169 160
169 164
169 172
169 184
169 189
170 143
170 149
170 173
170 179
170 187
171 153
171 156
171 166
171 180
171 182
172 146
172 150
172 160
172 163
172 169
172 186
172 188
173 141
173 147
173 167
173 170
173 179
173 192
174 155
174 158
174 181
174 183
174 185
175 151
175 163
175 177
175 188
175 193
175 194
176 159
176 165
176 190
176 191
177 175
177 178
177 193
177 194
177 195
178 152
178 177
178 194
178 195
178 197
179 167
179 170
179 173
179 187
179 192
179 203
180 153
180 156
180 171
180 182
180 198
180 204
181 155
181 174
181 185
181 200
182 156
182 161
182 171
182 180
182 196
182 202
183 158
183 159
183 174
183 185
183 191
183 201
183 205
184 154
184 164
184 169
184 189
184 206
185 158
185 174
185 181
185 183
185 201
186 160
186 172
186 188
186 208
187 170
187 179
187 211
188 163
188 172
188 175
188 186
188 193
188 210
189 164
189 169
189 184
189 206
189 208
190 165
190 176
190 191
190 207
190 209
191 176
191 183
191 190
191 205
191 209
192 167
192 173
192 179
192 203
193 175
193 177
193 188
193 194
193 212
194 175
194 177
194 178
194 193
194 195
194 214
195 177
195 178
195 194
195 197
195 215
196 182
196 197
196 202
196 216
197 178
197 195
197 196
197 216
198 180
198 199
198 204
199 198
199 200
199 219
200 181
200 199
200 220
201 183
201 185
201 205
201 223
202 182
202 196
202 204
202 216
202 217
203 179
203 192
203 211
203 218
204 180
204 198
204 202
204 217
205 183
205 191
205 201
205 209
205 223
206 184
206 189
206 208
206 221
206 225
207 190
207 209
207 213
207 222
207 229
208 186
208 189
208 206
208 210
208 221
208 225
209 190
209 191
209 205
209 207
209 222
209 230
210 188
210 208
210 212
210 235
210 236
211 187
211 203
211 232
211 233
212 193
212 210
212 214
212 234
213 207
213 218
213 229
214 194
214 212
214 215
214 234
215 195
215 214
215 240
216 196
216 197
216 202
216 217
216 238
217 202
217 204
217 216
218 203
218 213
218 229
218 232
219 199
219 220
219 224
219 243
220 200
220 219
220 231
220 239
221 206
221 208
221 225
221 228
221 237
222 207
222 209
222 229
222 230
223 201
223 205
223 227
223 230
223 246
223 248
224 219
224 241
224 243
225 206
225 208
225 221
225 235
225 237
226 228
227 223
227 231
227 247
227 248
228 221
228 226
228 237
229 207
229 213
229 218
229 222
229 249
229 253
230 209
230 222
230 223
230 246
231 220
231 227
231 239
231 247
231 248
232 211
232 218
232 251
232 252
233 211
234 212
234 214
234 236
234 240
235 210
235 225
235 236
235 255
236 210
236 234
236 235
237 221
237 225
237 228
237 255
238 216
238 242
238 244
239 220
239 231
239 247
240 215
240 234
240 244
241 224
241 243
241 245
242 238
242 245
243 219
243 224
243 241
244 238
244 240
244 257
245 241
245 242
246 223
246 230
246 248
246 250
247 227
247 231
247 239
247 248
248 223
248 227
248 231
248 246
248 247
249 229
249 252
249 253
250 246
250 253
251 232
251 252
252 232
252 249
252 251
253 229
253 249
253 250
254 256
254 258
255 235
255 237
255 263
255 267
256 254
256 258
257 244
257 274
257 275
258 254
258 256
258 268
259 260
259 269
259 279
259 284
260 259
260 269
260 273
260 279
260 284
261 264
261 273
261 288
262 263
262 276
262 277
263 255
263 262
263 267
263 276
263 277
264 261
264 265
264 281
264 288
265 264
265 281
266 286
266 289
267 255
267 263
267 268
267 277
268 258
268 267
269 259
269 260
269 272
269 282
269 284
270 271
270 285
270 287
271 270
271 287
271 290
272 269
272 280
272 282
273 260
273 261
273 279
273 288
273 291
274 257
274 275
274 280
275 257
275 274
275 276
275 278
276 262
276 263
276 275
276 277
276 278
277 262
277 263
277 267
277 276
278 275
278 276
279 259
279 260
279 273
279 284
279 291
280 272
280 274
280 282
281 264
281 265
281 288
282 269
282 272
282 280
283 286
283 290
284 259
284 260
284 269
284 279
285 270
285 287
286 266
286 283
286 289
287 270
287 271
287 285
288 261
288 264
288 273
288 281
288 291
289 266
289 286
290 271
290 283
291 273
291 279
291 288
