1 2
1 3
1 23
1 24
1 26
1 28
1 34
1 43
1 44
2 1
2 10
2 23
2 26
2 28
2 37
2 44
3 1
3 16
3 21
3 24
3 26
3 34
3 48
4 7
4 15
4 25
4 27
4 40
4 49
5 10
5 17
5 19
5 20
5 22
5 38
5 39
6 9
6 15
6 16
6 21
6 31
6 32
6 45
6 47
7 4
7 11
7 25
7 27
7 41
8 14
8 18
8 19
8 30
8 33
8 36
8 57
9 6
9 15
9 21
9 31
9 32
9 45
9 52
10 2
10 5
10 17
10 22
10 23
10 37
10 38
10 53
11 7
11 25
11 27
11 41
11 46
12 13
12 14
12 18
12 29
12 35
12 36
12 42
12 56
13 12
13 29
13 35
13 42
13 55
14 8
14 12
14 18
14 29
14 30
14 36
14 42
15 4
15 6
15 9
15 25
15 32
15 40
15 49
16 3
16 6
16 21
16 24
16 26
16 31
16 34
16 45
16 47
16 48
17 5
17 10
17 20
17 22
17 37
17 38
17 39
17 53
18 8
18 12
18 14
18 29
18 30
18 36
18 42
18 56
19 5
19 8
19 20
19 22
19 30
19 33
19 39
19 54
20 5
20 17
20 19
20 22
20 33
20 39
20 50
20 54
21 3
21 6
21 9
21 16
21 24
21 31
21 32
21 34
21 45
21 47
21 52
22 5
22 10
22 17
22 19
22 20
22 33
22 38
22 39
22 50
22 53
23 1
23 2
23 10
23 26
23 28
23 37
23 43
23 44
23 62
24 1
24 3
24 16
24 21
24 26
24 31
24 34
24 43
24 47
24 48
24 66
24 68
25 4
25 7
25 11
25 15
25 27
25 40
25 41
25 49
25 51
25 58
26 1
26 2
26 3
26 16
26 23
26 24
26 28
26 34
26 43
26 44
26 48
26 61
26 66
27 4
27 7
27 11
27 25
27 40
27 41
27 51
27 58
28 1
28 2
28 23
28 26
28 37
28 43
28 44
28 61
28 62
28 63
29 12
29 13
29 14
29 18
29 35
29 36
29 42
29 55
29 56
30 8
30 14
30 18
30 19
30 33
30 36
30 57
31 6
31 9
31 16
31 21
31 24
31 32
31 34
31 45
31 47
31 52
31 65
31 71
32 6
32 9
32 15
32 21
32 31
32 40
32 45
32 47
32 49
32 52
32 65
33 8
33 19
33 20
33 22
33 30
33 39
33 50
33 54
33 64
34 1
34 3
34 16
34 21
34 24
34 26
34 31
34 43
34 45
34 47
34 48
34 61
34 66
34 68
34 76
35 12
35 13
35 29
35 42
35 55
35 56
35 67
36 8
36 12
36 14
36 18
36 29
36 30
36 42
36 56
36 57
36 69
36 78
37 2
37 10
37 17
37 23
37 28
37 38
37 44
37 53
37 59
37 62
37 63
37 79
37 80
38 5
38 10
38 17
38 22
38 37
38 39
38 50
38 53
38 59
38 63
38 73
38 80
39 5
39 17
39 19
39 20
39 22
39 33
39 38
39 50
39 53
39 54
39 64
39 73
39 74
40 4
40 15
40 25
40 27
40 32
40 41
40 49
40 51
40 58
40 70
40 72
40 83
41 7
41 11
41 25
41 27
41 40
41 46
41 51
41 58
41 60
41 72
41 87
42 12
42 13
42 14
42 18
42 29
42 35
42 36
42 55
42 56
42 67
42 69
42 77
43 1
43 23
43 24
43 26
43 28
43 34
43 44
43 48
43 61
43 62
43 66
43 68
43 75
44 1
44 2
44 23
44 26
44 28
44 37
44 43
44 61
44 62
44 63
44 66
44 75
44 79
44 82
45 6
45 9
45 16
45 21
45 31
45 32
45 34
45 47
45 52
45 65
45 71
45 76
45 81
46 11
46 41
46 58
46 60
46 85
46 91
47 6
47 16
47 21
47 24
47 31
47 32
47 34
47 45
47 48
47 52
47 65
47 66
47 68
47 71
47 76
48 3
48 16
48 24
48 26
48 34
48 43
48 47
48 61
48 66
48 68
48 76
48 89
49 4
49 15
49 25
49 32
49 40
49 51
49 52
49 70
49 72
49 81
49 83
49 93
50 20
50 22
50 33
50 38
50 39
50 53
50 54
50 59
50 64
50 73
50 74
50 88
51 25
51 27
51 40
51 41
51 49
51 58
51 70
51 72
51 83
51 87
51 93
52 9
52 21
52 31
52 32
52 45
52 47
52 49
52 65
52 70
52 71
52 81
53 10
53 17
53 22
53 37
53 38
53 39
53 50
53 59
53 63
53 73
53 74
53 79
53 80
53 88
53 96
54 19
54 20
54 33
54 39
54 50
54 64
54 74
54 84
54 88
55 13
55 29
55 35
55 42
55 56
55 67
55 77
55 90
56 12
56 18
56 29
56 35
56 36
56 42
56 55
56 57
56 67
56 69
56 77
56 86
56 92
57 8
57 30
57 36
57 56
57 64
57 69
57 78
57 86
57 94
57 101
58 25
58 27
58 40
58 41
58 46
58 51
58 60
58 70
58 72
58 83
58 85
58 87
58 103
59 37
59 38
59 50
59 53
59 62
59 63
59 73
59 74
59 79
59 80
59 82
59 96
59 100
59 102
60 41
60 46
60 58
60 85
60 87
60 91
61 26
61 28
61 34
61 43
61 44
61 48
61 62
61 66
61 68
61 75
61 82
61 89
61 95
61 98
62 23
62 28
62 37
62 43
62 44
62 59
62 61
62 63
62 66
62 75
62 79
62 80
62 82
62 95
62 100
63 28
63 37
63 38
63 44
63 53
63 59
63 62
63 73
63 75
63 79
63 80
63 82
63 95
63 100
63 102
64 33
64 39
64 50
64 54
64 57
64 74
64 78
64 84
64 88
64 94
64 105
65 31
65 32
65 45
65 47
65 52
65 68
65 71
65 76
65 81
65 97
65 104
66 24
66 26
66 34
66 43
66 44
66 47
66 48
66 61
66 62
66 68
66 75
66 76
66 89
66 98
66 99
67 35
67 42
67 55
67 56
67 77
67 90
67 92
68 24
68 34
68 43
68 47
68 48
68 61
68 65
68 66
68 71
68 76
68 89
68 98
68 99
68 104
68 116
69 36
69 42
69 56
69 57
69 77
69 78
69 86
69 92
69 94
69 101
70 40
70 49
70 51
70 52
70 58
70 72
70 81
70 83
70 87
70 93
70 109
70 110
71 31
71 45
71 47
71 52
71 65
71 68
71 76
71 81
71 89
71 97
71 99
71 104
71 117
72 40
72 41
72 49
72 51
72 58
72 70
72 83
72 87
72 93
72 103
72 109
72 110
72 112
73 38
73 39
73 50
73 53
73 59
73 63
73 74
73 79
73 80
73 88
73 96
73 100
73 102
73 113
73 120
74 39
74 50
74 53
74 54
74 59
74 64
74 73
74 80
74 84
74 88
74 96
74 113
74 114
75 43
75 44
75 61
75 62
75 63
75 66
75 79
75 82
75 95
75 98
75 100
75 118
76 34
76 45
76 47
76 48
76 65
76 66
76 68
76 71
76 89
76 97
76 99
76 104
76 116
76 117
77 42
77 55
77 56
77 67
77 69
77 86
77 90
77 92
77 101
77 107
78 36
78 57
78 64
78 69
78 84
78 86
78 94
78 101
78 121
78 125
79 37
79 44
79 53
79 59
79 62
79 63
79 73
79 75
79 80
79 82
79 95
79 96
79 100
79 102
79 119
79 120
80 37
80 38
80 53
80 59
80 62
80 63
80 73
80 74
80 79
80 82
80 88
80 95
80 96
80 100
80 102
80 119
80 120
81 45
81 49
81 52
81 65
81 70
81 71
81 93
81 97
81 104
81 106
81 110
81 117
81 126
82 44
82 59
82 61
82 62
82 63
82 75
82 79
82 80
82 95
82 98
82 100
82 102
82 118
82 119
82 130
83 40
83 49
83 51
83 58
83 70
83 72
83 87
83 93
83 103
83 109
83 110
83 112
83 131
83 132
84 54
84 64
84 74
84 78
84 88
84 94
84 105
84 114
84 123
85 46
85 58
85 60
85 87
85 91
85 103
85 108
85 111
85 112
85 122
85 124
86 56
86 57
86 69
86 77
86 78
86 92
86 94
86 101
86 107
86 121
86 125
87 41
87 51
87 58
87 60
87 70
87 72
87 83
87 85
87 91
87 93
87 103
87 109
87 111
87 112
87 122
87 132
88 50
88 53
88 54
88 64
88 73
88 74
88 80
88 84
88 96
88 102
88 105
88 113
88 114
88 123
88 127
88 128
89 48
89 61
89 66
89 68
89 71
89 76
89 97
89 98
89 99
89 104
89 116
89 118
89 129
90 55
90 67
90 77
90 92
90 107
90 115
90 134
91 46
91 60
91 85
91 87
91 103
91 108
91 111
91 122
91 124
91 138
92 56
92 67
92 69
92 77
92 86
92 90
92 101
92 107
92 115
92 134
92 137
93 49
93 51
93 70
93 72
93 81
93 83
93 87
93 106
93 109
93 110
93 112
93 126
93 131
93 132
94 57
94 64
94 69
94 78
94 84
94 86
94 101
94 105
94 121
94 125
94 136
94 140
95 61
95 62
95 63
95 75
95 79
95 80
95 82
95 98
95 100
95 102
95 118
95 119
95 130
95 133
96 53
96 59
96 73
96 74
96 79
96 80
96 88
96 100
96 102
96 113
96 114
96 119
96 120
96 127
96 128
96 135
97 65
97 71
97 76
97 81
97 89
97 99
97 104
97 106
97 117
97 126
97 129
97 139
98 61
98 66
98 68
98 75
98 82
98 89
98 95
98 99
98 116
98 118
98 130
98 133
99 66
99 68
99 71
99 76
99 89
99 97
99 98
99 104
99 116
99 117
99 118
99 129
99 133
99 141
100 59
100 62
100 63
100 73
100 75
100 79
100 80
100 82
100 95
100 96
100 102
100 119
100 120
100 128
100 130
100 135
101 57
101 69
101 77
101 78
101 86
101 92
101 94
101 107
101 121
101 125
101 136
101 137
101 140
101 148
102 59
102 63
102 73
102 79
102 80
102 82
102 88
102 95
102 96
102 100
102 113
102 119
102 120
102 127
102 128
102 135
102 151
103 58
103 72
103 83
103 85
103 87
103 91
103 108
103 109
103 111
103 112
103 122
103 124
103 132
103 142
103 144
104 65
104 68
104 71
104 76
104 81
104 89
104 97
104 99
104 106
104 116
104 117
104 126
104 129
104 139
104 141
105 64
105 84
105 88
105 94
105 113
105 114
105 121
105 123
105 143
106 81
106 93
106 97
106 104
106 110
106 117
106 126
106 131
106 139
106 145
107 77
107 86
107 90
107 92
107 101
107 115
107 125
107 134
107 136
107 137
107 156
108 85
108 91
108 103
108 111
108 122
108 124
108 138
108 144
109 70
109 72
109 83
109 87
109 93
109 103
109 110
109 112
109 122
109 131
109 132
109 142
109 147
109 152
110 70
110 72
110 81
110 83
110 93
110 106
110 109
110 112
110 126
110 131
110 132
110 147
110 152
111 85
111 87
111 91
111 103
111 108
111 112
111 122
111 124
111 138
111 142
111 144
111 159
112 72
112 83
112 85
112 87
112 93
112 103
112 109
112 110
112 111
112 122
112 131
112 132
112 142
112 144
112 147
113 73
113 74
113 88
113 96
113 102
113 105
113 114
113 120
113 123
113 127
113 128
113 135
113 143
113 146
114 74
114 84
114 88
114 96
114 105
114 113
114 123
114 127
114 128
114 143
114 146
115 90
115 92
115 107
115 134
115 137
115 161
116 68
116 76
116 89
116 98
116 99
116 104
116 118
116 129
116 133
116 141
116 149
116 153
116 155
117 71
117 76
117 81
117 97
117 99
117 104
117 106
117 126
117 129
117 139
117 141
117 145
117 155
117 157
118 75
118 82
118 89
118 95
118 98
118 99
118 116
118 119
118 130
118 133
118 141
118 149
118 150
118 153
119 79
119 80
119 82
119 95
119 96
119 100
119 102
119 118
119 120
119 128
119 130
119 133
119 135
119 150
119 151
119 158
119 170
120 73
120 79
120 80
120 96
120 100
120 102
120 113
120 119
120 127
120 128
120 135
120 151
120 158
120 160
120 169
121 78
121 86
121 94
121 101
121 105
121 123
121 125
121 136
121 140
121 148
121 154
122 85
122 87
122 91
122 103
122 108
122 109
122 111
122 112
122 124
122 131
122 132
122 138
122 142
122 144
122 147
122 159
122 165
123 84
123 88
123 105
123 113
123 114
123 121
123 127
123 143
123 146
123 164
124 85
124 91
124 103
124 108
124 111
124 122
124 138
124 144
124 159
125 78
125 86
125 94
125 101
125 107
125 121
125 136
125 137
125 140
125 148
125 154
125 156
125 171
126 81
126 93
126 97
126 104
126 106
126 110
126 117
126 129
126 131
126 139
126 145
126 152
126 157
126 162
127 88
127 96
127 102
127 113
127 114
127 120
127 123
127 128
127 135
127 143
127 146
127 151
127 160
127 167
128 88
128 96
128 100
128 102
128 113
128 114
128 119
128 120
128 127
128 135
128 146
128 151
128 158
128 160
128 167
128 169
129 89
129 97
129 99
129 104
129 116
129 117
129 126
129 139
129 141
129 145
129 153
129 155
129 157
129 168
129 175
130 82
130 95
130 98
130 100
130 118
130 119
130 133
130 135
130 149
130 150
130 158
130 170
130 174
130 176
131 83
131 93
131 106
131 109
131 110
131 112
131 122
131 126
131 132
131 142
131 145
131 147
131 152
131 163
131 173
132 83
132 87
132 93
132 103
132 109
132 110
132 112
132 122
132 131
132 142
132 147
132 152
132 163
132 165
133 95
133 98
133 99
133 116
133 118
133 119
133 130
133 141
133 149
133 150
133 153
133 168
133 174
133 176
134 90
134 92
134 107
134 115
134 137
134 156
134 161
134 166
135 96
135 100
135 102
135 113
135 119
135 120
135 127
135 128
135 130
135 150
135 151
135 158
135 160
135 169
135 170
135 182
136 94
136 101
136 107
136 121
136 125
136 137
136 140
136 148
136 154
136 156
136 166
136 171
136 172
137 92
137 101
137 107
137 115
137 125
137 134
137 136
137 148
137 156
137 161
137 166
137 171
138 91
138 108
138 111
138 122
138 124
138 142
138 144
138 159
138 181
139 97
139 104
139 106
139 117
139 126
139 129
139 141
139 145
139 155
139 157
139 162
139 175
140 94
140 101
140 121
140 125
140 136
140 143
140 148
140 154
140 156
140 164
140 171
140 172
141 99
141 104
141 116
141 117
141 118
141 129
141 133
141 139
141 149
141 153
141 155
141 157
141 168
141 175
141 177
141 186
142 103
142 109
142 111
142 112
142 122
142 131
142 132
142 138
142 144
142 147
142 159
142 163
142 165
142 178
142 180
143 105
143 113
143 114
143 123
143 127
143 140
143 146
143 154
143 164
143 167
143 172
143 179
143 184
144 103
144 108
144 111
144 112
144 122
144 124
144 138
144 142
144 159
144 165
144 178
144 181
145 106
145 117
145 126
145 129
145 131
145 139
145 152
145 155
145 157
145 162
145 173
145 175
145 187
146 113
146 114
146 123
146 127
146 128
146 143
146 160
146 164
146 167
146 179
146 184
147 109
147 110
147 112
147 122
147 131
147 132
147 142
147 152
147 163
147 165
147 173
147 178
147 180
147 190
147 194
148 101
148 121
148 125
148 136
148 137
148 140
148 154
148 156
148 166
148 171
148 172
148 188
148 189
149 116
149 118
149 130
149 133
149 141
149 150
149 153
149 158
149 168
149 174
149 176
149 185
150 118
150 119
150 130
150 133
150 135
150 149
150 151
150 158
150 170
150 174
150 176
150 185
151 102
151 119
151 120
151 127
151 128
151 135
151 150
151 158
151 160
151 167
151 169
151 170
151 182
151 193
152 109
152 110
152 126
152 131
152 132
152 145
152 147
152 162
152 163
152 173
152 180
152 190
152 194
153 116
153 118
153 129
153 133
153 141
153 149
153 155
153 168
153 175
153 176
153 177
153 185
153 186
153 191
154 121
154 125
154 136
154 140
154 143
154 148
154 156
154 164
154 171
154 172
154 188
154 189
155 116
155 117
155 129
155 139
155 141
155 145
155 153
155 157
155 162
155 168
155 175
155 177
155 186
155 191
156 107
156 125
156 134
156 136
156 137
156 140
156 148
156 154
156 161
156 166
156 171
156 183
156 189
156 192
157 117
157 126
157 129
157 139
157 141
157 145
157 155
157 162
157 175
157 177
157 186
157 187
158 119
158 120
158 128
158 130
158 135
158 149
158 150
158 151
158 160
158 169
158 170
158 174
158 176
158 182
158 198
159 111
159 122
159 124
159 138
159 142
159 144
159 165
159 178
159 181
159 195
159 197
160 120
160 127
160 128
160 135
160 146
160 151
160 158
160 167
160 169
160 170
160 179
160 182
160 193
160 196
160 201
161 115
161 134
161 137
161 156
161 166
161 183
161 192
162 126
162 139
162 145
162 152
162 155
162 157
162 173
162 175
162 187
162 190
162 204
163 131
163 132
163 142
163 147
163 152
163 165
163 173
163 178
163 180
163 190
163 194
163 199
163 209
164 123
164 140
164 143
164 146
164 154
164 167
164 172
164 179
164 184
164 207
165 122
165 132
165 142
165 144
165 147
165 159
165 163
165 178
165 180
165 181
165 194
165 195
165 197
165 199
166 134
166 136
166 137
166 148
166 156
166 161
166 171
166 183
166 189
166 192
166 200
166 203
167 127
167 128
167 143
167 146
167 151
167 160
167 164
167 169
167 179
167 182
167 184
167 193
167 196
168 129
168 133
168 141
168 149
168 153
168 155
168 175
168 176
168 177
168 185
168 186
168 191
168 202
169 120
169 128
169 135
169 151
169 158
169 160
169 167
169 170
169 174
169 179
169 182
169 193
169 201
170 119
170 130
170 135
170 150
170 151
170 158
170 160
170 169
170 174
170 176
170 182
170 185
170 193
170 198
170 201
171 125
171 136
171 137
171 140
171 148
171 154
171 156
171 166
171 172
171 188
171 189
171 192
171 200
171 203
172 136
172 140
172 143
172 148
172 154
172 164
172 171
172 184
172 188
172 189
172 200
172 207
172 213
173 131
173 145
173 147
173 152
173 162
173 163
173 180
173 187
173 190
173 194
173 204
173 209
173 216
174 130
174 133
174 149
174 150
174 158
174 169
174 170
174 176
174 185
174 198
174 202
174 212
175 129
175 139
175 141
175 145
175 153
175 155
175 157
175 162
175 168
175 177
175 186
175 187
175 191
175 205
175 206
176 130
176 133
176 149
176 150
176 153
176 158
176 168
176 170
176 174
176 177
176 185
176 191
176 198
176 202
176 212
177 141
177 153
177 155
177 157
177 168
177 175
177 176
177 185
177 186
177 191
177 205
177 206
177 214
178 142
178 144
178 147
178 159
178 163
178 165
178 180
178 181
178 194
178 195
178 197
178 199
178 209
178 215
179 143
179 146
179 160
179 164
179 167
179 169
179 182
179 184
179 193
179 196
179 211
180 142
180 147
180 152
180 163
180 165
180 173
180 178
180 190
180 194
180 197
180 199
180 209
180 215
180 216
181 138
181 144
181 159
181 165
181 178
181 195
181 197
181 199
181 208
181 222
182 135
182 151
182 158
182 160
182 167
182 169
182 170
182 179
182 193
182 196
182 198
182 201
182 218
182 220
182 221
183 156
183 161
183 166
183 192
183 203
183 210
183 217
184 143
184 146
184 164
184 167
184 172
184 179
184 196
184 207
184 211
184 225
184 229
185 149
185 150
185 153
185 168
185 170
185 174
185 176
185 177
185 191
185 198
185 202
185 212
185 214
185 224
186 141
186 153
186 155
186 157
186 168
186 175
186 177
186 187
186 191
186 205
186 206
186 214
186 219
186 226
187 145
187 157
187 162
187 173
187 175
187 186
187 190
187 204
187 205
187 227
187 228
188 148
188 154
188 171
188 172
188 189
188 200
188 203
188 213
188 223
188 234
189 148
189 154
189 156
189 166
189 171
189 172
189 188
189 192
189 200
189 203
189 213
189 217
189 223
190 147
190 152
190 162
190 163
190 173
190 180
190 187
190 194
190 199
190 204
190 209
190 216
190 227
191 153
191 155
191 168
191 175
191 176
191 177
191 185
191 186
191 202
191 206
191 214
191 219
191 224
191 226
191 232
192 156
192 161
192 166
192 171
192 183
192 189
192 200
192 203
192 210
192 217
192 233
193 151
193 160
193 167
193 169
193 170
193 179
193 182
193 196
193 201
193 211
193 218
193 220
193 221
194 147
194 152
194 163
194 165
194 173
194 178
194 180
194 190
194 197
194 199
194 209
194 215
194 216
194 227
194 230
195 159
195 165
195 178
195 181
195 197
195 199
195 208
195 215
195 222
195 235
196 160
196 167
196 179
196 182
196 184
196 193
196 201
196 207
196 211
196 218
196 221
196 225
196 229
196 247
197 159
197 165
197 178
197 180
197 181
197 194
197 195
197 199
197 208
197 209
197 215
197 222
197 230
197 235
197 244
198 158
198 170
198 174
198 176
198 182
198 185
198 201
198 202
198 212
198 220
198 224
198 231
198 240
199 163
199 165
199 178
199 180
199 181
199 190
199 194
199 195
199 197
199 208
199 209
199 215
199 216
199 222
199 230
199 244
200 166
200 171
200 172
200 188
200 189
200 192
200 203
200 213
200 217
200 223
200 233
200 234
200 248
201 160
201 169
201 170
201 182
201 193
201 196
201 198
201 211
201 212
201 218
201 220
201 221
201 240
201 241
201 249
202 168
202 174
202 176
202 185
202 191
202 198
202 212
202 214
202 224
202 226
202 231
202 232
202 243
203 166
203 171
203 183
203 188
203 189
203 192
203 200
203 210
203 217
203 223
203 233
203 236
203 252
204 162
204 173
204 187
204 190
204 205
204 206
204 216
204 219
204 227
204 228
204 238
204 239
204 245
205 175
205 177
205 186
205 187
205 204
205 206
205 214
205 219
205 226
205 228
205 237
205 239
205 245
206 175
206 177
206 186
206 191
206 204
206 205
206 214
206 219
206 226
206 232
206 237
206 239
207 164
207 172
207 184
207 196
207 211
207 213
207 225
207 229
207 234
207 242
207 247
207 250
208 181
208 195
208 197
208 199
208 215
208 222
208 230
208 235
208 251
209 163
209 173
209 178
209 180
209 190
209 194
209 197
209 199
209 215
209 216
209 227
209 230
209 238
209 244
210 183
210 192
210 203
210 217
210 233
210 236
210 255
211 179
211 184
211 193
211 196
211 201
211 207
211 218
211 221
211 225
211 229
211 241
211 247
212 174
212 176
212 185
212 198
212 201
212 202
212 220
212 221
212 224
212 231
212 232
212 240
212 243
212 254
213 172
213 188
213 189
213 200
213 207
213 223
213 229
213 234
213 242
213 248
213 253
214 177
214 185
214 186
214 191
214 202
214 205
214 206
214 219
214 224
214 226
214 232
214 237
214 243
214 246
214 256
214 257
215 178
215 180
215 194
215 195
215 197
215 199
215 208
215 209
215 216
215 222
215 230
215 235
215 244
215 251
215 265
216 173
216 180
216 190
216 194
216 199
216 204
216 209
216 215
216 227
216 228
216 230
216 238
216 245
216 261
217 183
217 189
217 192
217 200
217 203
217 210
217 223
217 233
217 236
217 248
217 252
217 255
217 264
218 182
218 193
218 196
218 201
218 211
218 220
218 221
218 225
218 240
218 241
218 247
218 249
218 262
219 186
219 191
219 204
219 205
219 206
219 214
219 226
219 228
219 232
219 237
219 239
219 246
219 256
219 259
220 182
220 193
220 198
220 201
220 212
220 218
220 221
220 224
220 231
220 240
220 241
220 249
220 254
221 182
221 193
221 196
221 201
221 211
221 212
221 218
221 220
221 231
221 240
221 241
221 249
221 262
222 181
222 195
222 197
222 199
222 208
222 215
222 230
222 235
222 244
222 251
222 266
223 188
223 189
223 200
223 203
223 213
223 217
223 233
223 234
223 248
223 252
223 253
223 263
224 185
224 191
224 198
224 202
224 212
224 214
224 220
224 226
224 231
224 232
224 243
224 246
224 254
224 257
224 267
225 184
225 196
225 207
225 211
225 218
225 229
225 241
225 242
225 247
225 250
225 260
226 186
226 191
226 202
226 205
226 206
226 214
226 219
226 224
226 232
226 237
226 239
226 243
226 246
226 256
226 257
227 187
227 190
227 194
227 204
227 209
227 216
227 228
227 238
227 245
227 261
228 187
228 204
228 205
228 216
228 219
228 227
228 237
228 238
228 239
228 245
228 259
228 261
228 272
229 184
229 196
229 207
229 211
229 213
229 225
229 234
229 242
229 247
229 250
229 258
229 260
230 194
230 197
230 199
230 208
230 209
230 215
230 216
230 222
230 235
230 244
230 251
230 265
230 266
230 276
231 198
231 202
231 212
231 220
231 221
231 224
231 232
231 240
231 243
231 249
231 254
231 267
231 269
231 270
232 191
232 202
232 206
232 212
232 214
232 219
232 224
232 226
232 231
232 237
232 243
232 246
232 256
232 257
232 267
232 271
233 192
233 200
233 203
233 210
233 217
233 223
233 236
233 248
233 252
233 255
233 264
233 274
234 188
234 200
234 207
234 213
234 223
234 229
234 242
234 248
234 250
234 253
234 258
234 263
234 275
235 195
235 197
235 208
235 215
235 222
235 230
235 244
235 251
235 265
235 266
235 280
236 203
236 210
236 217
236 233
236 252
236 255
236 264
236 274
237 205
237 206
237 214
237 219
237 226
237 228
237 232
237 239
237 245
237 246
237 256
237 257
237 259
237 271
237 273
237 279
238 204
238 209
238 216
238 227
238 228
238 245
238 261
238 268
238 272
239 204
239 205
239 206
239 219
239 226
239 228
239 237
239 245
239 256
239 259
239 272
239 273
239 279
240 198
240 201
240 212
240 218
240 220
240 221
240 231
240 241
240 243
240 249
240 254
240 262
240 269
241 201
241 211
241 218
241 220
241 221
241 225
241 240
241 247
241 249
241 260
241 262
241 269
241 277
242 207
242 213
242 225
242 229
242 234
242 247
242 250
242 253
242 258
242 260
242 278
242 282
243 202
243 212
243 214
243 224
243 226
243 231
243 232
243 240
243 246
243 254
243 257
243 267
243 270
243 271
243 286
244 197
244 199
244 209
244 215
244 222
244 230
244 235
244 251
244 265
244 266
244 268
244 276
244 284
245 204
245 205
245 216
245 227
245 228
245 237
245 238
245 239
245 259
245 261
245 272
245 279
245 290
246 214
246 219
246 224
246 226
246 232
246 237
246 243
246 256
246 257
246 267
246 270
246 271
246 273
246 281
247 196
247 207
247 211
247 218
247 225
247 229
247 241
247 242
247 250
247 258
247 260
247 262
247 277
247 278
247 282
247 287
248 200
248 213
248 217
248 223
248 233
248 234
248 252
248 253
248 263
248 264
248 274
248 275
248 283
249 201
249 218
249 220
249 221
249 231
249 240
249 241
249 254
249 260
249 262
249 269
249 277
249 289
250 207
250 225
250 229
250 234
250 242
250 247
250 253
250 258
250 260
250 278
250 282
251 208
251 215
251 222
251 230
251 235
251 244
251 265
251 266
251 276
251 280
252 203
252 217
252 223
252 233
252 236
252 248
252 255
252 263
252 264
252 274
252 283
252 295
253 213
253 223
253 234
253 242
253 248
253 250
253 258
253 263
253 275
253 283
253 291
253 293
254 212
254 220
254 224
254 231
254 240
254 243
254 249
254 267
254 269
254 270
254 286
254 288
254 289
255 210
255 217
255 233
255 236
255 252
255 264
255 274
256 214
256 219
256 226
256 232
256 237
256 239
256 246
256 257
256 259
256 271
256 273
256 279
256 281
256 292
256 296
257 214
257 224
257 226
257 232
257 237
257 243
257 246
257 256
257 267
257 270
257 271
257 273
257 281
257 286
257 296
257 302
258 229
258 234
258 242
258 247
258 250
258 253
258 260
258 263
258 275
258 278
258 282
258 293
258 305
259 219
259 228
259 237
259 239
259 245
259 256
259 272
259 273
259 279
259 281
259 290
259 292
259 296
260 225
260 229
260 241
260 242
260 247
260 249
260 250
260 258
260 262
260 277
260 278
260 282
260 287
260 306
261 216
261 227
261 228
261 238
261 245
261 268
261 272
261 284
261 285
261 290
261 298
261 303
262 218
262 221
262 240
262 241
262 247
262 249
262 260
262 269
262 277
262 278
262 287
262 289
262 297
262 307
263 223
263 234
263 248
263 252
263 253
263 258
263 274
263 275
263 283
263 291
263 293
263 295
263 299
264 217
264 233
264 236
264 248
264 252
264 255
264 274
264 295
264 301
265 215
265 230
265 235
265 244
265 251
265 266
265 268
265 276
265 280
265 284
265 285
265 294
265 300
265 308
266 222
266 230
266 235
266 244
266 251
266 265
266 276
266 280
266 294
266 300
266 309
267 224
267 231
267 232
267 243
267 246
267 254
267 257
267 270
267 271
267 281
267 286
267 288
267 302
267 304
268 238
268 244
268 261
268 265
268 276
268 284
268 285
268 294
268 298
268 303
269 231
269 240
269 241
269 249
269 254
269 262
269 270
269 277
269 288
269 289
269 297
269 311
270 231
270 243
270 246
270 254
270 257
270 267
270 269
270 271
270 281
270 286
270 288
270 289
270 302
270 304
270 311
270 320
271 232
271 237
271 243
271 246
271 256
271 257
271 267
271 270
271 273
271 279
271 281
271 286
271 296
271 302
271 304
271 314
272 228
272 238
272 239
272 245
272 259
272 261
272 279
272 290
272 292
272 298
272 313
273 237
273 239
273 246
273 256
273 257
273 259
273 271
273 279
273 281
273 292
273 296
273 302
273 313
273 316
274 233
274 236
274 248
274 252
274 255
274 263
274 264
274 283
274 295
274 299
274 301
274 310
275 234
275 248
275 253
275 258
275 263
275 282
275 283
275 291
275 293
275 299
275 317
275 318
276 230
276 244
276 251
276 265
276 266
276 268
276 280
276 284
276 285
276 294
276 300
276 308
276 309
276 315
277 241
277 247
277 249
277 260
277 262
277 269
277 278
277 287
277 289
277 297
277 306
277 307
277 321
278 242
278 247
278 250
278 258
278 260
278 262
278 277
278 282
278 287
278 305
278 306
278 307
279 237
279 239
279 245
279 256
279 259
279 271
279 272
279 273
279 281
279 290
279 292
279 296
279 313
279 316
280 235
280 251
280 265
280 266
280 276
280 294
280 300
280 308
280 309
280 312
280 315
280 331
281 246
281 256
281 257
281 259
281 267
281 270
281 271
281 273
281 279
281 286
281 292
281 296
281 302
281 304
281 314
281 316
282 242
282 247
282 250
282 258
282 260
282 275
282 278
282 287
282 291
282 293
282 305
282 306
282 328
283 248
283 252
283 253
283 263
283 274
283 275
283 291
283 293
283 295
283 299
283 310
283 317
283 318
284 244
284 261
284 265
284 268
284 276
284 285
284 294
284 298
284 300
284 303
284 308
284 319
284 325
284 333
285 261
285 265
285 268
285 276
285 284
285 294
285 298
285 303
285 308
285 319
285 322
285 325
285 333
286 243
286 254
286 257
286 267
286 270
286 271
286 281
286 288
286 289
286 302
286 304
286 311
286 314
286 320
286 330
287 247
287 260
287 262
287 277
287 278
287 282
287 297
287 305
287 306
287 307
287 321
287 324
287 328
288 254
288 267
288 269
288 270
288 286
288 289
288 297
288 304
288 311
288 320
288 326
289 249
289 254
289 262
289 269
289 270
289 277
289 286
289 288
289 297
289 304
289 307
289 311
289 321
289 326
290 245
290 259
290 261
290 272
290 279
290 292
290 296
290 298
290 313
290 322
290 323
291 253
291 263
291 275
291 282
291 283
291 293
291 295
291 299
291 305
291 317
291 318
292 256
292 259
292 272
292 273
292 279
292 281
292 290
292 296
292 302
292 313
292 316
292 323
292 332
293 253
293 258
293 263
293 275
293 282
293 283
293 291
293 299
293 305
293 317
293 318
293 328
294 265
294 266
294 268
294 276
294 280
294 284
294 285
294 300
294 303
294 308
294 309
294 315
294 319
294 325
294 331
294 333
295 252
295 263
295 264
295 274
295 283
295 291
295 299
295 301
295 310
295 317
295 318
295 329
295 334
295 336
296 256
296 257
296 259
296 271
296 273
296 279
296 281
296 290
296 292
296 302
296 313
296 314
296 316
296 332
296 337
297 262
297 269
297 277
297 287
297 288
297 289
297 306
297 307
297 311
297 321
297 324
297 326
297 335
298 261
298 268
298 272
298 284
298 285
298 290
298 303
298 319
298 322
298 323
299 263
299 274
299 275
299 283
299 291
299 293
299 295
299 310
299 317
299 318
299 336
299 341
300 265
300 266
300 276
300 280
300 284
300 294
300 308
300 309
300 312
300 315
300 325
300 327
300 331
300 350
301 264
301 274
301 295
301 310
301 329
301 334
301 343
302 257
302 267
302 270
302 271
302 273
302 281
302 286
302 292
302 296
302 304
302 314
302 316
302 320
302 330
302 337
302 344
303 261
303 268
303 284
303 285
303 294
303 298
303 308
303 319
303 322
303 325
303 333
303 346
304 267
304 270
304 271
304 281
304 286
304 288
304 289
304 302
304 311
304 314
304 320
304 330
304 337
304 344
304 349
305 258
305 278
305 282
305 287
305 291
305 293
305 306
305 324
305 328
305 338
305 345
306 260
306 277
306 278
306 282
306 287
306 297
306 305
306 307
306 321
306 324
306 328
306 338
306 345
306 347
307 262
307 277
307 278
307 287
307 289
307 297
307 306
307 321
307 324
307 326
307 335
307 347
308 265
308 276
308 280
308 284
308 285
308 294
308 300
308 303
308 309
308 315
308 319
308 325
308 331
308 333
308 346
308 353
309 266
309 276
309 280
309 294
309 300
309 308
309 312
309 315
309 325
309 327
309 331
309 350
309 351
309 353
310 274
310 283
310 295
310 299
310 301
310 317
310 318
310 329
310 334
310 336
310 343
310 352
311 269
311 270
311 286
311 288
311 289
311 297
311 304
311 320
311 326
311 330
311 339
311 340
311 349
311 356
312 280
312 300
312 309
312 315
312 327
312 331
312 350
312 351
313 272
313 273
313 279
313 290
313 292
313 296
313 316
313 323
313 332
313 342
313 348
314 271
314 281
314 286
314 296
314 302
314 304
314 316
314 320
314 330
314 332
314 337
314 344
314 348
314 349
314 359
315 276
315 280
315 294
315 300
315 308
315 309
315 312
315 325
315 327
315 331
315 333
315 350
315 351
315 353
315 361
316 273
316 279
316 281
316 292
316 296
316 302
316 313
316 314
316 323
316 332
316 337
316 344
316 348
317 275
317 283
317 291
317 293
317 295
317 299
317 310
317 318
317 334
317 336
317 341
317 352
317 358
318 275
318 283
318 291
318 293
318 295
318 299
318 310
318 317
318 336
318 338
318 341
318 358
319 284
319 285
319 294
319 298
319 303
319 308
319 322
319 323
319 325
319 333
319 346
319 355
320 270
320 286
320 288
320 302
320 304
320 311
320 314
320 326
320 330
320 337
320 339
320 344
320 349
320 356
320 360
321 277
321 287
321 289
321 297
321 306
321 307
321 324
321 326
321 335
321 340
321 345
321 347
321 357
321 370
322 285
322 290
322 298
322 303
322 319
322 323
322 333
322 342
322 346
322 355
322 371
323 290
323 292
323 298
323 313
323 316
323 319
323 322
323 332
323 342
323 362
324 287
324 297
324 305
324 306
324 307
324 321
324 328
324 335
324 338
324 345
324 347
324 363
325 284
325 285
325 294
325 300
325 303
325 308
325 309
325 315
325 319
325 331
325 333
325 346
325 350
325 353
325 367
326 288
326 289
326 297
326 307
326 311
326 320
326 321
326 335
326 339
326 340
326 356
326 357
326 365
327 300
327 309
327 312
327 315
327 331
327 350
327 351
327 361
327 374
328 282
328 287
328 293
328 305
328 306
328 324
328 338
328 345
328 354
328 363
328 366
329 295
329 301
329 310
329 334
329 343
329 352
329 364
330 286
330 302
330 304
330 311
330 314
330 320
330 337
330 339
330 344
330 349
330 359
330 360
331 280
331 294
331 300
331 308
331 309
331 312
331 315
331 325
331 327
331 333
331 350
331 351
331 353
331 361
331 367
332 292
332 296
332 313
332 314
332 316
332 323
332 337
332 342
332 344
332 348
332 362
332 368
332 373
333 284
333 285
333 294
333 303
333 308
333 315
333 319
333 322
333 325
333 331
333 346
333 353
333 355
333 367
333 372
333 376
334 295
334 301
334 310
334 317
334 329
334 336
334 343
334 352
334 358
334 364
334 369
335 297
335 307
335 321
335 324
335 326
335 339
335 340
335 345
335 347
335 356
335 357
335 365
335 370
335 378
336 295
336 299
336 310
336 317
336 318
336 334
336 341
336 352
336 358
336 369
336 375
337 296
337 302
337 304
337 314
337 316
337 320
337 330
337 332
337 344
337 348
337 349
337 359
337 360
337 368
337 373
337 379
338 305
338 306
338 318
338 324
338 328
338 341
338 345
338 354
338 363
338 366
338 377
339 311
339 320
339 326
339 330
339 335
339 340
339 349
339 356
339 357
339 360
339 365
339 392
340 311
340 321
340 326
340 335
340 339
340 347
340 356
340 357
340 365
340 370
340 378
341 299
341 317
341 318
341 336
341 338
341 352
341 354
341 358
341 375
341 377
341 382
342 313
342 322
342 323
342 332
342 348
342 355
342 362
342 368
342 371
342 384
343 301
343 310
343 329
343 334
343 352
343 364
343 369
343 380
344 302
344 304
344 314
344 316
344 320
344 330
344 332
344 337
344 348
344 349
344 359
344 360
344 373
344 379
344 389
345 305
345 306
345 321
345 324
345 328
345 335
345 338
345 347
345 354
345 363
345 366
345 370
345 381
345 390
346 303
346 308
346 319
346 322
346 325
346 333
346 350
346 353
346 355
346 367
346 371
346 372
346 376
346 387
347 306
347 307
347 321
347 324
347 335
347 340
347 345
347 357
347 363
347 365
347 370
347 378
347 381
348 313
348 314
348 316
348 332
348 337
348 342
348 344
348 359
348 362
348 368
348 373
348 379
348 385
348 394
349 304
349 311
349 314
349 320
349 330
349 337
349 339
349 344
349 356
349 359
349 360
349 379
349 383
350 300
350 309
350 312
350 315
350 325
350 327
350 331
350 346
350 351
350 353
350 361
350 367
350 374
350 386
351 309
351 312
351 315
351 327
351 331
351 350
351 353
351 361
351 374
352 310
352 317
352 329
352 334
352 336
352 341
352 343
352 358
352 364
352 369
352 375
352 380
352 391
353 308
353 309
353 315
353 325
353 331
353 333
353 346
353 350
353 351
353 361
353 367
353 372
353 374
353 376
353 386
354 328
354 338
354 341
354 345
354 358
354 363
354 366
354 377
355 319
355 322
355 333
355 342
355 346
355 362
355 371
355 372
355 376
355 387
355 388
356 311
356 320
356 326
356 335
356 339
356 340
356 349
356 357
356 360
356 365
356 383
356 392
356 393
357 321
357 326
357 335
357 339
357 340
357 347
357 356
357 365
357 370
357 378
357 381
357 392
357 393
358 317
358 318
358 334
358 336
358 341
358 352
358 354
358 369
358 375
358 377
358 382
358 391
359 314
359 330
359 337
359 344
359 348
359 349
359 360
359 368
359 373
359 379
359 383
359 389
359 394
360 320
360 330
360 337
360 339
360 344
360 349
360 356
360 359
360 379
360 383
360 389
360 392
361 315
361 327
361 331
361 350
361 351
361 353
361 367
361 374
361 376
361 386
362 323
362 332
362 342
362 348
362 355
362 368
362 371
362 373
362 384
362 385
362 388
363 324
363 328
363 338
363 345
363 347
363 354
363 366
363 370
363 377
363 378
363 381
363 390
364 329
364 334
364 343
364 352
364 369
364 380
364 391
365 326
365 335
365 339
365 340
365 347
365 356
365 357
365 370
365 378
365 381
365 392
365 393
366 328
366 338
366 345
366 354
366 363
366 377
366 390
367 325
367 331
367 333
367 346
367 350
367 353
367 361
367 372
367 374
367 376
367 386
367 387
368 332
368 337
368 342
368 348
368 359
368 362
368 373
368 379
368 384
368 385
368 394
369 334
369 336
369 343
369 352
369 358
369 364
369 375
369 380
369 382
369 391
370 321
370 335
370 340
370 345
370 347
370 357
370 363
370 365
370 378
370 381
370 390
370 393
371 322
371 342
371 346
371 355
371 362
371 372
371 376
371 384
371 387
371 388
372 333
372 346
372 353
372 355
372 367
372 371
372 376
372 386
372 387
372 388
373 332
373 337
373 344
373 348
373 359
373 362
373 368
373 379
373 384
373 385
373 389
373 394
374 327
374 350
374 351
374 353
374 361
374 367
374 386
375 336
375 341
375 352
375 358
375 369
375 377
375 382
375 391
376 333
376 346
376 353
376 355
376 361
376 367
376 371
376 372
376 386
376 387
376 388
377 338
377 341
377 354
377 358
377 363
377 366
377 375
377 382
377 390
378 335
378 340
378 347
378 357
378 363
378 365
378 370
378 381
378 390
378 392
378 393
379 337
379 344
379 348
379 349
379 359
379 360
379 368
379 373
379 383
379 385
379 389
379 394
380 343
380 352
380 364
380 369
380 391
381 345
381 347
381 357
381 363
381 365
381 370
381 378
381 390
381 393
382 341
382 358
382 369
382 375
382 377
382 391
383 349
383 356
383 359
383 360
383 379
383 389
383 392
384 342
384 362
384 368
384 371
384 373
384 385
384 388
384 394
385 348
385 362
385 368
385 373
385 379
385 384
385 394
386 350
386 353
386 361
386 367
386 372
386 374
386 376
386 387
387 346
387 355
387 367
387 371
387 372
387 376
387 386
387 388
388 355
388 362
388 371
388 372
388 376
388 384
388 387
389 344
389 359
389 360
389 373
389 379
389 383
389 394
390 345
390 363
390 366
390 370
390 377
390 378
390 381
391 352
391 358
391 364
391 369
391 375
391 380
391 382
392 339
392 356
392 357
392 360
392 365
392 378
392 383
392 393
393 356
393 357
393 365
393 370
393 378
393 381
393 392
394 348
394 359
394 368
394 373
394 379
394 384
394 385
394 389
