1 3
1 26
2 23
2 28
3 1
3 16
3 24
3 26
3 34
4 15
4 25
5 17
5 20
5 22
6 9
6 16
6 21
6 31
7 11
7 27
8 14
8 30
9 6
9 15
9 21
9 31
9 32
10 17
10 38
11 7
11 27
12 13
12 18
12 29
12 42
13 12
13 35
14 8
14 18
14 30
14 36
15 4
15 9
15 32
16 3
16 6
16 21
16 24
16 31
16 34
17 5
17 10
17 22
17 38
18 12
18 14
18 29
18 36
19 20
19 33
20 5
20 19
20 22
20 33
20 39
21 6
21 9
21 16
21 31
21 45
21 47
22 5
22 17
22 20
22 39
23 2
23 28
23 37
23 44
24 3
24 16
24 26
24 34
24 48
25 4
25 27
25 40
25 51
26 1
26 3
26 24
26 28
26 34
26 43
26 48
27 7
27 11
27 25
27 40
27 41
28 2
28 23
28 26
28 37
28 43
28 44
29 12
29 18
29 42
29 56
30 8
30 14
30 36
31 6
31 9
31 16
31 21
31 32
31 45
31 47
32 9
32 15
32 31
32 45
32 52
33 19
33 20
33 54
34 3
34 16
34 24
34 26
34 47
34 48
35 13
35 55
35 67
36 14
36 18
36 30
36 57
37 23
37 28
37 38
37 44
37 59
37 62
37 63
38 10
38 17
38 37
38 53
38 59
39 20
39 22
39 50
40 25
40 27
40 49
40 51
40 70
40 72
41 27
41 51
41 58
42 12
42 29
42 56
43 26
43 28
43 44
43 48
43 61
43 66
44 23
44 28
44 37
44 43
44 61
44 62
44 75
45 21
45 31
45 32
45 47
45 52
45 65
45 71
46 60
47 21
47 31
47 34
47 45
47 48
47 65
47 71
47 76
48 24
48 26
48 34
48 43
48 47
48 61
48 66
48 68
49 40
49 51
49 70
49 72
50 39
50 53
50 54
50 74
51 25
51 40
51 41
51 49
51 58
51 70
51 72
51 83
52 32
52 45
52 65
52 81
53 38
53 50
53 59
53 73
54 33
54 50
54 64
54 84
55 35
55 67
56 29
56 42
56 67
56 77
57 36
57 69
57 78
57 86
58 41
58 51
58 72
58 87
59 37
59 38
59 53
59 63
59 73
59 79
59 80
60 46
60 85
61 43
61 44
61 48
61 62
61 66
61 68
61 75
62 37
62 44
62 61
62 63
62 75
62 79
62 82
63 37
63 59
63 62
63 79
63 80
63 82
64 54
64 84
65 45
65 47
65 52
65 71
65 76
65 81
66 43
66 48
66 61
66 68
66 89
67 35
67 55
67 56
67 77
67 90
68 48
68 61
68 66
68 76
68 89
68 99
69 57
69 78
69 86
70 40
70 49
70 51
70 72
70 83
70 93
71 45
71 47
71 65
71 76
71 97
71 104
72 40
72 49
72 51
72 58
72 70
72 83
72 87
72 93
73 53
73 59
73 74
73 80
73 96
74 50
74 73
74 88
75 44
75 61
75 62
75 82
75 95
76 47
76 65
76 68
76 71
76 89
76 99
76 104
77 56
77 67
77 92
77 107
78 57
78 69
78 86
78 94
78 101
79 59
79 62
79 63
79 80
79 82
79 95
79 100
79 102
80 59
80 63
80 73
80 79
80 96
80 100
80 102
81 52
81 65
81 97
81 106
82 62
82 63
82 75
82 79
82 95
82 100
83 51
83 70
83 72
83 87
83 93
83 109
83 110
84 54
84 64
84 105
85 60
85 87
85 91
85 103
85 108
85 111
86 57
86 69
86 78
86 94
86 101
87 58
87 72
87 83
87 85
87 103
87 112
88 74
88 96
88 113
88 114
89 66
89 68
89 76
89 98
89 99
89 104
89 116
90 67
90 115
91 85
91 108
91 111
91 124
92 77
92 107
93 70
93 72
93 83
93 109
93 110
94 78
94 86
94 101
94 121
95 75
95 79
95 82
95 100
95 118
95 119
96 73
96 80
96 88
96 102
96 113
96 120
96 128
97 71
97 81
97 104
97 106
97 117
98 89
98 99
98 116
98 118
99 68
99 76
99 89
99 98
99 104
99 116
100 79
100 80
100 82
100 95
100 102
100 119
100 120
101 78
101 86
101 94
101 121
101 125
102 79
102 80
102 96
102 100
102 119
102 120
102 128
102 135
103 85
103 87
103 111
103 112
103 122
104 71
104 76
104 89
104 97
104 99
104 117
104 129
105 84
105 114
105 123
106 81
106 97
106 117
106 126
107 77
107 92
107 115
107 134
107 137
108 85
108 91
108 111
108 124
108 138
109 83
109 93
109 110
109 112
109 131
109 132
110 83
110 93
110 109
110 131
110 132
111 85
111 91
111 103
111 108
111 112
111 122
111 124
111 138
111 144
112 87
112 103
112 109
112 111
112 122
112 132
112 142
113 88
113 96
113 114
113 127
113 128
114 88
114 105
114 113
114 123
114 127
114 146
115 90
115 107
115 134
116 89
116 98
116 99
116 118
116 129
116 141
117 97
117 104
117 106
117 126
117 129
117 139
118 95
118 98
118 116
118 130
118 133
118 149
119 95
119 100
119 102
119 120
119 130
119 135
120 96
120 100
120 102
120 119
120 128
120 135
120 151
121 94
121 101
121 125
121 136
121 140
122 103
122 111
122 112
122 132
122 142
122 144
123 105
123 114
123 143
124 91
124 108
124 111
124 138
124 144
125 101
125 121
125 136
125 140
125 148
126 106
126 117
126 139
126 145
127 113
127 114
127 128
127 146
128 96
128 102
128 113
128 120
128 127
128 135
128 151
128 160
129 104
129 116
129 117
129 139
129 141
129 155
129 157
130 118
130 119
130 133
130 149
130 150
131 109
131 110
131 132
131 147
131 152
132 109
132 110
132 112
132 122
132 131
132 142
132 147
132 163
133 118
133 130
133 149
133 150
134 107
134 115
134 137
134 161
135 102
135 119
135 120
135 128
135 151
135 158
135 160
135 169
136 121
136 125
136 137
136 140
136 148
136 154
136 156
136 171
137 107
137 134
137 136
137 148
137 156
137 166
138 108
138 111
138 124
138 144
138 159
139 117
139 126
139 129
139 145
139 155
139 157
140 121
140 125
140 136
140 148
140 154
140 172
141 116
141 129
141 153
141 155
141 168
142 112
142 122
142 132
142 144
142 147
142 165
143 123
143 146
143 164
144 111
144 122
144 124
144 138
144 142
144 159
145 126
145 139
145 157
145 162
146 114
146 127
146 143
146 167
146 179
147 131
147 132
147 142
147 152
147 163
147 173
147 180
148 125
148 136
148 137
148 140
148 154
148 156
148 166
148 171
149 118
149 130
149 133
149 150
149 153
149 174
149 176
150 130
150 133
150 149
150 158
150 170
150 174
151 120
151 128
151 135
151 158
151 160
151 169
151 170
151 182
152 131
152 147
152 163
152 173
153 141
153 149
153 168
153 177
154 136
154 140
154 148
154 171
154 172
155 129
155 139
155 141
155 157
155 175
155 177
156 136
156 137
156 148
156 166
156 171
157 129
157 139
157 145
157 155
157 162
157 175
158 135
158 150
158 151
158 169
158 170
158 174
159 138
159 144
159 181
160 128
160 135
160 151
160 167
160 169
160 179
160 182
161 134
161 166
161 183
162 145
162 157
162 187
163 132
163 147
163 152
163 165
163 173
163 178
163 180
163 194
164 143
164 172
164 184
165 142
165 163
165 178
166 137
166 148
166 156
166 161
166 171
166 192
167 146
167 160
167 179
167 196
168 141
168 153
168 176
168 177
168 191
169 135
169 151
169 158
169 160
169 170
169 182
169 193
170 150
170 151
170 158
170 169
170 174
170 182
171 136
171 148
171 154
171 156
171 166
171 188
171 189
171 200
172 140
172 154
172 164
172 188
173 147
173 152
173 163
173 180
173 190
173 194
174 149
174 150
174 158
174 170
174 176
174 185
174 198
175 155
175 157
175 177
175 186
176 149
176 168
176 174
176 185
176 202
177 153
177 155
177 168
177 175
177 186
177 191
178 163
178 165
178 180
178 197
178 199
179 146
179 160
179 167
179 193
179 196
180 147
180 163
180 173
180 178
180 190
180 194
180 199
180 209
181 159
181 195
181 197
181 208
182 151
182 160
182 169
182 170
182 193
182 201
183 161
183 192
183 210
184 164
184 207
185 174
185 176
185 191
185 198
185 202
186 175
186 177
186 191
186 205
186 206
187 162
187 204
188 171
188 172
188 189
188 200
188 213
189 171
189 188
189 192
189 200
189 203
190 173
190 180
190 194
190 209
190 216
191 168
191 177
191 185
191 186
191 214
192 166
192 183
192 189
192 203
192 217
193 169
193 179
193 182
193 196
193 201
193 218
193 221
194 163
194 173
194 180
194 190
194 199
194 209
194 216
195 181
195 197
195 208
195 222
196 167
196 179
196 193
196 211
196 225
197 178
197 181
197 195
197 199
197 208
197 215
197 222
198 174
198 185
198 202
198 212
198 220
199 178
199 180
199 194
199 197
199 209
199 215
199 230
200 171
200 188
200 189
200 203
200 213
200 223
201 182
201 193
201 218
201 220
201 221
202 176
202 185
202 198
202 212
202 224
203 189
203 192
203 200
203 217
203 233
204 187
204 205
204 227
204 228
205 186
205 204
205 206
205 219
206 186
206 205
206 214
206 219
206 226
206 237
207 184
207 229
208 181
208 195
208 197
208 222
208 235
209 180
209 190
209 194
209 199
209 215
209 216
210 183
210 217
210 236
211 196
211 218
211 225
211 247
212 198
212 202
212 220
212 224
212 231
213 188
213 200
213 223
213 234
214 191
214 206
214 219
214 226
214 232
214 246
215 197
215 199
215 209
215 222
215 230
215 244
216 190
216 194
216 209
216 227
216 238
217 192
217 203
217 210
217 233
217 236
218 193
218 201
218 211
218 221
218 241
219 205
219 206
219 214
219 226
219 237
219 239
220 198
220 201
220 212
220 221
220 231
220 240
221 193
221 201
221 218
221 220
221 240
221 241
221 249
222 195
222 197
222 208
222 215
222 230
222 235
222 251
223 200
223 213
223 234
223 248
224 202
224 212
224 231
224 232
224 243
225 196
225 211
225 229
225 247
226 206
226 214
226 219
226 232
226 237
226 246
227 204
227 216
227 228
227 238
227 245
228 204
228 227
228 238
228 239
228 245
229 207
229 225
229 242
229 247
229 250
230 199
230 215
230 222
230 235
230 244
231 212
231 220
231 224
231 240
231 243
231 254
232 214
232 224
232 226
232 243
232 246
232 257
233 203
233 217
233 236
233 252
233 264
234 213
234 223
234 248
234 253
234 263
235 208
235 222
235 230
235 244
235 251
235 266
236 210
236 217
236 233
236 255
236 264
237 206
237 219
237 226
237 239
237 246
237 256
237 259
238 216
238 227
238 228
238 245
238 261
239 219
239 228
239 237
239 245
239 256
239 259
240 220
240 221
240 231
240 241
240 249
240 254
240 269
241 218
241 221
241 240
241 249
241 262
242 229
242 247
242 250
242 258
243 224
243 231
243 232
243 246
243 254
243 257
243 267
243 270
244 215
244 230
244 235
244 251
244 265
245 227
245 228
245 238
245 239
245 272
246 214
246 226
246 232
246 237
246 243
246 256
246 257
246 271
247 211
247 225
247 229
247 242
247 250
247 260
248 223
248 234
248 252
248 253
248 263
249 221
249 240
249 241
249 262
249 269
250 229
250 242
250 247
250 258
250 260
251 222
251 235
251 244
251 266
251 280
252 233
252 248
252 264
252 274
253 234
253 248
253 263
253 275
254 231
254 240
254 243
254 267
254 269
254 270
255 236
255 264
256 237
256 239
256 246
256 257
256 259
256 271
256 273
256 279
256 281
257 232
257 243
257 246
257 256
257 267
257 271
257 273
257 281
258 242
258 250
258 282
259 237
259 239
259 256
259 272
259 273
259 279
260 247
260 250
260 277
260 278
260 287
261 238
261 268
261 272
261 285
262 241
262 249
262 269
262 277
263 234
263 248
263 253
263 275
263 283
263 291
264 233
264 236
264 252
264 255
264 274
265 244
265 268
265 276
265 284
265 294
266 235
266 251
266 276
266 280
267 243
267 254
267 257
267 270
267 271
267 286
268 261
268 265
268 284
268 285
269 240
269 249
269 254
269 262
269 288
269 289
270 243
270 254
270 267
270 286
270 288
271 246
271 256
271 257
271 267
271 273
271 281
271 302
272 245
272 259
272 261
272 279
272 290
273 256
273 257
273 259
273 271
273 279
273 281
273 292
273 296
274 252
274 264
274 295
275 253
275 263
275 283
275 291
275 293
275 299
276 265
276 266
276 280
276 284
276 294
276 300
277 260
277 262
277 287
277 297
277 307
278 260
278 282
278 287
278 306
279 256
279 259
279 272
279 273
279 290
279 292
279 296
280 251
280 266
280 276
280 300
280 309
281 256
281 257
281 271
281 273
281 296
281 302
282 258
282 278
282 293
282 305
283 263
283 275
283 291
283 295
283 299
283 317
284 265
284 268
284 276
284 285
284 294
284 303
284 308
285 261
285 268
285 284
285 298
285 303
285 319
286 267
286 270
286 288
286 302
286 304
286 320
287 260
287 277
287 278
287 306
287 307
288 269
288 270
288 286
288 289
288 304
288 311
289 269
289 288
289 297
289 311
290 272
290 279
290 292
290 298
290 313
290 323
291 263
291 275
291 283
291 293
291 299
291 317
291 318
292 273
292 279
292 290
292 296
292 313
292 316
293 275
293 282
293 291
293 305
294 265
294 276
294 284
294 300
294 308
294 325
295 274
295 283
295 299
295 310
296 273
296 279
296 281
296 292
296 302
296 313
296 314
296 316
297 277
297 289
297 307
297 321
298 285
298 290
298 303
298 319
298 322
299 275
299 283
299 291
299 295
299 317
299 318
300 276
300 280
300 294
300 308
300 309
300 315
300 331
301 310
301 329
302 271
302 281
302 286
302 296
302 304
302 314
302 316
302 330
303 284
303 285
303 298
303 319
303 322
304 286
304 288
304 302
304 311
304 314
304 320
304 330
305 282
305 293
305 306
305 328
306 278
306 287
306 305
306 307
306 324
306 328
307 277
307 287
307 297
307 306
307 321
307 324
307 335
308 284
308 294
308 300
308 315
308 325
308 333
309 280
309 300
309 312
309 315
309 327
309 331
310 295
310 301
310 329
310 334
311 288
311 289
311 304
311 320
311 326
311 339
312 309
312 315
312 327
312 331
313 290
313 292
313 296
313 316
313 323
313 332
314 296
314 302
314 304
314 316
314 330
314 337
314 344
315 300
315 308
315 309
315 312
315 325
315 331
315 350
316 292
316 296
316 302
316 313
316 314
316 332
316 337
316 348
317 283
317 291
317 299
317 318
317 336
317 341
318 291
318 299
318 317
318 336
318 341
319 285
319 298
319 303
319 322
319 333
320 286
320 304
320 311
320 330
320 349
321 297
321 307
321 324
321 335
321 347
322 298
322 303
322 319
322 323
322 355
323 290
323 313
323 322
323 332
323 342
324 306
324 307
324 321
324 328
324 345
324 347
325 294
325 308
325 315
325 333
325 346
326 311
326 335
326 339
326 340
326 356
327 309
327 312
327 331
327 351
328 305
328 306
328 324
328 338
328 345
329 301
329 310
329 334
329 343
330 302
330 304
330 314
330 320
330 337
330 344
330 349
331 300
331 309
331 312
331 315
331 327
331 350
331 351
331 353
332 313
332 316
332 323
332 342
332 348
333 308
333 319
333 325
333 346
334 310
334 329
334 336
334 343
334 352
335 307
335 321
335 326
335 340
335 347
335 357
336 317
336 318
336 334
336 341
336 352
336 358
337 314
337 316
337 330
337 344
337 348
337 359
338 328
338 345
338 354
338 366
339 311
339 326
339 340
339 356
339 365
340 326
340 335
340 339
340 356
340 357
340 365
341 317
341 318
341 336
341 358
341 375
342 323
342 332
342 362
343 329
343 334
343 352
343 364
344 314
344 330
344 337
344 348
344 349
344 359
345 324
345 328
345 338
345 347
345 363
345 366
346 325
346 333
346 355
346 372
346 376
347 321
347 324
347 335
347 345
347 357
347 370
348 316
348 332
348 337
348 344
348 368
348 373
349 320
349 330
349 344
349 359
349 360
350 315
350 331
350 351
350 353
350 361
350 367
351 327
351 331
351 350
351 361
351 374
352 334
352 336
352 343
352 364
352 369
353 331
353 350
353 361
353 367
354 338
354 366
354 377
355 322
355 346
355 371
355 372
356 326
356 339
356 340
356 357
356 365
357 335
357 340
357 347
357 356
357 365
357 370
357 378
358 336
358 341
358 375
358 382
359 337
359 344
359 349
359 360
359 379
359 389
360 349
360 359
360 383
361 350
361 351
361 353
361 367
361 374
361 386
362 342
362 368
362 384
362 385
363 345
363 366
363 381
363 390
364 343
364 352
364 369
364 380
365 339
365 340
365 356
365 357
365 370
365 378
365 392
365 393
366 338
366 345
366 354
366 363
366 377
366 390
367 350
367 353
367 361
367 376
367 386
368 348
368 362
368 373
368 384
368 385
368 394
369 352
369 364
369 380
369 391
370 347
370 357
370 365
370 378
370 381
370 393
371 355
371 372
371 387
371 388
372 346
372 355
372 371
372 376
372 387
372 388
373 348
373 368
373 379
373 385
373 394
374 351
374 361
375 341
375 358
375 382
376 346
376 367
376 372
376 386
376 387
377 354
377 366
378 357
378 365
378 370
378 381
378 393
379 359
379 373
379 389
379 394
380 364
380 369
380 391
381 363
381 370
381 378
381 390
381 393
382 358
382 375
383 360
383 389
383 392
384 362
384 368
384 385
385 362
385 368
385 373
385 384
385 394
386 361
386 367
386 376
387 371
387 372
387 376
387 388
388 371
388 372
388 387
389 359
389 379
389 383
389 394
390 363
390 366
390 381
391 369
391 380
392 365
392 383
392 393
393 365
393 370
393 378
393 381
393 392
394 368
394 373
394 379
394 385
394 389
