1 4
1 11
1 19
1 22
1 24
1 25
1 32
1 33
1 40
1 45
1 46
1 49
1 50
1 72
2 12
2 14
2 20
2 23
2 31
2 38
2 47
2 60
2 66
3 5
3 7
3 16
3 19
3 32
3 35
3 36
3 39
3 49
3 51
3 53
3 56
3 76
3 77
4 1
4 5
4 19
4 22
4 24
4 25
4 32
4 33
4 45
4 46
4 49
4 50
4 72
5 3
5 4
5 19
5 32
5 33
5 35
5 36
5 39
5 49
5 50
5 51
5 53
5 76
6 9
6 10
6 11
6 26
6 27
6 28
6 29
6 30
6 37
6 48
6 52
6 57
6 58
6 71
7 3
7 13
7 16
7 17
7 36
7 39
7 43
7 44
7 56
7 61
7 62
7 68
8 14
8 15
8 18
8 23
8 31
8 42
8 47
8 55
8 63
8 66
8 78
9 6
9 10
9 28
9 29
9 30
9 34
9 37
9 52
9 54
9 57
9 58
9 59
9 74
10 6
10 9
10 29
10 30
10 34
10 37
10 52
10 54
10 58
10 59
11 1
11 6
11 22
11 24
11 26
11 27
11 28
11 40
11 46
11 48
11 57
11 65
11 79
11 81
12 2
12 17
12 20
12 21
12 38
12 41
12 60
12 64
12 69
13 7
13 16
13 17
13 21
13 39
13 43
13 44
13 61
13 62
13 68
13 70
14 2
14 8
14 20
14 23
14 31
14 42
14 47
14 60
14 66
15 8
15 18
15 42
15 55
15 63
16 3
16 7
16 13
16 36
16 39
16 43
16 44
16 53
16 56
16 61
16 62
16 68
16 77
16 80
16 88
17 7
17 12
17 13
17 21
17 38
17 41
17 43
17 44
17 62
17 64
17 67
17 68
17 70
18 8
18 15
18 31
18 42
18 47
18 55
18 63
18 78
19 1
19 3
19 4
19 5
19 24
19 25
19 32
19 33
19 35
19 45
19 49
19 50
19 51
19 53
19 72
19 73
19 76
19 89
19 90
20 2
20 12
20 14
20 21
20 23
20 38
20 41
20 60
20 64
20 66
20 69
20 75
20 86
20 95
21 12
21 13
21 17
21 20
21 38
21 41
21 43
21 64
21 67
21 68
21 69
21 70
21 86
22 1
22 4
22 11
22 24
22 25
22 26
22 27
22 33
22 40
22 45
22 46
22 48
22 50
22 65
22 72
22 79
22 81
22 82
22 84
22 97
22 100
23 2
23 8
23 14
23 20
23 31
23 38
23 42
23 47
23 60
23 66
23 75
23 95
23 98
24 1
24 4
24 11
24 19
24 22
24 25
24 27
24 33
24 40
24 45
24 46
24 48
24 49
24 50
24 65
24 72
24 81
24 82
24 84
24 97
24 99
25 1
25 4
25 19
25 22
25 24
25 32
25 33
25 40
25 45
25 46
25 49
25 50
25 72
25 73
25 82
25 84
25 90
25 97
25 99
26 6
26 11
26 22
26 27
26 28
26 29
26 30
26 40
26 48
26 52
26 57
26 65
26 71
26 79
26 81
26 83
26 87
26 94
27 6
27 11
27 22
27 24
27 26
27 28
27 29
27 40
27 46
27 48
27 52
27 57
27 65
27 71
27 79
27 81
27 82
27 83
27 87
27 94
28 6
28 9
28 11
28 26
28 27
28 29
28 30
28 40
28 48
28 52
28 57
28 58
28 65
28 71
28 74
28 79
28 83
28 87
28 92
28 94
29 6
29 9
29 10
29 26
29 27
29 28
29 30
29 34
29 37
29 48
29 52
29 54
29 57
29 58
29 59
29 71
29 74
29 83
29 85
29 87
29 92
30 6
30 9
30 10
30 26
30 28
30 29
30 34
30 37
30 52
30 54
30 57
30 58
30 59
30 71
30 74
30 85
30 92
31 2
31 8
31 14
31 18
31 23
31 42
31 47
31 55
31 60
31 63
31 66
31 78
31 102
32 1
32 3
32 4
32 5
32 19
32 25
32 33
32 35
32 36
32 45
32 49
32 50
32 51
32 53
32 72
32 73
32 76
32 77
32 89
32 90
33 1
33 4
33 5
33 19
33 22
33 24
33 25
33 32
33 35
33 45
33 46
33 49
33 50
33 51
33 72
33 73
33 84
33 89
33 90
33 99
34 9
34 10
34 29
34 30
34 37
34 52
34 54
34 58
34 59
34 74
34 85
34 93
35 3
35 5
35 19
35 32
35 33
35 36
35 39
35 49
35 50
35 51
35 53
35 56
35 73
35 76
35 77
35 80
35 89
35 103
36 3
36 5
36 7
36 16
36 32
36 35
36 39
36 51
36 53
36 56
36 61
36 62
36 76
36 77
36 80
36 104
37 6
37 9
37 10
37 29
37 30
37 34
37 52
37 54
37 58
37 59
37 71
37 74
37 85
37 93
37 108
38 2
38 12
38 17
38 20
38 21
38 23
38 41
38 60
38 64
38 67
38 69
38 75
38 86
38 95
39 3
39 5
39 7
39 13
39 16
39 35
39 36
39 44
39 51
39 53
39 56
39 61
39 62
39 76
39 77
39 80
39 88
39 104
39 106
40 1
40 11
40 22
40 24
40 25
40 26
40 27
40 28
40 45
40 46
40 48
40 57
40 65
40 79
40 81
40 82
40 83
40 84
40 94
40 97
40 100
40 109
41 12
41 17
41 20
41 21
41 38
41 43
41 60
41 64
41 67
41 69
41 75
41 86
41 105
42 8
42 14
42 15
42 18
42 23
42 31
42 47
42 55
42 63
42 66
42 78
42 107
43 7
43 13
43 16
43 17
43 21
43 41
43 44
43 61
43 62
43 64
43 67
43 68
43 70
43 91
43 96
43 101
43 111
44 7
44 13
44 16
44 17
44 39
44 43
44 56
44 61
44 62
44 67
44 68
44 70
44 80
44 88
44 91
44 96
44 110
44 111
45 1
45 4
45 19
45 22
45 24
45 25
45 32
45 33
45 40
45 46
45 49
45 50
45 72
45 73
45 81
45 82
45 84
45 90
45 97
45 99
45 100
46 1
46 4
46 11
46 22
46 24
46 25
46 27
46 33
46 40
46 45
46 48
46 50
46 65
46 72
46 79
46 81
46 82
46 84
46 90
46 97
46 99
46 100
46 109
47 2
47 8
47 14
47 18
47 23
47 31
47 42
47 55
47 60
47 63
47 66
47 78
47 98
47 102
47 107
48 6
48 11
48 22
48 24
48 26
48 27
48 28
48 29
48 40
48 46
48 52
48 57
48 65
48 71
48 79
48 81
48 82
48 83
48 87
48 94
48 100
48 109
49 1
49 3
49 4
49 5
49 19
49 24
49 25
49 32
49 33
49 35
49 45
49 50
49 51
49 53
49 72
49 73
49 76
49 77
49 84
49 89
49 90
49 99
49 103
50 1
50 4
50 5
50 19
50 22
50 24
50 25
50 32
50 33
50 35
50 45
50 46
50 49
50 51
50 72
50 73
50 76
50 82
50 84
50 89
50 90
50 97
50 99
51 3
51 5
51 19
51 32
51 33
51 35
51 36
51 39
51 49
51 50
51 53
51 56
51 73
51 76
51 77
51 80
51 89
51 90
51 103
51 104
52 6
52 9
52 10
52 26
52 27
52 28
52 29
52 30
52 34
52 37
52 48
52 54
52 57
52 58
52 59
52 71
52 74
52 83
52 85
52 87
52 92
52 112
52 113
53 3
53 5
53 16
53 19
53 32
53 35
53 36
53 39
53 49
53 51
53 56
53 61
53 73
53 76
53 77
53 80
53 88
53 89
53 103
53 104
53 106
53 118
54 9
54 10
54 29
54 30
54 34
54 37
54 52
54 58
54 59
54 74
54 85
54 93
54 108
55 8
55 15
55 18
55 31
55 42
55 47
55 63
55 78
55 107
55 114
56 3
56 7
56 16
56 35
56 36
56 39
56 44
56 51
56 53
56 61
56 62
56 68
56 76
56 77
56 80
56 88
56 91
56 103
56 104
56 106
56 118
56 121
57 6
57 9
57 11
57 26
57 27
57 28
57 29
57 30
57 40
57 48
57 52
57 58
57 65
57 71
57 74
57 79
57 81
57 83
57 87
57 92
57 94
57 112
57 113
57 126
58 6
58 9
58 10
58 28
58 29
58 30
58 34
58 37
58 52
58 54
58 57
58 59
58 71
58 74
58 83
58 85
58 87
58 92
58 93
58 108
58 112
58 113
58 115
59 9
59 10
59 29
59 30
59 34
59 37
59 52
59 54
59 58
59 71
59 74
59 85
59 92
59 93
59 108
59 112
59 115
59 125
60 2
60 12
60 14
60 20
60 23
60 31
60 38
60 41
60 47
60 64
60 66
60 69
60 75
60 86
60 95
60 98
60 102
60 116
60 117
61 7
61 13
61 16
61 36
61 39
61 43
61 44
61 53
61 56
61 62
61 68
61 70
61 76
61 77
61 80
61 88
61 91
61 104
61 106
61 110
61 121
62 7
62 13
62 16
62 17
62 36
62 39
62 43
62 44
62 56
62 61
62 67
62 68
62 70
62 77
62 80
62 88
62 91
62 96
62 106
62 110
62 111
62 121
63 8
63 15
63 18
63 31
63 42
63 47
63 55
63 66
63 78
63 102
63 107
63 114
63 122
63 129
64 12
64 17
64 20
64 21
64 38
64 41
64 43
64 60
64 67
64 69
64 70
64 75
64 86
64 95
64 101
64 105
64 117
64 120
64 124
65 11
65 22
65 24
65 26
65 27
65 28
65 40
65 46
65 48
65 57
65 71
65 79
65 81
65 82
65 83
65 84
65 87
65 94
65 97
65 100
65 109
65 119
65 126
65 127
65 128
66 2
66 8
66 14
66 20
66 23
66 31
66 42
66 47
66 60
66 63
66 75
66 78
66 95
66 98
66 102
66 107
66 116
67 17
67 21
67 38
67 41
67 43
67 44
67 62
67 64
67 68
67 69
67 70
67 86
67 91
67 96
67 101
67 105
67 111
67 120
67 124
67 135
68 7
68 13
68 16
68 17
68 21
68 43
68 44
68 56
68 61
68 62
68 67
68 70
68 88
68 91
68 96
68 101
68 106
68 110
68 111
68 133
69 12
69 20
69 21
69 38
69 41
69 60
69 64
69 67
69 75
69 86
69 95
69 98
69 101
69 105
69 116
69 117
69 120
69 124
70 13
70 17
70 21
70 43
70 44
70 61
70 62
70 64
70 67
70 68
70 88
70 91
70 96
70 101
70 105
70 110
70 111
70 120
70 133
70 135
71 6
71 26
71 27
71 28
71 29
71 30
71 37
71 48
71 52
71 57
71 58
71 59
71 65
71 74
71 79
71 83
71 85
71 87
71 92
71 94
71 112
71 113
71 115
71 126
71 132
71 134
72 1
72 4
72 19
72 22
72 24
72 25
72 32
72 33
72 45
72 46
72 49
72 50
72 73
72 81
72 82
72 84
72 89
72 90
72 97
72 99
72 100
72 119
72 123
72 130
72 131
73 19
73 25
73 32
73 33
73 35
73 45
73 49
73 50
73 51
73 53
73 72
73 76
73 77
73 84
73 89
73 90
73 97
73 99
73 103
73 123
73 131
73 141
74 9
74 28
74 29
74 30
74 34
74 37
74 52
74 54
74 57
74 58
74 59
74 71
74 83
74 85
74 87
74 92
74 93
74 94
74 108
74 112
74 113
74 115
74 125
74 132
74 134
75 20
75 23
75 38
75 41
75 60
75 64
75 66
75 69
75 86
75 95
75 98
75 102
75 105
75 116
75 117
75 124
76 3
76 5
76 19
76 32
76 35
76 36
76 39
76 49
76 50
76 51
76 53
76 56
76 61
76 73
76 77
76 80
76 89
76 90
76 103
76 104
76 106
76 118
76 123
76 137
76 141
76 142
77 3
77 16
77 32
77 35
77 36
77 39
77 49
77 51
77 53
77 56
77 61
77 62
77 73
77 76
77 80
77 88
77 89
77 103
77 104
77 106
77 118
77 121
77 137
77 139
77 142
78 8
78 18
78 31
78 42
78 47
78 55
78 63
78 66
78 98
78 102
78 107
78 114
78 129
78 138
79 11
79 22
79 26
79 27
79 28
79 40
79 46
79 48
79 57
79 65
79 71
79 81
79 82
79 83
79 84
79 87
79 94
79 97
79 100
79 109
79 113
79 119
79 126
79 127
79 128
79 134
79 149
80 16
80 35
80 36
80 39
80 44
80 51
80 53
80 56
80 61
80 62
80 76
80 77
80 88
80 91
80 103
80 104
80 106
80 110
80 118
80 121
80 137
80 139
80 144
81 11
81 22
81 24
81 26
81 27
81 40
81 45
81 46
81 48
81 57
81 65
81 72
81 79
81 82
81 83
81 84
81 87
81 94
81 97
81 99
81 100
81 109
81 119
81 126
81 127
81 128
81 136
81 151
82 22
82 24
82 25
82 27
82 40
82 45
82 46
82 48
82 50
82 65
82 72
82 79
82 81
82 84
82 90
82 94
82 97
82 99
82 100
82 109
82 119
82 127
82 128
82 130
82 136
83 26
83 27
83 28
83 29
83 40
83 48
83 52
83 57
83 58
83 65
83 71
83 74
83 79
83 81
83 87
83 92
83 94
83 100
83 109
83 112
83 113
83 126
83 127
83 128
83 132
83 134
83 149
84 22
84 24
84 25
84 33
84 40
84 45
84 46
84 49
84 50
84 65
84 72
84 73
84 79
84 81
84 82
84 90
84 97
84 99
84 100
84 109
84 119
84 127
84 130
84 131
84 136
85 29
85 30
85 34
85 37
85 52
85 54
85 58
85 59
85 71
85 74
85 92
85 93
85 108
85 112
85 113
85 115
85 125
85 132
85 140
85 147
86 20
86 21
86 38
86 41
86 60
86 64
86 67
86 69
86 75
86 95
86 101
86 105
86 116
86 117
86 120
86 124
86 143
87 26
87 27
87 28
87 29
87 48
87 52
87 57
87 58
87 65
87 71
87 74
87 79
87 81
87 83
87 92
87 94
87 100
87 109
87 112
87 113
87 115
87 126
87 127
87 128
87 132
87 134
87 149
87 154
88 16
88 39
88 44
88 53
88 56
88 61
88 62
88 68
88 70
88 77
88 80
88 91
88 96
88 104
88 106
88 110
88 111
88 118
88 121
88 133
88 139
88 144
88 148
89 19
89 32
89 33
89 35
89 49
89 50
89 51
89 53
89 72
89 73
89 76
89 77
89 90
89 99
89 103
89 104
89 118
89 123
89 131
89 137
89 141
89 142
89 160
90 19
90 25
90 32
90 33
90 45
90 46
90 49
90 50
90 51
90 72
90 73
90 76
90 82
90 84
90 89
90 97
90 99
90 103
90 119
90 123
90 130
90 131
90 141
90 152
90 160
91 43
91 44
91 56
91 61
91 62
91 67
91 68
91 70
91 80
91 88
91 96
91 101
91 104
91 106
91 110
91 111
91 121
91 133
91 135
91 144
91 148
91 153
92 28
92 29
92 30
92 52
92 57
92 58
92 59
92 71
92 74
92 83
92 85
92 87
92 94
92 108
92 112
92 113
92 115
92 125
92 126
92 132
92 134
92 147
92 150
92 154
93 34
93 37
93 54
93 58
93 59
93 74
93 85
93 108
93 112
93 115
93 125
93 140
93 147
93 164
94 26
94 27
94 28
94 40
94 48
94 57
94 65
94 71
94 74
94 79
94 81
94 82
94 83
94 87
94 92
94 97
94 100
94 109
94 112
94 113
94 119
94 126
94 127
94 128
94 134
94 149
94 151
94 154
94 162
95 20
95 23
95 38
95 60
95 64
95 66
95 69
95 75
95 86
95 98
95 102
95 116
95 117
95 124
95 146
95 158
96 43
96 44
96 62
96 67
96 68
96 70
96 88
96 91
96 101
96 105
96 106
96 110
96 111
96 120
96 124
96 133
96 135
96 148
96 153
97 22
97 24
97 25
97 40
97 45
97 46
97 50
97 65
97 72
97 73
97 79
97 81
97 82
97 84
97 90
97 94
97 99
97 100
97 109
97 119
97 127
97 128
97 130
97 131
97 136
97 151
97 152
97 159
97 161
98 23
98 47
98 60
98 66
98 69
98 75
98 78
98 95
98 102
98 107
98 116
98 117
98 138
98 146
98 158
99 24
99 25
99 33
99 45
99 46
99 49
99 50
99 72
99 73
99 81
99 82
99 84
99 89
99 90
99 97
99 100
99 109
99 119
99 123
99 127
99 130
99 131
99 136
99 152
99 159
99 161
99 169
100 22
100 40
100 45
100 46
100 48
100 65
100 72
100 79
100 81
100 82
100 83
100 84
100 87
100 94
100 97
100 99
100 109
100 119
100 126
100 127
100 128
100 130
100 136
100 149
100 151
100 159
100 161
101 43
101 64
101 67
101 68
101 69
101 70
101 86
101 91
101 96
101 105
101 110
101 111
101 120
101 124
101 133
101 135
101 143
101 153
101 156
101 171
102 31
102 47
102 60
102 63
102 66
102 75
102 78
102 95
102 98
102 107
102 114
102 116
102 129
102 138
102 146
102 158
103 35
103 49
103 51
103 53
103 56
103 73
103 76
103 77
103 80
103 89
103 90
103 104
103 106
103 118
103 121
103 123
103 137
103 139
103 141
103 142
103 157
103 166
104 36
104 39
104 51
104 53
104 56
104 61
104 76
104 77
104 80
104 88
104 89
104 91
104 103
104 106
104 110
104 118
104 121
104 137
104 139
104 142
104 144
104 157
104 166
104 168
105 41
105 64
105 67
105 69
105 70
105 75
105 86
105 96
105 101
105 111
105 117
105 120
105 124
105 133
105 135
105 143
105 156
105 165
105 171
106 39
106 53
106 56
106 61
106 62
106 68
106 76
106 77
106 80
106 88
106 91
106 96
106 103
106 104
106 110
106 111
106 118
106 121
106 137
106 139
106 144
106 148
106 157
106 167
106 168
107 42
107 47
107 55
107 63
107 66
107 78
107 98
107 102
107 114
107 122
107 129
107 138
107 145
107 146
107 155
108 37
108 54
108 58
108 59
108 74
108 85
108 92
108 93
108 112
108 113
108 115
108 125
108 132
108 140
108 147
108 150
108 164
109 40
109 46
109 48
109 65
109 79
109 81
109 82
109 83
109 84
109 87
109 94
109 97
109 99
109 100
109 113
109 119
109 126
109 127
109 128
109 130
109 134
109 136
109 149
109 151
109 159
109 162
110 44
110 61
110 62
110 68
110 70
110 80
110 88
110 91
110 96
110 101
110 104
110 106
110 111
110 121
110 133
110 135
110 139
110 144
110 148
110 153
110 167
110 170
111 43
111 44
111 62
111 67
111 68
111 70
111 88
111 91
111 96
111 101
111 105
111 106
111 110
111 120
111 121
111 133
111 135
111 144
111 148
111 153
111 167
111 170
111 171
111 176
112 52
112 57
112 58
112 59
112 71
112 74
112 83
112 85
112 87
112 92
112 93
112 94
112 108
112 113
112 115
112 125
112 126
112 132
112 134
112 140
112 147
112 149
112 150
112 154
112 173
113 52
113 57
113 58
113 71
113 74
113 79
113 83
113 85
113 87
113 92
113 94
113 108
113 109
113 112
113 115
113 126
113 128
113 132
113 134
113 147
113 149
113 150
113 154
113 162
113 173
113 174
114 55
114 63
114 78
114 102
114 107
114 122
114 129
114 138
114 145
114 155
114 163
115 58
115 59
115 71
115 74
115 85
115 87
115 92
115 93
115 108
115 112
115 113
115 125
115 132
115 134
115 140
115 147
115 150
115 154
115 164
116 60
116 66
116 69
116 75
116 86
116 95
116 98
116 102
116 117
116 124
116 138
116 143
116 146
116 158
116 165
116 172
116 175
117 60
117 64
117 69
117 75
117 86
117 95
117 98
117 105
117 116
117 120
117 124
117 143
117 146
117 156
117 158
117 165
117 172
117 184
118 53
118 56
118 76
118 77
118 80
118 88
118 89
118 103
118 104
118 106
118 121
118 123
118 137
118 139
118 141
118 142
118 144
118 157
118 166
118 168
119 65
119 72
119 79
119 81
119 82
119 84
119 90
119 94
119 97
119 99
119 100
119 109
119 127
119 128
119 130
119 131
119 136
119 149
119 151
119 152
119 159
119 161
119 169
119 179
119 181
120 64
120 67
120 69
120 70
120 86
120 96
120 101
120 105
120 111
120 117
120 124
120 133
120 135
120 143
120 153
120 156
120 165
120 171
120 176
120 182
121 56
121 61
121 62
121 77
121 80
121 88
121 91
121 103
121 104
121 106
121 110
121 111
121 118
121 137
121 139
121 142
121 144
121 148
121 157
121 167
121 168
121 170
121 189
122 63
122 107
122 114
122 129
122 145
122 155
122 163
123 72
123 73
123 76
123 89
123 90
123 99
123 103
123 118
123 130
123 131
123 137
123 141
123 142
123 152
123 160
123 166
123 169
123 180
123 183
123 185
124 64
124 67
124 69
124 75
124 86
124 95
124 96
124 101
124 105
124 116
124 117
124 120
124 133
124 135
124 143
124 153
124 156
124 165
124 171
124 182
124 184
125 59
125 74
125 85
125 92
125 93
125 108
125 112
125 115
125 132
125 140
125 147
125 150
125 164
125 178
126 57
126 65
126 71
126 79
126 81
126 83
126 87
126 92
126 94
126 100
126 109
126 112
126 113
126 127
126 128
126 132
126 134
126 149
126 150
126 151
126 154
126 162
126 173
126 174
127 65
127 79
127 81
127 82
127 83
127 84
127 87
127 94
127 97
127 99
127 100
127 109
127 119
127 126
127 128
127 130
127 134
127 136
127 149
127 151
127 159
127 161
127 162
127 174
127 181
128 65
128 79
128 81
128 82
128 83
128 87
128 94
128 97
128 100
128 109
128 113
128 119
128 126
128 127
128 132
128 134
128 136
128 149
128 151
128 154
128 159
128 162
128 173
128 174
129 63
129 78
129 102
129 107
129 114
129 122
129 138
129 145
129 146
129 155
129 163
129 177
129 194
130 72
130 82
130 84
130 90
130 97
130 99
130 100
130 109
130 119
130 123
130 127
130 131
130 136
130 141
130 151
130 152
130 159
130 160
130 161
130 169
130 179
130 180
130 181
131 72
131 73
131 84
131 89
131 90
131 97
131 99
131 119
131 123
131 130
131 136
131 141
131 142
131 152
131 159
131 160
131 161
131 166
131 169
131 179
131 180
131 183
132 71
132 74
132 83
132 85
132 87
132 92
132 108
132 112
132 113
132 115
132 125
132 126
132 128
132 134
132 140
132 147
132 149
132 150
132 154
132 162
132 164
132 173
132 174
132 191
132 193
133 68
133 70
133 88
133 91
133 96
133 101
133 105
133 110
133 111
133 120
133 124
133 135
133 143
133 144
133 148
133 153
133 156
133 167
133 170
133 171
133 176
133 200
133 204
134 71
134 74
134 79
134 83
134 87
134 92
134 94
134 109
134 112
134 113
134 115
134 126
134 127
134 128
134 132
134 147
134 149
134 150
134 151
134 154
134 162
134 173
134 174
134 191
134 196
134 199
135 67
135 70
135 91
135 96
135 101
135 105
135 110
135 111
135 120
135 124
135 133
135 143
135 148
135 153
135 156
135 165
135 167
135 170
135 171
135 176
135 182
135 198
136 81
136 82
136 84
136 97
136 99
136 100
136 109
136 119
136 127
136 128
136 130
136 131
136 149
136 151
136 152
136 159
136 161
136 162
136 169
136 179
136 181
136 201
136 205
137 76
137 77
137 80
137 89
137 103
137 104
137 106
137 118
137 121
137 123
137 139
137 141
137 142
137 144
137 157
137 160
137 166
137 168
137 185
137 186
137 187
137 190
138 78
138 98
138 102
138 107
138 114
138 116
138 129
138 145
138 146
138 155
138 158
138 175
138 177
138 197
138 203
139 77
139 80
139 88
139 103
139 104
139 106
139 110
139 118
139 121
139 137
139 142
139 144
139 148
139 157
139 166
139 167
139 168
139 186
139 187
139 189
139 190
140 85
140 93
140 108
140 112
140 115
140 125
140 132
140 147
140 150
140 164
140 178
140 193
140 206
141 73
141 76
141 89
141 90
141 103
141 118
141 123
141 130
141 131
141 137
141 142
141 152
141 157
141 160
141 166
141 169
141 180
141 183
141 185
141 187
142 76
142 77
142 89
142 103
142 104
142 118
142 121
142 123
142 131
142 137
142 139
142 141
142 144
142 157
142 160
142 166
142 168
142 183
142 185
142 186
142 187
142 190
143 86
143 101
143 105
143 116
143 117
143 120
143 124
143 133
143 135
143 156
143 165
143 171
143 172
143 182
143 184
143 188
143 198
143 213
144 80
144 88
144 91
144 104
144 106
144 110
144 111
144 118
144 121
144 133
144 137
144 139
144 142
144 148
144 153
144 157
144 167
144 168
144 170
144 186
144 189
144 190
144 195
145 107
145 114
145 122
145 129
145 138
145 155
145 163
145 177
145 194
145 212
146 95
146 98
146 102
146 107
146 116
146 117
146 129
146 138
146 155
146 158
146 172
146 175
146 177
146 188
146 192
146 197
146 203
147 85
147 92
147 93
147 108
147 112
147 113
147 115
147 125
147 132
147 134
147 140
147 150
147 154
147 164
147 173
147 178
147 191
147 193
147 206
147 210
148 88
148 91
148 96
148 106
148 110
148 111
148 121
148 133
148 135
148 139
148 144
148 153
148 157
148 167
148 168
148 170
148 171
148 176
148 189
148 190
148 195
148 200
148 204
149 79
149 83
149 87
149 94
149 100
149 109
149 112
149 113
149 119
149 126
149 127
149 128
149 132
149 134
149 136
149 150
149 151
149 154
149 159
149 162
149 173
149 174
149 191
149 196
149 199
149 202
150 92
150 108
150 112
150 113
150 115
150 125
150 126
150 132
150 134
150 140
150 147
150 149
150 154
150 162
150 164
150 173
150 174
150 178
150 191
150 193
150 196
150 206
150 210
151 81
151 94
151 97
151 100
151 109
151 119
151 126
151 127
151 128
151 130
151 134
151 136
151 149
151 154
151 159
151 161
151 162
151 173
151 174
151 179
151 181
151 199
151 201
151 202
151 205
152 90
152 97
152 99
152 119
152 123
152 130
152 131
152 136
152 141
152 159
152 160
152 161
152 166
152 169
152 179
152 180
152 181
152 183
152 185
152 205
152 207
152 208
153 91
153 96
153 101
153 110
153 111
153 120
153 124
153 133
153 135
153 144
153 148
153 156
153 167
153 170
153 171
153 176
153 195
153 198
153 200
153 204
154 87
154 92
154 94
154 112
154 113
154 115
154 126
154 128
154 132
154 134
154 147
154 149
154 150
154 151
154 162
154 173
154 174
154 191
154 193
154 196
154 199
154 210
154 220
155 107
155 114
155 122
155 129
155 138
155 145
155 146
155 163
155 177
155 194
155 197
155 203
155 212
155 217
156 101
156 105
156 117
156 120
156 124
156 133
156 135
156 143
156 153
156 165
156 171
156 172
156 176
156 182
156 184
156 188
156 198
156 213
157 103
157 104
157 106
157 118
157 121
157 137
157 139
157 141
157 142
157 144
157 148
157 160
157 166
157 167
157 168
157 185
157 186
157 187
157 189
157 190
157 209
157 214
157 215
158 95
158 98
158 102
158 116
158 117
158 138
158 146
158 165
158 172
158 175
158 177
158 184
158 188
158 192
158 197
158 203
158 216
158 218
159 97
159 99
159 100
159 109
159 119
159 127
159 128
159 130
159 131
159 136
159 149
159 151
159 152
159 161
159 162
159 169
159 179
159 180
159 181
159 201
159 202
159 205
159 207
159 224
159 225
160 89
160 90
160 123
160 130
160 131
160 137
160 141
160 142
160 152
160 157
160 161
160 166
160 169
160 179
160 180
160 183
160 185
160 187
160 207
160 208
160 209
161 97
161 99
161 100
161 119
161 127
161 130
161 131
161 136
161 151
161 152
161 159
161 160
161 169
161 179
161 180
161 181
161 183
161 201
161 205
161 207
161 225
162 94
162 109
162 113
162 126
162 127
162 128
162 132
162 134
162 136
162 149
162 150
162 151
162 154
162 159
162 173
162 174
162 181
162 191
162 196
162 199
162 201
162 202
162 221
163 114
163 122
163 129
163 145
163 155
163 177
163 194
163 212
164 93
164 108
164 115
164 125
164 132
164 140
164 147
164 150
164 178
164 193
164 206
164 211
164 219
164 222
165 105
165 116
165 117
165 120
165 124
165 135
165 143
165 156
165 158
165 171
165 172
165 175
165 182
165 184
165 188
165 192
165 198
165 213
165 216
166 103
166 104
166 118
166 123
166 131
166 137
166 139
166 141
166 142
166 152
166 157
166 160
166 168
166 180
166 183
166 185
166 186
166 187
166 190
166 208
166 209
166 214
167 106
167 110
167 111
167 121
167 133
167 135
167 139
167 144
167 148
167 153
167 157
167 168
167 170
167 171
167 176
167 189
167 190
167 195
167 200
167 204
167 215
168 104
168 106
168 118
168 121
168 137
168 139
168 142
168 144
168 148
168 157
168 166
168 167
168 170
168 186
168 187
168 189
168 190
168 195
168 200
168 214
168 215
169 99
169 119
169 123
169 130
169 131
169 136
169 141
169 152
169 159
169 160
169 161
169 179
169 180
169 181
169 183
169 185
169 201
169 205
169 207
169 208
169 225
170 110
170 111
170 121
170 133
170 135
170 144
170 148
170 153
170 167
170 168
170 171
170 176
170 189
170 195
170 198
170 200
170 204
170 215
170 223
171 101
171 105
171 111
171 120
171 124
171 133
171 135
171 143
171 148
171 153
171 156
171 165
171 167
171 170
171 176
171 182
171 184
171 198
171 200
171 204
171 213
171 223
172 116
172 117
172 143
172 146
172 156
172 158
172 165
172 175
172 182
172 184
172 188
172 192
172 197
172 213
172 216
172 218
173 112
173 113
173 126
173 128
173 132
173 134
173 147
173 149
173 150
173 151
173 154
173 162
173 174
173 191
173 193
173 196
173 199
173 202
173 206
173 210
173 220
173 221
174 113
174 126
174 127
174 128
174 132
174 134
174 149
174 150
174 151
174 154
174 162
174 173
174 191
174 196
174 199
174 201
174 202
174 210
174 220
174 221
174 226
174 234
175 116
175 138
175 146
175 158
175 165
175 172
175 177
175 184
175 188
175 192
175 197
175 203
175 216
175 217
175 218
175 231
176 111
176 120
176 133
176 135
176 148
176 153
176 156
176 167
176 170
176 171
176 182
176 189
176 195
176 198
176 200
176 204
176 223
177 129
177 138
177 145
177 146
177 155
177 158
177 163
177 175
177 192
177 194
177 197
177 203
177 212
177 217
177 227
177 231
177 241
178 125
178 140
178 147
178 150
178 164
178 191
178 193
178 206
178 210
178 211
178 219
178 222
178 228
178 233
179 119
179 130
179 131
179 136
179 151
179 152
179 159
179 160
179 161
179 169
179 180
179 181
179 183
179 201
179 205
179 207
179 208
179 224
179 225
179 229
179 232
179 239
179 246
180 123
180 130
180 131
180 141
180 152
180 159
180 160
180 161
180 166
180 169
180 179
180 181
180 183
180 185
180 187
180 205
180 207
180 208
180 209
180 225
180 229
180 239
181 119
181 127
181 130
181 136
181 151
181 152
181 159
181 161
181 162
181 169
181 179
181 180
181 201
181 202
181 205
181 207
181 224
181 225
181 226
181 232
181 246
182 120
182 124
182 135
182 143
182 156
182 165
182 171
182 172
182 176
182 184
182 188
182 198
182 204
182 213
182 216
183 123
183 131
183 141
183 142
183 152
183 160
183 161
183 166
183 169
183 179
183 180
183 185
183 186
183 187
183 207
183 208
183 209
183 229
183 230
183 239
183 249
184 117
184 124
184 143
184 156
184 158
184 165
184 171
184 172
184 175
184 182
184 188
184 192
184 198
184 213
184 216
184 218
185 123
185 137
185 141
185 142
185 152
185 157
185 160
185 166
185 169
185 180
185 183
185 186
185 187
185 190
185 208
185 209
185 214
185 229
185 230
185 236
185 249
186 137
186 139
186 142
186 144
186 157
186 166
186 168
186 183
186 185
186 187
186 189
186 190
186 195
186 209
186 214
186 215
186 230
186 236
186 237
186 238
186 251
187 137
187 139
187 141
187 142
187 157
187 160
187 166
187 168
187 180
187 183
187 185
187 186
187 189
187 190
187 208
187 209
187 214
187 215
187 229
187 230
187 236
187 238
188 143
188 146
188 156
188 158
188 165
188 172
188 175
188 182
188 184
188 192
188 197
188 198
188 213
188 216
188 218
188 231
189 121
189 139
189 144
189 148
189 157
189 167
189 168
189 170
189 176
189 186
189 187
189 190
189 195
189 200
189 204
189 214
189 215
189 236
189 237
189 238
189 248
189 250
190 137
190 139
190 142
190 144
190 148
190 157
190 166
190 167
190 168
190 185
190 186
190 187
190 189
190 195
190 200
190 209
190 214
190 215
190 236
190 237
190 238
190 250
190 251
191 132
191 134
191 147
191 149
191 150
191 154
191 162
191 173
191 174
191 178
191 193
191 196
191 199
191 206
191 210
191 211
191 219
191 220
191 221
191 222
191 228
191 233
191 234
191 240
191 253
191 255
192 146
192 158
192 165
192 172
192 175
192 177
192 184
192 188
192 197
192 203
192 213
192 216
192 217
192 218
192 231
193 132
193 140
193 147
193 150
193 154
193 164
193 173
193 178
193 191
193 196
193 206
193 210
193 211
193 219
193 220
193 222
193 228
193 233
193 240
193 253
194 129
194 145
194 155
194 163
194 177
194 203
194 212
194 217
194 227
194 235
194 241
195 144
195 148
195 153
195 167
195 168
195 170
195 176
195 186
195 189
195 190
195 200
195 204
195 214
195 215
195 223
195 237
195 238
195 242
195 244
195 248
195 250
196 134
196 149
196 150
196 154
196 162
196 173
196 174
196 191
196 193
196 199
196 202
196 206
196 210
196 219
196 220
196 221
196 226
196 228
196 234
196 240
196 243
196 253
196 255
196 257
197 138
197 146
197 155
197 158
197 172
197 175
197 177
197 188
197 192
197 203
197 216
197 217
197 218
197 227
197 231
198 135
198 143
198 153
198 156
198 165
198 170
198 171
198 176
198 182
198 184
198 188
198 200
198 204
198 213
198 216
198 223
198 244
198 245
198 254
198 258
199 134
199 149
199 151
199 154
199 162
199 173
199 174
199 191
199 196
199 201
199 202
199 210
199 220
199 221
199 224
199 226
199 234
199 240
199 243
199 247
199 257
200 133
200 148
200 153
200 167
200 168
200 170
200 171
200 176
200 189
200 190
200 195
200 198
200 204
200 215
200 223
200 237
200 242
200 244
200 248
201 136
201 151
201 159
201 161
201 162
201 169
201 174
201 179
201 181
201 199
201 202
201 205
201 207
201 221
201 224
201 225
201 226
201 232
201 234
201 243
201 246
201 247
201 259
202 149
202 151
202 159
202 162
202 173
202 174
202 181
202 196
202 199
202 201
202 205
202 207
202 220
202 221
202 224
202 225
202 226
202 232
202 234
202 243
202 247
202 269
203 138
203 146
203 155
203 158
203 175
203 177
203 192
203 194
203 197
203 212
203 217
203 218
203 227
203 231
203 235
203 241
204 133
204 148
204 153
204 167
204 170
204 171
204 176
204 182
204 189
204 195
204 198
204 200
204 215
204 223
204 242
204 244
204 245
204 248
204 258
204 266
205 136
205 151
205 152
205 159
205 161
205 169
205 179
205 180
205 181
205 201
205 202
205 207
205 208
205 224
205 225
205 226
205 232
205 239
205 246
205 247
205 252
205 259
205 265
206 140
206 147
206 150
206 164
206 173
206 178
206 191
206 193
206 196
206 210
206 211
206 219
206 220
206 222
206 228
206 233
206 240
206 253
206 256
206 263
207 152
207 159
207 160
207 161
207 169
207 179
207 180
207 181
207 183
207 201
207 202
207 205
207 208
207 224
207 225
207 229
207 232
207 239
207 246
207 252
207 259
207 265
208 152
208 160
208 166
208 169
208 179
208 180
208 183
208 185
208 187
208 205
208 207
208 209
208 225
208 229
208 230
208 239
208 246
208 249
208 252
208 260
208 264
209 157
209 160
209 166
209 180
209 183
209 185
209 186
209 187
209 190
209 208
209 214
209 229
209 230
209 236
209 238
209 239
209 249
209 260
209 262
209 264
210 147
210 150
210 154
210 173
210 174
210 178
210 191
210 193
210 196
210 199
210 206
210 211
210 219
210 220
210 221
210 222
210 228
210 233
210 234
210 240
210 253
210 255
210 257
210 263
210 270
210 274
211 164
211 178
211 191
211 193
211 206
211 210
211 219
211 222
211 228
211 233
211 253
211 256
211 263
212 145
212 155
212 163
212 177
212 194
212 203
212 217
212 227
212 235
212 241
213 143
213 156
213 165
213 171
213 172
213 182
213 184
213 188
213 192
213 198
213 216
213 218
213 223
213 245
213 254
213 261
214 157
214 166
214 168
214 185
214 186
214 187
214 189
214 190
214 195
214 209
214 215
214 230
214 236
214 237
214 238
214 248
214 250
214 251
214 262
214 272
214 273
215 157
215 167
215 168
215 170
215 186
215 187
215 189
215 190
215 195
215 200
215 204
215 214
215 223
215 236
215 237
215 238
215 242
215 248
215 250
215 251
215 268
215 272
215 273
216 158
216 165
216 172
216 175
216 182
216 184
216 188
216 192
216 197
216 198
216 213
216 218
216 231
216 261
216 267
216 271
216 278
217 155
217 175
217 177
217 192
217 194
217 197
217 203
217 212
217 218
217 227
217 231
217 235
217 241
217 275
218 158
218 172
218 175
218 184
218 188
218 192
218 197
218 203
218 213
218 216
218 217
218 227
218 231
218 267
218 271
218 284
219 164
219 178
219 191
219 193
219 196
219 206
219 210
219 211
219 220
219 222
219 228
219 233
219 240
219 253
219 255
219 256
219 263
219 270
219 274
220 154
220 173
220 174
220 191
220 193
220 196
220 199
220 202
220 206
220 210
220 219
220 221
220 226
220 228
220 233
220 234
220 240
220 243
220 253
220 255
220 257
220 270
220 274
220 276
220 281
221 162
221 173
221 174
221 191
221 196
221 199
221 201
221 202
221 210
221 220
221 224
221 226
221 232
221 234
221 240
221 243
221 247
221 253
221 255
221 257
221 269
221 276
221 281
221 282
222 164
222 178
222 191
222 193
222 206
222 210
222 211
222 219
222 228
222 233
222 240
222 253
222 256
222 263
222 270
222 286
223 170
223 171
223 176
223 195
223 198
223 200
223 204
223 213
223 215
223 242
223 244
223 245
223 248
223 254
223 258
223 266
223 268
223 277
224 159
224 179
224 181
224 199
224 201
224 202
224 205
224 207
224 221
224 225
224 226
224 232
224 234
224 239
224 243
224 246
224 247
224 259
224 265
224 269
224 280
225 159
225 161
225 169
225 179
225 180
225 181
225 201
225 202
225 205
225 207
225 208
225 224
225 226
225 229
225 232
225 239
225 243
225 246
225 247
225 252
225 259
225 265
225 280
226 174
226 181
226 196
226 199
226 201
226 202
226 205
226 220
226 221
226 224
226 225
226 232
226 234
226 240
226 243
226 246
226 247
226 257
226 259
226 269
226 281
226 282
226 292
227 177
227 194
227 197
227 203
227 212
227 217
227 218
227 231
227 235
227 241
227 275
227 285
227 287
227 289
228 178
228 191
228 193
228 196
228 206
228 210
228 211
228 219
228 220
228 222
228 233
228 240
228 253
228 255
228 256
228 257
228 263
228 270
228 274
228 276
228 288
228 293
228 301
229 179
229 180
229 183
229 185
229 187
229 207
229 208
229 209
229 225
229 230
229 236
229 239
229 246
229 249
229 252
229 260
229 262
229 264
229 265
229 290
229 295
230 183
230 185
230 186
230 187
230 208
230 209
230 214
230 229
230 236
230 238
230 239
230 249
230 251
230 252
230 260
230 262
230 264
230 290
230 297
230 304
231 175
231 177
231 188
231 192
231 197
231 203
231 216
231 217
231 218
231 227
231 241
231 267
231 271
231 275
231 284
231 285
231 287
231 305
232 179
232 181
232 201
232 202
232 205
232 207
232 221
232 224
232 225
232 226
232 234
232 239
232 243
232 246
232 247
232 252
232 259
232 265
232 269
232 280
232 282
232 292
232 309
233 178
233 191
233 193
233 206
233 210
233 211
233 219
233 220
233 222
233 228
233 240
233 253
233 255
233 256
233 263
233 270
233 274
233 286
233 288
233 293
233 301
233 307
234 174
234 191
234 196
234 199
234 201
234 202
234 210
234 220
234 221
234 224
234 226
234 232
234 240
234 243
234 247
234 253
234 255
234 257
234 269
234 274
234 276
234 281
234 282
234 288
234 292
234 294
235 194
235 203
235 212
235 217
235 227
235 241
235 275
235 283
235 289
235 291
236 185
236 186
236 187
236 189
236 190
236 209
236 214
236 215
236 229
236 230
236 237
236 238
236 248
236 249
236 250
236 251
236 262
236 264
236 272
236 273
236 290
236 297
236 303
237 186
237 189
237 190
237 195
237 200
237 214
237 215
237 236
237 238
237 242
237 244
237 248
237 250
237 251
237 262
237 266
237 268
237 272
237 273
237 296
237 303
238 186
238 187
238 189
238 190
238 195
238 209
238 214
238 215
238 230
238 236
238 237
238 242
238 248
238 250
238 251
238 262
238 264
238 268
238 272
238 273
238 296
238 297
238 303
239 179
239 180
239 183
239 205
239 207
239 208
239 209
239 224
239 225
239 229
239 230
239 232
239 246
239 249
239 252
239 259
239 260
239 265
239 280
239 295
239 298
240 191
240 193
240 196
240 199
240 206
240 210
240 219
240 220
240 221
240 222
240 226
240 228
240 233
240 234
240 243
240 253
240 255
240 257
240 263
240 269
240 270
240 274
240 276
240 281
240 282
240 288
240 301
240 310
241 177
241 194
241 203
241 212
241 217
241 227
241 231
241 235
241 275
241 283
241 285
241 287
241 289
241 291
241 308
242 195
242 200
242 204
242 215
242 223
242 237
242 238
242 244
242 245
242 248
242 250
242 254
242 258
242 266
242 268
242 272
242 273
242 277
242 296
242 299
242 300
243 196
243 199
243 201
243 202
243 220
243 221
243 224
243 225
243 226
243 232
243 234
243 240
243 247
243 255
243 257
243 259
243 269
243 276
243 281
243 282
243 292
243 294
243 312
244 195
244 198
244 200
244 204
244 223
244 237
244 242
244 245
244 248
244 250
244 254
244 258
244 266
244 268
244 272
244 277
244 279
244 299
244 300
244 306
244 314
245 198
245 204
245 213
245 223
245 242
245 244
245 254
245 258
245 261
245 266
245 268
245 277
245 278
245 279
245 299
245 302
245 306
245 314
246 179
246 181
246 201
246 205
246 207
246 208
246 224
246 225
246 226
246 229
246 232
246 239
246 247
246 249
246 252
246 259
246 260
246 265
246 269
246 280
246 295
246 298
246 309
246 319
247 199
247 201
247 202
247 205
247 221
247 224
247 225
247 226
247 232
247 234
247 243
247 246
247 257
247 259
247 265
247 269
247 280
247 281
247 282
247 292
247 294
247 309
247 312
248 189
248 195
248 200
248 204
248 214
248 215
248 223
248 236
248 237
248 238
248 242
248 244
248 250
248 251
248 258
248 266
248 268
248 272
248 273
248 277
248 296
248 299
248 300
249 183
249 185
249 208
249 209
249 229
249 230
249 236
249 239
249 246
249 251
249 252
249 260
249 262
249 264
249 265
249 290
249 295
249 297
249 304
249 315
250 189
250 190
250 195
250 214
250 215
250 236
250 237
250 238
250 242
250 244
250 248
250 251
250 262
250 266
250 268
250 272
250 273
250 296
250 297
250 300
250 303
250 318
250 322
251 186
251 190
251 214
251 215
251 230
251 236
251 237
251 238
251 248
251 249
251 250
251 262
251 264
251 268
251 272
251 273
251 290
251 296
251 297
251 303
251 318
251 322
252 205
252 207
252 208
252 225
252 229
252 230
252 232
252 239
252 246
252 249
252 259
252 260
252 264
252 265
252 280
252 295
252 298
252 304
252 319
252 324
253 191
253 193
253 196
253 206
253 210
253 211
253 219
253 220
253 221
253 222
253 228
253 233
253 234
253 240
253 255
253 256
253 257
253 263
253 270
253 274
253 276
253 281
253 282
253 286
253 288
253 293
253 301
253 310
253 316
253 317
254 198
254 213
254 223
254 242
254 244
254 245
254 258
254 261
254 266
254 277
254 278
254 279
254 299
254 302
254 306
254 314
254 320
254 323
255 191
255 196
255 210
255 219
255 220
255 221
255 228
255 233
255 234
255 240
255 243
255 253
255 257
255 263
255 269
255 270
255 274
255 276
255 281
255 282
255 288
255 293
255 294
255 301
255 310
255 316
255 317
256 206
256 211
256 219
256 222
256 228
256 233
256 253
256 263
256 270
256 274
256 286
256 288
256 293
256 301
256 307
256 317
257 196
257 199
257 210
257 220
257 221
257 226
257 228
257 234
257 240
257 243
257 247
257 253
257 255
257 269
257 270
257 274
257 276
257 281
257 282
257 288
257 292
257 294
257 301
257 310
257 312
257 316
257 325
258 198
258 204
258 223
258 242
258 244
258 245
258 248
258 254
258 261
258 266
258 268
258 277
258 278
258 279
258 299
258 300
258 302
258 306
258 314
258 321
258 323
259 201
259 205
259 207
259 224
259 225
259 226
259 232
259 239
259 243
259 246
259 247
259 252
259 265
259 269
259 280
259 282
259 292
259 294
259 298
259 309
259 312
259 319
260 208
260 209
260 229
260 230
260 239
260 246
260 249
260 252
260 262
260 264
260 265
260 280
260 290
260 295
260 298
260 304
260 315
260 319
260 324
260 329
261 213
261 216
261 245
261 254
261 258
261 267
261 271
261 277
261 278
261 279
261 302
261 306
261 311
261 320
261 323
262 209
262 214
262 229
262 230
262 236
262 237
262 238
262 249
262 250
262 251
262 260
262 264
262 272
262 273
262 290
262 296
262 297
262 303
262 304
262 315
262 318
262 322
262 333
263 206
263 210
263 211
263 219
263 222
263 228
263 233
263 240
263 253
263 255
263 256
263 270
263 274
263 276
263 286
263 288
263 293
263 301
263 307
263 310
263 317
263 332
264 208
264 209
264 229
264 230
264 236
264 238
264 249
264 251
264 252
264 260
264 262
264 273
264 290
264 295
264 297
264 303
264 304
264 315
264 318
264 329
265 205
265 207
265 224
265 225
265 229
265 232
265 239
265 246
265 247
265 249
265 252
265 259
265 260
265 280
265 292
265 295
265 298
265 309
265 319
265 324
266 204
266 223
266 237
266 242
266 244
266 245
266 248
266 250
266 254
266 258
266 268
266 272
266 277
266 279
266 296
266 299
266 300
266 306
266 314
266 321
266 338
266 339
267 216
267 218
267 231
267 261
267 271
267 275
267 278
267 284
267 285
267 287
267 305
267 308
267 311
267 326
267 342
268 215
268 223
268 237
268 238
268 242
268 244
268 245
268 248
268 250
268 251
268 258
268 266
268 272
268 273
268 277
268 296
268 299
268 300
268 306
268 314
268 321
268 322
268 337
268 339
269 202
269 221
269 224
269 226
269 232
269 234
269 240
269 243
269 246
269 247
269 255
269 257
269 259
269 276
269 280
269 281
269 282
269 292
269 294
269 309
269 312
269 316
269 325
269 327
269 331
269 341
270 210
270 219
270 220
270 222
270 228
270 233
270 240
270 253
270 255
270 256
270 257
270 263
270 274
270 276
270 281
270 286
270 288
270 293
270 301
270 307
270 310
270 316
270 317
270 340
271 216
271 218
271 231
271 261
271 267
271 278
271 279
271 284
271 285
271 302
271 305
271 311
271 320
271 326
271 342
272 214
272 215
272 236
272 237
272 238
272 242
272 244
272 248
272 250
272 251
272 262
272 266
272 268
272 273
272 296
272 297
272 299
272 300
272 303
272 318
272 321
272 322
272 333
272 335
272 337
273 214
273 215
273 236
273 237
273 238
273 242
273 248
273 250
273 251
273 262
273 264
273 268
273 272
273 290
273 296
273 297
273 300
273 303
273 318
273 322
273 333
273 335
274 210
274 219
274 220
274 228
274 233
274 234
274 240
274 253
274 255
274 256
274 257
274 263
274 270
274 276
274 281
274 282
274 286
274 288
274 293
274 294
274 301
274 307
274 310
274 316
274 317
274 325
274 334
274 353
275 217
275 227
275 231
275 235
275 241
275 267
275 283
275 284
275 285
275 287
275 289
275 291
275 308
275 313
275 328
275 330
275 347
275 351
276 220
276 221
276 228
276 234
276 240
276 243
276 253
276 255
276 257
276 263
276 269
276 270
276 274
276 281
276 282
276 288
276 292
276 293
276 294
276 301
276 310
276 312
276 316
276 317
276 325
276 334
276 341
277 223
277 242
277 244
277 245
277 248
277 254
277 258
277 261
277 266
277 268
277 278
277 279
277 299
277 300
277 302
277 306
277 314
277 320
277 321
277 323
277 338
277 339
277 350
278 216
278 245
278 254
278 258
278 261
278 267
278 271
278 277
278 279
278 284
278 302
278 305
278 306
278 311
278 320
278 323
278 326
278 343
278 349
279 244
279 245
279 254
279 258
279 261
279 266
279 271
279 277
279 278
279 299
279 302
279 306
279 311
279 314
279 320
279 323
279 343
279 349
279 350
280 224
280 225
280 232
280 239
280 246
280 247
280 252
280 259
280 260
280 265
280 269
280 292
280 295
280 298
280 309
280 312
280 319
280 324
280 331
280 336
280 346
280 352
281 220
281 221
281 226
281 234
281 240
281 243
281 247
281 253
281 255
281 257
281 269
281 270
281 274
281 276
281 282
281 288
281 292
281 294
281 301
281 310
281 312
281 316
281 317
281 325
281 327
281 334
281 341
282 221
282 226
282 232
282 234
282 240
282 243
282 247
282 253
282 255
282 257
282 259
282 269
282 274
282 276
282 281
282 288
282 292
282 294
282 309
282 310
282 312
282 316
282 325
282 327
282 331
282 334
282 341
282 354
283 235
283 241
283 275
283 287
283 289
283 291
283 313
283 328
283 345
283 347
284 218
284 231
284 267
284 271
284 275
284 278
284 285
284 287
284 289
284 305
284 308
284 311
284 326
284 330
284 342
284 348
285 227
285 231
285 241
285 267
285 271
285 275
285 284
285 287
285 289
285 291
285 305
285 308
285 311
285 326
285 328
285 330
285 342
285 348
285 351
286 222
286 233
286 253
286 256
286 263
286 270
286 274
286 288
286 293
286 301
286 307
286 310
286 317
286 332
286 340
287 227
287 231
287 241
287 267
287 275
287 283
287 284
287 285
287 289
287 291
287 305
287 308
287 313
287 326
287 328
287 330
287 347
287 348
287 351
288 228
288 233
288 234
288 240
288 253
288 255
288 256
288 257
288 263
288 270
288 274
288 276
288 281
288 282
288 286
288 293
288 294
288 301
288 307
288 310
288 316
288 317
288 325
288 334
288 340
288 353
288 356
289 227
289 235
289 241
289 275
289 283
289 284
289 285
289 287
289 291
289 308
289 313
289 328
289 330
289 345
289 347
289 351
290 229
290 230
290 236
290 249
290 251
290 260
290 262
290 264
290 273
290 295
290 297
290 303
290 304
290 315
290 318
290 324
290 329
290 333
290 344
290 359
290 361
291 235
291 241
291 275
291 283
291 285
291 287
291 289
291 308
291 313
291 328
291 330
291 345
291 347
291 351
292 226
292 232
292 234
292 243
292 247
292 257
292 259
292 265
292 269
292 276
292 280
292 281
292 282
292 294
292 298
292 309
292 312
292 316
292 319
292 325
292 327
292 331
292 334
292 336
292 341
292 346
292 354
292 358
293 228
293 233
293 253
293 255
293 256
293 263
293 270
293 274
293 276
293 286
293 288
293 301
293 307
293 310
293 317
293 332
293 340
293 353
293 365
294 234
294 243
294 247
294 255
294 257
294 259
294 269
294 274
294 276
294 281
294 282
294 288
294 292
294 309
294 310
294 312
294 316
294 325
294 327
294 331
294 334
294 336
294 341
294 354
294 356
294 360
295 229
295 239
295 246
295 249
295 252
295 260
295 264
295 265
295 280
295 290
295 297
295 298
295 304
295 315
295 319
295 324
295 329
295 344
295 346
295 352
295 355
295 359
296 237
296 238
296 242
296 248
296 250
296 251
296 262
296 266
296 268
296 272
296 273
296 297
296 299
296 300
296 303
296 318
296 321
296 322
296 333
296 335
296 337
296 339
296 357
296 363
296 367
296 368
297 230
297 236
297 238
297 249
297 250
297 251
297 262
297 264
297 272
297 273
297 290
297 295
297 296
297 303
297 304
297 315
297 318
297 322
297 329
297 333
297 335
297 344
297 357
297 359
297 361
298 239
298 246
298 252
298 259
298 260
298 265
298 280
298 292
298 295
298 304
298 309
298 319
298 324
298 329
298 331
298 336
298 346
298 352
298 355
298 364
299 242
299 244
299 245
299 248
299 254
299 258
299 266
299 268
299 272
299 277
299 279
299 296
299 300
299 302
299 306
299 314
299 321
299 323
299 337
299 338
299 339
299 350
299 363
299 376
300 242
300 244
300 248
300 250
300 258
300 266
300 268
300 272
300 273
300 277
300 296
300 299
300 306
300 314
300 321
300 322
300 335
300 337
300 338
300 339
300 350
300 363
300 367
301 228
301 233
301 240
301 253
301 255
301 256
301 257
301 263
301 270
301 274
301 276
301 281
301 286
301 288
301 293
301 307
301 310
301 316
301 317
301 332
301 334
301 340
301 353
301 356
301 365
301 370
302 245
302 254
302 258
302 261
302 271
302 277
302 278
302 279
302 299
302 306
302 311
302 314
302 320
302 323
302 338
302 343
302 349
302 350
302 362
303 236
303 237
303 238
303 250
303 251
303 262
303 264
303 272
303 273
303 290
303 296
303 297
303 304
303 315
303 318
303 322
303 329
303 333
303 335
303 337
303 344
303 357
303 361
303 368
303 378
304 230
304 249
304 252
304 260
304 262
304 264
304 290
304 295
304 297
304 298
304 303
304 315
304 318
304 319
304 324
304 329
304 333
304 344
304 352
304 355
304 359
304 361
304 377
305 231
305 267
305 271
305 278
305 284
305 285
305 287
305 308
305 311
305 326
305 330
305 342
305 343
305 348
305 351
305 372
305 374
306 244
306 245
306 254
306 258
306 261
306 266
306 268
306 277
306 278
306 279
306 299
306 300
306 302
306 314
306 320
306 321
306 323
306 337
306 338
306 339
306 343
306 349
306 350
306 362
306 375
306 376
307 233
307 256
307 263
307 270
307 274
307 286
307 288
307 293
307 301
307 310
307 317
307 332
307 340
307 353
307 365
308 241
308 267
308 275
308 284
308 285
308 287
308 289
308 291
308 305
308 313
308 326
308 328
308 330
308 347
308 348
308 351
308 371
309 232
309 246
309 247
309 259
309 265
309 269
309 280
309 282
309 292
309 294
309 298
309 312
309 319
309 324
309 325
309 327
309 331
309 336
309 341
309 346
309 352
309 354
309 358
309 364
309 380
310 240
310 253
310 255
310 257
310 263
310 270
310 274
310 276
310 281
310 282
310 286
310 288
310 293
310 294
310 301
310 307
310 316
310 317
310 325
310 332
310 334
310 340
310 341
310 353
310 356
310 360
310 365
310 370
310 373
311 261
311 267
311 271
311 278
311 279
311 284
311 285
311 302
311 305
311 320
311 323
311 326
311 342
311 343
311 348
311 349
311 362
311 366
311 374
312 243
312 247
312 257
312 259
312 269
312 276
312 280
312 281
312 282
312 292
312 294
312 309
312 316
312 319
312 325
312 327
312 331
312 334
312 336
312 341
312 346
312 354
312 358
312 360
312 381
313 275
313 283
313 287
313 289
313 291
313 308
313 328
313 330
313 345
313 347
313 351
313 369
314 244
314 245
314 254
314 258
314 266
314 268
314 277
314 279
314 299
314 300
314 302
314 306
314 320
314 321
314 323
314 337
314 338
314 339
314 349
314 350
314 362
314 363
314 375
314 376
315 249
315 260
315 262
315 264
315 290
315 295
315 297
315 303
315 304
315 318
315 324
315 329
315 333
315 344
315 355
315 357
315 359
315 361
315 377
315 386
316 253
316 255
316 257
316 269
316 270
316 274
316 276
316 281
316 282
316 288
316 292
316 294
316 301
316 310
316 312
316 317
316 325
316 327
316 334
316 340
316 341
316 353
316 354
316 356
316 360
316 370
316 373
316 383
317 253
317 255
317 256
317 263
317 270
317 274
317 276
317 281
317 286
317 288
317 293
317 301
317 307
317 310
317 316
317 332
317 334
317 340
317 353
317 356
317 365
317 370
317 373
318 250
318 251
318 262
318 264
318 272
318 273
318 290
318 296
318 297
318 303
318 304
318 315
318 322
318 329
318 333
318 335
318 337
318 344
318 357
318 359
318 361
318 367
318 368
318 378
319 246
319 252
319 259
319 260
319 265
319 280
319 292
319 295
319 298
319 304
319 309
319 312
319 324
319 329
319 331
319 336
319 346
319 352
319 355
319 358
319 364
319 379
319 380
320 254
320 261
320 271
320 277
320 278
320 279
320 302
320 306
320 311
320 314
320 323
320 326
320 338
320 342
320 343
320 349
320 350
320 362
320 366
320 375
320 384
321 258
321 266
321 268
321 272
321 277
321 296
321 299
321 300
321 306
321 314
321 322
321 323
321 335
321 337
321 338
321 339
321 350
321 363
321 367
321 376
322 250
322 251
322 262
322 268
322 272
322 273
322 296
322 297
322 300
322 303
322 318
322 321
322 333
322 335
322 337
322 339
322 344
322 357
322 363
322 367
322 368
322 378
322 389
323 254
323 258
323 261
323 277
323 278
323 279
323 299
323 302
323 306
323 311
323 314
323 320
323 321
323 338
323 339
323 343
323 349
323 350
323 362
323 366
323 375
323 376
323 384
324 252
324 260
324 265
324 280
324 290
324 295
324 298
324 304
324 309
324 315
324 319
324 329
324 336
324 344
324 346
324 352
324 355
324 359
324 364
324 377
324 379
324 380
324 382
325 257
325 269
325 274
325 276
325 281
325 282
325 288
325 292
325 294
325 309
325 310
325 312
325 316
325 327
325 331
325 334
325 336
325 341
325 353
325 354
325 356
325 358
325 360
325 373
325 381
325 383
326 267
326 271
326 278
326 284
326 285
326 287
326 305
326 308
326 311
326 320
326 330
326 342
326 343
326 348
326 351
326 366
326 372
326 374
326 397
327 269
327 281
327 282
327 292
327 294
327 309
327 312
327 316
327 325
327 331
327 334
327 336
327 341
327 346
327 354
327 356
327 358
327 360
327 381
327 383
327 385
328 275
328 283
328 285
328 287
328 289
328 291
328 308
328 313
328 330
328 345
328 347
328 348
328 351
328 369
328 371
328 387
328 388
329 260
329 264
329 290
329 295
329 297
329 298
329 303
329 304
329 315
329 318
329 319
329 324
329 333
329 344
329 352
329 355
329 357
329 359
329 361
329 377
329 379
329 382
329 386
329 391
330 275
330 284
330 285
330 287
330 289
330 291
330 305
330 308
330 313
330 326
330 328
330 342
330 345
330 347
330 348
330 351
330 369
330 371
330 372
330 388
330 399
330 401
331 269
331 280
331 282
331 292
331 294
331 298
331 309
331 312
331 319
331 325
331 327
331 336
331 341
331 346
331 352
331 354
331 358
331 360
331 364
331 380
331 381
331 385
331 392
332 263
332 286
332 293
332 301
332 307
332 310
332 317
332 340
332 353
332 365
332 370
332 398
332 407
333 262
333 272
333 273
333 290
333 296
333 297
333 303
333 304
333 315
333 318
333 322
333 329
333 335
333 337
333 344
333 357
333 359
333 361
333 367
333 368
333 378
333 386
333 389
333 391
333 394
333 406
334 274
334 276
334 281
334 282
334 288
334 292
334 294
334 301
334 310
334 312
334 316
334 317
334 325
334 327
334 340
334 341
334 353
334 354
334 356
334 360
334 365
334 370
334 373
334 381
334 383
334 402
334 403
335 272
335 273
335 296
335 297
335 300
335 303
335 318
335 321
335 322
335 333
335 337
335 339
335 344
335 357
335 361
335 363
335 367
335 368
335 378
335 389
335 390
335 394
335 406
336 280
336 292
336 294
336 298
336 309
336 312
336 319
336 324
336 325
336 327
336 331
336 341
336 346
336 352
336 354
336 355
336 358
336 364
336 379
336 380
336 381
336 385
336 392
337 268
337 272
337 296
337 299
337 300
337 303
337 306
337 314
337 318
337 321
337 322
337 333
337 335
337 338
337 339
337 350
337 357
337 363
337 367
337 368
337 376
337 378
337 389
337 390
337 393
337 400
338 266
338 277
338 299
338 300
338 302
338 306
338 314
338 320
338 321
338 323
338 337
338 339
338 349
338 350
338 362
338 363
338 367
338 375
338 376
338 393
338 395
338 400
338 404
339 266
339 268
339 277
339 296
339 299
339 300
339 306
339 314
339 321
339 322
339 323
339 335
339 337
339 338
339 350
339 363
339 367
339 375
339 376
339 390
339 393
339 395
339 400
340 270
340 286
340 288
340 293
340 301
340 307
340 310
340 316
340 317
340 332
340 334
340 353
340 356
340 365
340 370
340 373
340 398
340 403
340 405
340 407
341 269
341 276
341 281
341 282
341 292
341 294
341 309
341 310
341 312
341 316
341 325
341 327
341 331
341 334
341 336
341 353
341 354
341 356
341 358
341 360
341 373
341 381
341 383
341 385
341 402
342 267
342 271
342 284
342 285
342 305
342 311
342 320
342 326
342 330
342 343
342 348
342 349
342 351
342 366
342 372
342 374
342 396
342 397
342 401
343 278
343 279
343 302
343 305
343 306
343 311
343 320
343 323
343 326
343 342
343 349
343 350
343 362
343 366
343 372
343 374
343 375
343 384
343 396
343 397
344 290
344 295
344 297
344 303
344 304
344 315
344 318
344 322
344 324
344 329
344 333
344 335
344 355
344 357
344 359
344 361
344 368
344 377
344 378
344 382
344 386
344 391
344 394
345 283
345 289
345 291
345 313
345 328
345 330
345 347
345 351
345 369
345 371
345 387
345 388
346 280
346 292
346 295
346 298
346 309
346 312
346 319
346 324
346 327
346 331
346 336
346 352
346 354
346 355
346 358
346 364
346 379
346 380
346 382
346 385
346 392
346 408
347 275
347 283
347 287
347 289
347 291
347 308
347 313
347 328
347 330
347 345
347 348
347 351
347 369
347 371
347 387
347 388
347 399
347 401
348 284
348 285
348 287
348 305
348 308
348 311
348 326
348 328
348 330
348 342
348 347
348 351
348 366
348 371
348 372
348 374
348 397
348 399
348 401
349 278
349 279
349 302
349 306
349 311
349 314
349 320
349 323
349 338
349 342
349 343
349 350
349 362
349 366
349 375
349 376
349 384
349 395
349 396
349 404
350 277
350 279
350 299
350 300
350 302
350 306
350 314
350 320
350 321
350 323
350 337
350 338
350 339
350 343
350 349
350 362
350 363
350 366
350 375
350 376
350 384
350 393
350 395
350 404
351 275
351 285
351 287
351 289
351 291
351 305
351 308
351 313
351 326
351 328
351 330
351 342
351 345
351 347
351 348
351 369
351 371
351 372
351 387
351 388
351 399
351 401
352 280
352 295
352 298
352 304
352 309
352 319
352 324
352 329
352 331
352 336
352 346
352 355
352 358
352 359
352 364
352 377
352 379
352 380
352 382
352 392
352 408
352 412
353 274
353 288
353 293
353 301
353 307
353 310
353 316
353 317
353 325
353 332
353 334
353 340
353 341
353 356
353 360
353 365
353 370
353 373
353 383
353 398
353 402
353 403
353 405
353 407
353 409
354 282
354 292
354 294
354 309
354 312
354 316
354 325
354 327
354 331
354 334
354 336
354 341
354 346
354 356
354 358
354 360
354 364
354 373
354 380
354 381
354 383
354 385
354 392
354 402
354 410
355 295
355 298
355 304
355 315
355 319
355 324
355 329
355 336
355 344
355 346
355 352
355 359
355 361
355 364
355 377
355 379
355 380
355 382
355 386
355 408
355 412
355 417
356 288
356 294
356 301
356 310
356 316
356 317
356 325
356 327
356 334
356 340
356 341
356 353
356 354
356 360
356 365
356 370
356 373
356 381
356 383
356 402
356 403
356 405
356 409
356 411
356 415
357 296
357 297
357 303
357 315
357 318
357 322
357 329
357 333
357 335
357 337
357 344
357 359
357 361
357 367
357 368
357 377
357 378
357 386
357 389
357 390
357 391
357 394
357 406
357 421
357 422
358 292
358 309
358 312
358 319
358 325
358 327
358 331
358 336
358 341
358 346
358 352
358 354
358 360
358 364
358 379
358 380
358 381
358 383
358 385
358 392
358 408
358 410
358 416
358 433
359 290
359 295
359 297
359 304
359 315
359 318
359 324
359 329
359 333
359 344
359 352
359 355
359 357
359 361
359 377
359 378
359 379
359 382
359 386
359 391
359 394
359 417
359 420
359 422
359 425
359 432
360 294
360 310
360 312
360 316
360 325
360 327
360 331
360 334
360 341
360 353
360 354
360 356
360 358
360 370
360 373
360 381
360 383
360 385
360 402
360 403
360 405
360 409
360 410
360 411
360 415
360 426
361 290
361 297
361 303
361 304
361 315
361 318
361 329
361 333
361 335
361 344
361 355
361 357
361 359
361 368
361 377
361 378
361 382
361 386
361 389
361 391
361 394
361 406
361 420
361 421
361 422
361 425
361 432
362 302
362 306
362 311
362 314
362 320
362 323
362 338
362 343
362 349
362 350
362 366
362 374
362 375
362 376
362 384
362 393
362 395
362 396
362 404
362 419
362 423
362 435
363 296
363 299
363 300
363 314
363 321
363 322
363 335
363 337
363 338
363 339
363 350
363 367
363 368
363 375
363 376
363 378
363 389
363 390
363 393
363 395
363 400
363 406
363 414
363 418
363 419
363 427
363 434
364 298
364 309
364 319
364 324
364 331
364 336
364 346
364 352
364 354
364 355
364 358
364 377
364 379
364 380
364 382
364 385
364 392
364 408
364 412
364 416
364 417
364 433
365 293
365 301
365 307
365 310
365 317
365 332
365 334
365 340
365 353
365 356
365 370
365 373
365 398
365 402
365 403
365 405
365 407
365 409
365 413
365 415
365 438
366 311
366 320
366 323
366 326
366 342
366 343
366 348
366 349
366 350
366 362
366 372
366 374
366 375
366 384
366 396
366 397
366 404
366 423
366 431
366 435
367 296
367 300
367 318
367 321
367 322
367 333
367 335
367 337
367 338
367 339
367 357
367 363
367 368
367 376
367 378
367 389
367 390
367 393
367 394
367 400
367 406
367 414
367 418
367 421
367 427
368 296
368 303
368 318
368 322
368 333
368 335
368 337
368 344
368 357
368 361
368 363
368 367
368 378
368 386
368 389
368 390
368 391
368 394
368 400
368 406
368 414
368 421
368 422
368 427
368 440
369 313
369 328
369 330
369 345
369 347
369 351
369 371
369 387
369 388
369 399
369 401
369 429
369 430
369 436
370 301
370 310
370 316
370 317
370 332
370 334
370 340
370 353
370 356
370 360
370 365
370 373
370 383
370 398
370 402
370 403
370 405
370 407
370 409
370 411
370 413
370 415
370 438
370 445
371 308
371 328
371 330
371 345
371 347
371 348
371 351
371 369
371 372
371 387
371 388
371 399
371 401
371 424
371 428
371 429
371 430
371 436
372 305
372 326
372 330
372 342
372 343
372 348
372 351
372 366
372 371
372 374
372 396
372 397
372 399
372 401
372 424
372 428
372 431
372 439
373 310
373 316
373 317
373 325
373 334
373 340
373 341
373 353
373 354
373 356
373 360
373 365
373 370
373 381
373 383
373 398
373 402
373 403
373 405
373 407
373 409
373 411
373 413
373 415
373 426
373 438
373 445
374 305
374 311
374 326
374 342
374 343
374 348
374 362
374 366
374 372
374 384
374 396
374 397
374 399
374 401
374 428
374 431
374 435
374 439
375 306
375 314
375 320
375 323
375 338
375 339
375 343
375 349
375 350
375 362
375 363
375 366
375 376
375 384
375 393
375 395
375 400
375 404
375 418
375 419
375 423
375 434
375 442
375 443
376 299
376 306
376 314
376 321
376 323
376 337
376 338
376 339
376 349
376 350
376 362
376 363
376 367
376 375
376 384
376 390
376 393
376 395
376 400
376 404
376 414
376 418
376 419
376 423
376 434
376 443
376 452
377 304
377 315
377 324
377 329
377 344
377 352
377 355
377 357
377 359
377 361
377 364
377 379
377 382
377 386
377 391
377 394
377 412
377 417
377 420
377 422
377 425
377 432
377 448
378 303
378 318
378 322
378 333
378 335
378 337
378 344
378 357
378 359
378 361
378 363
378 367
378 368
378 386
378 389
378 390
378 391
378 394
378 406
378 414
378 421
378 422
378 425
378 427
378 432
378 440
378 447
379 319
379 324
379 329
379 336
379 346
379 352
379 355
379 358
379 359
379 364
379 377
379 380
379 382
379 386
379 392
379 408
379 412
379 417
379 420
379 441
379 448
380 309
380 319
380 324
380 331
380 336
380 346
380 352
380 354
380 355
380 358
380 364
380 379
380 381
380 382
380 385
380 392
380 408
380 410
380 412
380 416
380 417
380 433
380 441
380 457
381 312
381 325
381 327
381 331
381 334
381 336
381 341
381 354
381 356
381 358
381 360
381 373
381 380
381 383
381 385
381 392
381 402
381 403
381 410
381 411
381 415
381 416
381 426
381 451
382 324
382 329
382 344
382 346
382 352
382 355
382 359
382 361
382 364
382 377
382 379
382 380
382 386
382 391
382 408
382 412
382 417
382 420
382 425
382 432
382 441
382 448
383 316
383 325
383 327
383 334
383 341
383 353
383 354
383 356
383 358
383 360
383 370
383 373
383 381
383 385
383 402
383 403
383 405
383 409
383 410
383 411
383 415
383 416
383 426
383 455
384 320
384 323
384 343
384 349
384 350
384 362
384 366
384 374
384 375
384 376
384 395
384 396
384 397
384 404
384 419
384 423
384 431
384 435
384 442
384 443
384 444
384 446
385 327
385 331
385 336
385 341
385 346
385 354
385 358
385 360
385 364
385 380
385 381
385 383
385 392
385 408
385 410
385 411
385 416
385 426
385 433
385 451
385 457
386 315
386 329
386 333
386 344
386 355
386 357
386 359
386 361
386 368
386 377
386 378
386 379
386 382
386 391
386 394
386 406
386 412
386 417
386 420
386 421
386 422
386 425
386 432
386 440
386 448
386 458
386 459
387 328
387 345
387 347
387 351
387 369
387 371
387 388
387 399
387 429
387 430
387 436
387 454
388 328
388 330
388 345
388 347
388 351
388 369
388 371
388 387
388 399
388 401
388 424
388 429
388 430
388 436
388 454
389 322
389 333
389 335
389 337
389 357
389 361
389 363
389 367
389 368
389 378
389 390
389 391
389 393
389 394
389 400
389 406
389 414
389 418
389 421
389 422
389 427
389 440
389 447
389 450
390 335
390 337
390 339
390 357
390 363
390 367
390 368
390 376
390 378
390 389
390 393
390 394
390 395
390 400
390 406
390 414
390 418
390 419
390 421
390 427
390 434
390 447
390 450
390 452
390 453
391 329
391 333
391 344
391 357
391 359
391 361
391 368
391 377
391 378
391 382
391 386
391 389
391 394
391 406
391 417
391 420
391 421
391 422
391 425
391 432
391 440
391 458
391 459
392 331
392 336
392 346
392 352
392 354
392 358
392 364
392 379
392 380
392 381
392 385
392 408
392 410
392 412
392 416
392 426
392 433
392 441
392 451
392 457
393 337
393 338
393 339
393 350
393 362
393 363
393 367
393 375
393 376
393 389
393 390
393 395
393 400
393 404
393 414
393 418
393 419
393 423
393 427
393 434
393 442
393 443
393 450
393 452
393 453
394 333
394 335
394 344
394 357
394 359
394 361
394 367
394 368
394 377
394 378
394 386
394 389
394 390
394 391
394 406
394 414
394 420
394 421
394 422
394 425
394 427
394 432
394 440
394 447
394 458
394 459
395 338
395 339
395 349
395 350
395 362
395 363
395 375
395 376
395 384
395 390
395 393
395 400
395 404
395 414
395 418
395 419
395 423
395 434
395 442
395 443
395 444
395 452
395 453
396 342
396 343
396 349
396 362
396 366
396 372
396 374
396 384
396 397
396 401
396 404
396 423
396 428
396 431
396 435
396 439
396 444
396 446
396 465
397 326
397 342
397 343
397 348
397 366
397 372
397 374
397 384
397 396
397 399
397 401
397 424
397 428
397 431
397 435
397 439
397 446
397 463
398 332
398 340
398 353
398 365
398 370
398 373
398 403
398 405
398 407
398 409
398 413
398 437
398 438
398 445
398 449
398 456
399 330
399 347
399 348
399 351
399 369
399 371
399 372
399 374
399 387
399 388
399 397
399 401
399 424
399 428
399 429
399 430
399 436
399 439
400 337
400 338
400 339
400 363
400 367
400 368
400 375
400 376
400 389
400 390
400 393
400 395
400 404
400 406
400 414
400 418
400 419
400 427
400 434
400 443
400 447
400 450
400 452
400 453
401 330
401 342
401 347
401 348
401 351
401 369
401 371
401 372
401 374
401 388
401 396
401 397
401 399
401 424
401 428
401 430
401 431
401 436
401 439
401 464
402 334
402 341
402 353
402 354
402 356
402 360
402 365
402 370
402 373
402 381
402 383
402 403
402 405
402 407
402 409
402 410
402 411
402 415
402 426
402 438
402 445
402 455
402 462
402 466
403 334
403 340
403 353
403 356
403 360
403 365
403 370
403 373
403 381
403 383
403 398
403 402
403 405
403 407
403 409
403 411
403 413
403 415
403 426
403 438
403 445
403 449
403 455
403 456
403 466
404 338
404 349
404 350
404 362
404 366
404 375
404 376
404 384
404 393
404 395
404 396
404 400
404 418
404 419
404 423
404 434
404 435
404 442
404 443
404 444
404 446
404 452
404 469
405 340
405 353
405 356
405 360
405 365
405 370
405 373
405 383
405 398
405 402
405 403
405 407
405 409
405 411
405 413
405 415
405 437
405 438
405 445
405 449
405 455
405 456
405 466
406 333
406 335
406 357
406 361
406 363
406 367
406 368
406 378
406 386
406 389
406 390
406 391
406 394
406 400
406 414
406 418
406 421
406 422
406 425
406 427
406 432
406 440
406 447
406 450
406 459
406 475
407 332
407 340
407 353
407 365
407 370
407 373
407 398
407 402
407 403
407 405
407 409
407 413
407 415
407 437
407 438
407 445
407 449
407 456
407 470
408 346
408 352
408 355
408 358
408 364
408 379
408 380
408 382
408 385
408 392
408 410
408 412
408 416
408 417
408 420
408 433
408 441
408 448
408 451
408 457
408 460
408 461
408 479
409 353
409 356
409 360
409 365
409 370
409 373
409 383
409 398
409 402
409 403
409 405
409 407
409 411
409 413
409 415
409 426
409 437
409 438
409 445
409 449
409 455
409 456
409 466
409 474
409 492
410 354
410 358
410 360
410 380
410 381
410 383
410 385
410 392
410 402
410 408
410 411
410 415
410 416
410 426
410 433
410 451
410 455
410 457
410 462
410 477
410 479
410 483
411 356
411 360
411 370
411 373
411 381
411 383
411 385
411 402
411 403
411 405
411 409
411 410
411 415
411 416
411 426
411 438
411 445
411 451
411 455
411 462
411 466
411 474
411 477
412 352
412 355
412 364
412 377
412 379
412 380
412 382
412 386
412 392
412 408
412 416
412 417
412 420
412 425
412 433
412 441
412 448
412 457
412 458
412 460
412 461
412 467
412 479
412 491
413 365
413 370
413 373
413 398
413 403
413 405
413 407
413 409
413 415
413 437
413 438
413 445
413 449
413 456
413 466
413 470
413 487
413 492
414 363
414 367
414 368
414 376
414 378
414 389
414 390
414 393
414 394
414 395
414 400
414 406
414 418
414 419
414 421
414 427
414 434
414 440
414 447
414 450
414 452
414 453
414 471
414 472
414 473
414 481
414 493
415 356
415 360
415 365
415 370
415 373
415 381
415 383
415 402
415 403
415 405
415 407
415 409
415 410
415 411
415 413
415 426
415 438
415 445
415 449
415 455
415 456
415 462
415 466
415 474
416 358
416 364
416 380
416 381
416 383
416 385
416 392
416 408
416 410
416 411
416 412
416 426
416 433
416 441
416 451
416 457
416 460
416 462
416 477
416 479
416 483
417 355
417 359
417 364
417 377
417 379
417 380
417 382
417 386
417 391
417 408
417 412
417 420
417 425
417 432
417 433
417 441
417 448
417 457
417 458
417 459
417 460
417 461
417 467
417 476
417 491
417 495
418 363
418 367
418 375
418 376
418 389
418 390
418 393
418 395
418 400
418 404
418 406
418 414
418 419
418 427
418 434
418 442
418 443
418 447
418 450
418 452
418 453
418 471
418 472
418 473
418 484
418 496
419 362
419 363
419 375
419 376
419 384
419 390
419 393
419 395
419 400
419 404
419 414
419 418
419 423
419 434
419 442
419 443
419 444
419 450
419 452
419 453
419 469
419 471
419 482
419 484
419 494
420 359
420 361
420 377
420 379
420 382
420 386
420 391
420 394
420 408
420 412
420 417
420 422
420 425
420 432
420 440
420 441
420 448
420 458
420 459
420 460
420 461
420 467
420 476
420 500
421 357
421 361
421 367
421 368
421 378
421 386
421 389
421 390
421 391
421 394
421 406
421 414
421 422
421 425
421 427
421 432
421 440
421 447
421 450
421 458
421 459
421 472
421 473
421 475
421 481
421 489
421 493
422 357
422 359
422 361
422 368
422 377
422 378
422 386
422 389
422 391
422 394
422 406
422 420
422 421
422 425
422 427
422 432
422 440
422 447
422 458
422 459
422 475
422 476
422 481
422 489
423 362
423 366
423 375
423 376
423 384
423 393
423 395
423 396
423 404
423 419
423 431
423 434
423 435
423 442
423 443
423 444
423 446
423 452
423 465
423 469
423 482
423 484
423 490
423 494
424 371
424 372
424 388
424 397
424 399
424 401
424 428
424 429
424 430
424 431
424 436
424 439
424 454
424 463
424 464
424 478
424 480
424 485
425 359
425 361
425 377
425 378
425 382
425 386
425 391
425 394
425 406
425 412
425 417
425 420
425 421
425 422
425 432
425 440
425 448
425 458
425 459
425 461
425 467
425 475
425 476
425 489
426 360
426 373
426 381
426 383
426 385
426 392
426 402
426 403
426 409
426 410
426 411
426 415
426 416
426 433
426 445
426 451
426 455
426 457
426 462
426 466
426 474
426 477
426 483
426 498
427 363
427 367
427 368
427 378
427 389
427 390
427 393
427 394
427 400
427 406
427 414
427 418
427 421
427 422
427 432
427 434
427 440
427 447
427 450
427 452
427 453
427 459
427 471
427 472
427 473
427 475
427 481
427 493
428 371
428 372
428 374
428 396
428 397
428 399
428 401
428 424
428 430
428 431
428 435
428 436
428 439
428 463
428 464
428 480
428 485
428 486
429 369
429 371
429 387
429 388
429 399
429 424
429 430
429 436
429 454
429 468
429 478
429 480
429 502
430 369
430 371
430 387
430 388
430 399
430 401
430 424
430 428
430 429
430 436
430 454
430 464
430 468
430 478
430 480
430 485
430 502
430 507
431 366
431 372
431 374
431 384
431 396
431 397
431 401
431 423
431 424
431 428
431 435
431 439
431 444
431 446
431 463
431 464
431 465
431 486
431 488
431 490
432 359
432 361
432 377
432 378
432 382
432 386
432 391
432 394
432 406
432 417
432 420
432 421
432 422
432 425
432 427
432 440
432 447
432 448
432 458
432 459
432 467
432 475
432 476
432 481
432 489
433 358
433 364
433 380
433 385
433 392
433 408
433 410
433 412
433 416
433 417
433 426
433 441
433 448
433 451
433 457
433 460
433 461
433 462
433 477
433 479
433 483
433 491
433 497
433 503
434 363
434 375
434 376
434 390
434 393
434 395
434 400
434 404
434 414
434 418
434 419
434 423
434 427
434 442
434 443
434 444
434 450
434 452
434 453
434 469
434 471
434 473
434 482
434 484
434 494
434 496
434 501
435 362
435 366
435 374
435 384
435 396
435 397
435 404
435 423
435 428
435 431
435 439
435 442
435 443
435 444
435 446
435 463
435 465
435 469
435 482
435 486
435 488
435 490
436 369
436 371
436 387
436 388
436 399
436 401
436 424
436 428
436 429
436 430
436 439
436 454
436 463
436 464
436 468
436 478
436 480
436 485
436 507
437 398
437 405
437 407
437 409
437 413
437 438
437 445
437 449
437 456
437 470
437 487
437 492
437 499
437 505
438 365
438 370
438 373
438 398
438 402
438 403
438 405
438 407
438 409
438 411
438 413
438 415
438 437
438 445
438 449
438 455
438 456
438 466
438 470
438 474
438 487
438 492
438 499
438 504
438 505
438 508
439 372
439 374
439 396
439 397
439 399
439 401
439 424
439 428
439 431
439 435
439 436
439 446
439 463
439 464
439 465
439 485
439 486
439 488
440 368
440 378
440 386
440 389
440 391
440 394
440 406
440 414
440 420
440 421
440 422
440 425
440 427
440 432
440 447
440 450
440 458
440 459
440 472
440 473
440 475
440 476
440 481
440 489
440 493
441 379
441 380
441 382
441 392
441 408
441 412
441 416
441 417
441 420
441 433
441 448
441 451
441 457
441 460
441 461
441 467
441 479
441 483
441 491
441 495
441 497
441 503
441 515
442 375
442 384
442 393
442 395
442 404
442 418
442 419
442 423
442 434
442 435
442 443
442 444
442 446
442 452
442 453
442 465
442 469
442 471
442 482
442 484
442 488
442 490
442 494
442 501
442 518
443 375
443 376
443 384
443 393
443 395
443 400
443 404
443 418
443 419
443 423
443 434
443 435
443 442
443 444
443 446
443 450
443 452
443 453
443 469
443 471
443 482
443 484
443 490
443 494
443 496
443 501
443 518
444 384
444 395
444 396
444 404
444 419
444 423
444 431
444 434
444 435
444 442
444 443
444 446
444 452
444 465
444 469
444 482
444 484
444 488
444 490
444 494
444 514
445 370
445 373
445 398
445 402
445 403
445 405
445 407
445 409
445 411
445 413
445 415
445 426
445 437
445 438
445 449
445 455
445 456
445 462
445 466
445 470
445 474
445 487
445 492
445 504
445 505
445 508
445 520
446 384
446 396
446 397
446 404
446 423
446 431
446 435
446 439
446 442
446 443
446 444
446 463
446 465
446 469
446 482
446 486
446 488
446 490
446 494
446 514
447 378
447 389
447 390
447 394
447 400
447 406
447 414
447 418
447 421
447 422
447 427
447 432
447 440
447 450
447 452
447 453
447 459
447 471
447 472
447 473
447 475
447 481
447 489
447 493
447 496
447 521
448 377
448 379
448 382
448 386
448 408
448 412
448 417
448 420
448 425
448 432
448 433
448 441
448 457
448 458
448 459
448 460
448 461
448 467
448 476
448 479
448 491
448 495
448 500
448 503
448 509
448 515
449 398
449 403
449 405
449 407
449 409
449 413
449 415
449 437
449 438
449 445
449 456
449 466
449 470
449 487
449 492
449 499
449 505
449 508
449 517
450 389
450 390
450 393
450 400
450 406
450 414
450 418
450 419
450 421
450 427
450 434
450 440
450 443
450 447
450 452
450 453
450 471
450 472
450 473
450 475
450 481
450 484
450 493
450 496
451 381
451 385
451 392
451 408
451 410
451 411
451 416
451 426
451 433
451 441
451 455
451 457
451 460
451 462
451 474
451 477
451 479
451 483
451 497
451 498
451 503
451 506
451 510
452 376
452 390
452 393
452 395
452 400
452 404
452 414
452 418
452 419
452 423
452 427
452 434
452 442
452 443
452 444
452 447
452 450
452 453
452 469
452 471
452 472
452 473
452 482
452 484
452 494
452 496
452 501
452 524
453 390
453 393
453 395
453 400
453 414
453 418
453 419
453 427
453 434
453 442
453 443
453 447
453 450
453 452
453 471
453 472
453 473
453 482
453 484
453 493
453 496
453 501
453 524
453 526
454 387
454 388
454 424
454 429
454 430
454 436
454 468
454 478
454 480
454 485
454 502
454 507
454 529
455 383
455 402
455 403
455 405
455 409
455 410
455 411
455 415
455 426
455 438
455 445
455 451
455 456
455 462
455 466
455 474
455 477
455 492
455 498
455 504
455 506
455 508
455 512
455 520
455 522
456 398
456 403
456 405
456 407
456 409
456 413
456 415
456 437
456 438
456 445
456 449
456 455
456 466
456 470
456 474
456 487
456 492
456 499
456 504
456 505
456 508
456 517
456 520
456 530
457 380
457 385
457 392
457 408
457 410
457 412
457 416
457 417
457 426
457 433
457 441
457 448
457 451
457 460
457 461
457 467
457 477
457 479
457 483
457 491
457 495
457 497
457 503
457 506
457 510
457 515
458 386
458 391
458 394
458 412
458 417
458 420
458 421
458 422
458 425
458 432
458 440
458 448
458 459
458 461
458 467
458 475
458 476
458 481
458 489
458 495
458 500
458 509
458 513
459 386
459 391
459 394
459 406
459 417
459 420
459 421
459 422
459 425
459 427
459 432
459 440
459 447
459 448
459 458
459 467
459 472
459 475
459 476
459 481
459 489
459 500
459 509
459 513
459 521
459 528
460 408
460 412
460 416
460 417
460 420
460 433
460 441
460 448
460 451
460 457
460 461
460 467
460 479
460 483
460 491
460 495
460 497
460 500
460 503
460 510
460 515
461 408
461 412
461 417
461 420
461 425
461 433
461 441
461 448
461 457
461 458
461 460
461 467
461 476
461 479
461 491
461 495
461 497
461 500
461 503
461 509
461 515
461 531
462 402
462 410
462 411
462 415
462 416
462 426
462 433
462 445
462 451
462 455
462 466
462 474
462 477
462 479
462 483
462 498
462 504
462 506
462 510
462 512
462 522
462 532
462 534
463 397
463 424
463 428
463 431
463 435
463 436
463 439
463 446
463 464
463 465
463 480
463 485
463 486
463 488
463 490
463 511
463 514
463 516
463 519
464 401
464 424
464 428
464 430
464 431
464 436
464 439
464 463
464 465
464 478
464 480
464 485
464 486
464 488
464 507
464 511
464 516
464 519
465 396
465 423
465 431
465 435
465 439
465 442
465 444
465 446
465 463
465 464
465 469
465 482
465 486
465 488
465 490
465 494
465 514
465 516
465 519
465 523
466 402
466 403
466 405
466 409
466 411
466 413
466 415
466 426
466 438
466 445
466 449
466 455
466 456
466 462
466 474
466 477
466 487
466 492
466 498
466 504
466 505
466 508
466 512
466 520
466 530
466 532
466 539
467 412
467 417
467 420
467 425
467 432
467 441
467 448
467 457
467 458
467 459
467 460
467 461
467 476
467 489
467 491
467 495
467 500
467 503
467 509
467 513
467 515
467 531
467 537
468 429
468 430
468 436
468 454
468 478
468 480
468 502
468 507
468 529
468 543
469 404
469 419
469 423
469 434
469 435
469 442
469 443
469 444
469 446
469 452
469 465
469 471
469 482
469 484
469 488
469 490
469 494
469 501
469 514
469 518
469 523
469 525
469 538
470 407
470 413
470 437
470 438
470 445
470 449
470 456
470 487
470 492
470 499
470 505
470 508
470 517
470 530
470 540
471 414
471 418
471 419
471 427
471 434
471 442
471 443
471 447
471 450
471 452
471 453
471 469
471 472
471 473
471 482
471 484
471 493
471 494
471 496
471 501
471 518
471 524
471 525
471 526
471 527
471 545
471 547
472 414
472 418
472 421
472 427
472 440
472 447
472 450
472 452
472 453
472 459
472 471
472 473
472 475
472 481
472 489
472 493
472 496
472 521
472 524
472 526
472 527
472 528
472 536
473 414
473 418
473 421
473 427
473 434
473 440
473 447
473 450
473 452
473 453
473 471
473 472
473 475
473 481
473 484
473 493
473 496
473 501
473 521
473 524
473 525
473 526
473 527
473 536
473 548
474 409
474 411
474 415
474 426
474 438
474 445
474 451
474 455
474 456
474 462
474 466
474 477
474 483
474 492
474 498
474 504
474 506
474 508
474 512
474 520
474 522
474 532
474 549
475 406
475 421
475 422
475 425
475 427
475 432
475 440
475 447
475 450
475 458
475 459
475 472
475 473
475 476
475 481
475 489
475 493
475 509
475 513
475 521
475 528
475 536
475 541
475 544
476 417
476 420
476 422
476 425
476 432
476 440
476 448
476 458
476 459
476 461
476 467
476 475
476 481
476 489
476 495
476 500
476 509
476 513
476 528
476 531
476 537
476 541
477 410
477 411
477 416
477 426
477 433
477 451
477 455
477 457
477 462
477 466
477 474
477 479
477 483
477 497
477 498
477 504
477 506
477 510
477 512
477 522
477 533
477 534
477 550
478 424
478 429
478 430
478 436
478 454
478 464
478 468
478 480
478 485
478 502
478 507
478 511
478 529
478 535
479 408
479 410
479 412
479 416
479 433
479 441
479 448
479 451
479 457
479 460
479 461
479 462
479 477
479 483
479 491
479 495
479 497
479 498
479 503
479 506
479 510
479 515
479 533
479 542
480 424
480 428
480 429
480 430
480 436
480 454
480 463
480 464
480 468
480 478
480 485
480 486
480 502
480 507
480 511
480 516
480 529
480 535
481 414
481 421
481 422
481 427
481 432
481 440
481 447
481 450
481 458
481 459
481 472
481 473
481 475
481 476
481 489
481 493
481 496
481 513
481 521
481 526
481 527
481 528
481 536
481 544
482 419
482 423
482 434
482 435
482 442
482 443
482 444
482 446
482 452
482 453
482 465
482 469
482 471
482 484
482 488
482 490
482 494
482 496
482 501
482 514
482 518
482 523
482 524
482 525
482 538
483 410
483 416
483 426
483 433
483 441
483 451
483 457
483 460
483 462
483 474
483 477
483 479
483 491
483 497
483 498
483 503
483 506
483 510
483 512
483 522
483 533
483 534
483 542
484 418
484 419
484 423
484 434
484 442
484 443
484 444
484 450
484 452
484 453
484 469
484 471
484 473
484 482
484 490
484 494
484 496
484 501
484 518
484 524
484 525
484 526
484 538
484 545
485 424
485 428
485 430
485 436
485 439
485 454
485 463
485 464
485 478
485 480
485 486
485 502
485 507
485 511
485 516
485 519
485 535
486 428
486 431
486 435
486 439
486 446
486 463
486 464
486 465
486 480
486 485
486 488
486 490
486 511
486 514
486 516
486 519
486 523
487 413
487 437
487 438
487 445
487 449
487 456
487 466
487 470
487 492
487 499
487 504
487 505
487 508
487 517
487 520
487 530
487 539
487 540
488 431
488 435
488 439
488 442
488 444
488 446
488 463
488 464
488 465
488 469
488 482
488 486
488 490
488 494
488 514
488 516
488 519
488 523
488 538
489 421
489 422
489 425
489 432
489 440
489 447
489 458
489 459
489 467
489 472
489 475
489 476
489 481
489 493
489 500
489 509
489 513
489 521
489 528
489 536
489 537
489 541
489 544
490 423
490 431
490 435
490 442
490 443
490 444
490 446
490 463
490 465
490 469
490 482
490 484
490 486
490 488
490 494
490 514
490 516
490 518
490 519
490 523
490 538
491 412
491 417
491 433
491 441
491 448
491 457
491 460
491 461
491 467
491 479
491 483
491 495
491 497
491 500
491 503
491 509
491 510
491 515
491 531
491 533
491 542
491 546
492 409
492 413
492 437
492 438
492 445
492 449
492 455
492 456
492 466
492 470
492 474
492 487
492 499
492 504
492 505
492 508
492 512
492 517
492 520
492 530
492 532
492 539
492 540
493 414
493 421
493 427
493 440
493 447
493 450
493 453
493 471
493 472
493 473
493 475
493 481
493 489
493 496
493 501
493 513
493 521
493 524
493 526
493 527
493 528
493 536
493 547
493 548
494 419
494 423
494 434
494 442
494 443
494 444
494 446
494 452
494 465
494 469
494 471
494 482
494 484
494 488
494 490
494 496
494 501
494 514
494 518
494 523
494 524
494 525
494 538
494 545
495 417
495 441
495 448
495 457
495 458
495 460
495 461
495 467
495 476
495 479
495 491
495 497
495 500
495 503
495 509
495 513
495 515
495 531
495 537
495 542
495 546
496 418
496 434
496 443
496 447
496 450
496 452
496 453
496 471
496 472
496 473
496 481
496 482
496 484
496 493
496 494
496 501
496 518
496 521
496 524
496 525
496 526
496 527
496 536
496 545
496 547
496 548
497 433
497 441
497 451
497 457
497 460
497 461
497 477
497 479
497 483
497 491
497 495
497 498
497 503
497 506
497 510
497 515
497 522
497 533
497 534
497 542
497 546
498 426
498 451
498 455
498 462
498 466
498 474
498 477
498 479
498 483
498 497
498 504
498 506
498 510
498 512
498 520
498 522
498 532
498 533
498 534
498 549
498 550
499 437
499 438
499 449
499 456
499 470
499 487
499 492
499 505
499 508
499 517
499 520
499 530
499 539
499 540
500 420
500 448
500 458
500 459
500 460
500 461
500 467
500 476
500 489
500 491
500 495
500 503
500 509
500 513
500 515
500 528
500 531
500 537
500 541
500 544
500 546
501 434
501 442
501 443
501 452
501 453
501 469
501 471
501 473
501 482
501 484
501 493
501 494
501 496
501 518
501 524
501 525
501 526
501 527
501 538
501 545
501 547
501 548
502 429
502 430
502 454
502 468
502 478
502 480
502 485
502 507
502 511
502 529
502 535
502 543
503 433
503 441
503 448
503 451
503 457
503 460
503 461
503 467
503 479
503 483
503 491
503 495
503 497
503 500
503 506
503 510
503 515
503 531
503 533
503 534
503 542
503 546
504 438
504 445
504 455
504 456
504 462
504 466
504 474
504 477
504 487
504 492
504 498
504 505
504 506
504 508
504 512
504 520
504 522
504 530
504 532
504 534
504 539
504 549
504 550
505 437
505 438
505 445
505 449
505 456
505 466
505 470
505 487
505 492
505 499
505 504
505 508
505 517
505 520
505 530
505 539
505 540
506 451
506 455
506 457
506 462
506 474
506 477
506 479
506 483
506 497
506 498
506 503
506 504
506 510
506 512
506 522
506 532
506 533
506 534
506 542
506 549
506 550
507 430
507 436
507 454
507 464
507 468
507 478
507 480
507 485
507 502
507 511
507 516
507 529
507 535
507 543
508 438
508 445
508 449
508 455
508 456
508 466
508 470
508 474
508 487
508 492
508 499
508 504
508 505
508 512
508 517
508 520
508 530
508 532
508 539
508 540
508 549
509 448
509 458
509 459
509 461
509 467
509 475
509 476
509 489
509 491
509 495
509 500
509 513
509 515
509 521
509 528
509 531
509 537
509 541
509 544
510 451
510 457
510 460
510 462
510 477
510 479
510 483
510 491
510 497
510 498
510 503
510 506
510 512
510 515
510 522
510 533
510 534
510 542
510 546
510 550
511 463
511 464
511 478
511 480
511 485
511 486
511 502
511 507
511 516
511 519
511 535
512 455
512 462
512 466
512 474
512 477
512 483
512 492
512 498
512 504
512 506
512 508
512 510
512 520
512 522
512 530
512 532
512 534
512 539
512 549
512 550
513 458
513 459
513 467
513 475
513 476
513 481
513 489
513 493
513 495
513 500
513 509
513 521
513 528
513 531
513 536
513 537
513 541
513 544
514 444
514 446
514 463
514 465
514 469
514 482
514 486
514 488
514 490
514 494
514 516
514 518
514 519
514 523
514 538
515 441
515 448
515 457
515 460
515 461
515 467
515 479
515 491
515 495
515 497
515 500
515 503
515 509
515 510
515 531
515 533
515 537
515 542
515 546
516 463
516 464
516 465
516 480
516 485
516 486
516 488
516 490
516 507
516 511
516 514
516 519
516 523
516 535
517 449
517 456
517 470
517 487
517 492
517 499
517 505
517 508
517 520
517 530
517 539
517 540
518 442
518 443
518 469
518 471
518 482
518 484
518 490
518 494
518 496
518 501
518 514
518 523
518 524
518 525
518 526
518 538
518 545
518 547
519 463
519 464
519 465
519 485
519 486
519 488
519 490
519 511
519 514
519 516
519 523
520 445
520 455
520 456
520 466
520 474
520 487
520 492
520 498
520 499
520 504
520 505
520 508
520 512
520 517
520 522
520 530
520 532
520 539
520 540
520 549
520 550
521 447
521 459
521 472
521 473
521 475
521 481
521 489
521 493
521 496
521 509
521 513
521 526
521 527
521 528
521 536
521 541
521 544
521 548
522 455
522 462
522 474
522 477
522 483
522 497
522 498
522 504
522 506
522 510
522 512
522 520
522 532
522 533
522 534
522 542
522 549
522 550
523 465
523 469
523 482
523 486
523 488
523 490
523 494
523 514
523 516
523 518
523 519
523 525
523 538
524 452
524 453
524 471
524 472
524 473
524 482
524 484
524 493
524 494
524 496
524 501
524 518
524 525
524 526
524 527
524 536
524 538
524 545
524 547
524 548
525 469
525 471
525 473
525 482
525 484
525 494
525 496
525 501
525 518
525 523
525 524
525 526
525 527
525 538
525 545
525 547
525 548
526 453
526 471
526 472
526 473
526 481
526 484
526 493
526 496
526 501
526 518
526 521
526 524
526 525
526 527
526 536
526 545
526 547
526 548
527 471
527 472
527 473
527 481
527 493
527 496
527 501
527 521
527 524
527 525
527 526
527 528
527 536
527 544
527 545
527 547
527 548
528 459
528 472
528 475
528 476
528 481
528 489
528 493
528 500
528 509
528 513
528 521
528 527
528 531
528 536
528 537
528 541
528 544
529 454
529 468
529 478
529 480
529 502
529 507
529 535
529 543
530 456
530 466
530 470
530 487
530 492
530 499
530 504
530 505
530 508
530 512
530 517
530 520
530 532
530 539
530 540
530 549
531 461
531 467
531 476
531 491
531 495
531 500
531 503
531 509
531 513
531 515
531 528
531 537
531 541
531 542
531 544
531 546
532 462
532 466
532 474
532 492
532 498
532 504
532 506
532 508
532 512
532 520
532 522
532 530
532 534
532 539
532 549
532 550
533 477
533 479
533 483
533 491
533 497
533 498
533 503
533 506
533 510
533 515
533 522
533 534
533 542
533 546
533 549
533 550
534 462
534 477
534 483
534 497
534 498
534 503
534 504
534 506
534 510
534 512
534 522
534 532
534 533
534 542
534 549
534 550
535 478
535 480
535 485
535 502
535 507
535 511
535 516
535 529
535 543
536 472
536 473
536 475
536 481
536 489
536 493
536 496
536 513
536 521
536 524
536 526
536 527
536 528
536 541
536 544
536 547
536 548
537 467
537 476
537 489
537 495
537 500
537 509
537 513
537 515
537 528
537 531
537 541
537 544
537 546
538 469
538 482
538 484
538 488
538 490
538 494
538 501
538 514
538 518
538 523
538 524
538 525
538 545
539 466
539 487
539 492
539 499
539 504
539 505
539 508
539 512
539 517
539 520
539 530
539 532
539 540
539 549
540 470
540 487
540 492
540 499
540 505
540 508
540 517
540 520
540 530
540 539
541 475
541 476
541 489
541 500
541 509
541 513
541 521
541 528
541 531
541 536
541 537
541 544
542 479
542 483
542 491
542 495
542 497
542 503
542 506
542 510
542 515
542 522
542 531
542 533
542 534
542 546
542 550
543 468
543 502
543 507
543 529
543 535
544 475
544 481
544 489
544 500
544 509
544 513
544 521
544 527
544 528
544 531
544 536
544 537
544 541
545 471
545 484
545 494
545 496
545 501
545 518
545 524
545 525
545 526
545 527
545 538
545 547
545 548
546 491
546 495
546 497
546 500
546 503
546 510
546 515
546 531
546 533
546 537
546 542
547 471
547 493
547 496
547 501
547 518
547 524
547 525
547 526
547 527
547 536
547 545
547 548
548 473
548 493
548 496
548 501
548 521
548 524
548 525
548 526
548 527
548 536
548 545
548 547
549 474
549 498
549 504
549 506
549 508
549 512
549 520
549 522
549 530
549 532
549 533
549 534
549 539
549 550
550 477
550 498
550 504
550 506
550 510
550 512
550 520
550 522
550 532
550 533
550 534
550 542
550 549
