1 6
1 18
1 19
1 24
1 37
2 7
2 11
2 15
2 20
2 23
2 28
2 45
3 4
3 13
3 16
3 17
3 22
3 38
4 3
4 16
4 17
4 19
4 32
4 43
5 12
5 14
5 21
5 29
5 35
5 39
6 1
6 12
6 18
6 21
6 24
6 33
6 48
7 2
7 11
7 15
7 23
7 28
7 42
7 45
8 25
8 26
8 30
8 34
8 44
8 52
9 10
9 26
9 27
9 31
9 40
10 9
10 27
10 46
10 60
11 2
11 7
11 23
11 28
11 42
11 45
11 47
12 5
12 6
12 18
12 21
12 33
12 39
12 54
12 55
13 3
13 22
13 25
13 30
13 36
13 50
14 5
14 20
14 21
14 29
14 35
14 39
14 41
14 57
14 58
15 2
15 7
15 20
15 23
15 28
15 29
15 41
15 45
15 49
15 59
16 3
16 4
16 17
16 22
16 32
16 38
16 43
16 53
16 56
17 3
17 4
17 16
17 19
17 24
17 32
17 37
17 38
17 43
17 51
17 53
18 1
18 6
18 12
18 24
18 33
18 37
18 48
18 55
18 61
19 1
19 4
19 17
19 24
19 32
19 37
19 43
19 51
19 53
19 68
20 2
20 14
20 15
20 28
20 29
20 35
20 41
20 49
20 57
20 59
20 71
21 5
21 6
21 12
21 14
21 33
21 35
21 39
21 54
21 55
21 58
21 66
22 3
22 13
22 16
22 25
22 36
22 38
22 50
22 56
22 65
23 2
23 7
23 11
23 15
23 28
23 42
23 45
23 47
23 49
23 62
24 1
24 6
24 17
24 18
24 19
24 37
24 43
24 48
24 51
24 61
25 8
25 13
25 22
25 30
25 34
25 36
25 50
25 52
25 69
26 8
26 9
26 30
26 31
26 34
26 40
26 44
26 52
26 63
26 64
27 9
27 10
27 31
27 40
27 46
27 60
28 2
28 7
28 11
28 15
28 20
28 23
28 41
28 42
28 45
28 49
28 59
28 67
29 5
29 14
29 15
29 20
29 35
29 41
29 57
29 58
29 71
30 8
30 13
30 25
30 26
30 34
30 36
30 44
30 52
30 63
30 69
31 9
31 26
31 27
31 34
31 40
31 44
31 64
32 4
32 16
32 17
32 19
32 37
32 38
32 43
32 51
32 53
32 56
32 68
32 74
33 6
33 12
33 18
33 21
33 39
33 48
33 54
33 55
33 61
33 66
33 72
33 81
34 8
34 25
34 26
34 30
34 31
34 40
34 44
34 52
34 63
34 64
35 5
35 14
35 20
35 21
35 29
35 39
35 41
35 54
35 57
35 58
35 66
35 71
35 76
36 13
36 22
36 25
36 30
36 50
36 52
36 65
36 69
36 79
36 89
37 1
37 17
37 18
37 19
37 24
37 32
37 43
37 48
37 51
37 61
37 68
37 80
38 3
38 16
38 17
38 22
38 32
38 50
38 53
38 56
38 65
38 73
38 74
38 85
39 5
39 12
39 14
39 21
39 33
39 35
39 54
39 55
39 58
39 66
39 72
39 81
39 84
40 9
40 26
40 27
40 31
40 34
40 44
40 60
40 64
40 77
40 91
41 14
41 15
41 20
41 28
41 29
41 35
41 49
41 57
41 58
41 59
41 67
41 71
41 75
41 76
42 7
42 11
42 23
42 28
42 45
42 47
42 49
42 59
42 62
42 67
42 82
42 88
43 4
43 16
43 17
43 19
43 24
43 32
43 37
43 51
43 53
43 68
43 87
44 8
44 26
44 30
44 31
44 34
44 40
44 52
44 63
44 64
45 2
45 7
45 11
45 15
45 23
45 28
45 42
45 47
45 49
45 59
45 62
45 67
45 75
45 82
45 93
46 10
46 27
46 60
46 70
46 78
46 92
47 11
47 23
47 42
47 45
47 62
47 88
48 6
48 18
48 24
48 33
48 37
48 51
48 55
48 61
48 72
48 80
48 83
49 15
49 20
49 23
49 28
49 41
49 42
49 45
49 59
49 67
49 71
49 75
49 82
49 93
50 13
50 22
50 25
50 36
50 38
50 52
50 56
50 65
50 69
50 73
50 79
50 85
50 89
51 17
51 19
51 24
51 32
51 37
51 43
51 48
51 53
51 61
51 68
51 80
51 96
51 98
52 8
52 25
52 26
52 30
52 34
52 36
52 44
52 50
52 63
52 64
52 69
52 86
52 89
53 16
53 17
53 19
53 32
53 38
53 43
53 51
53 56
53 68
53 73
53 74
53 87
53 96
54 12
54 21
54 33
54 35
54 39
54 55
54 57
54 58
54 66
54 72
54 76
54 81
54 84
55 12
55 18
55 21
55 33
55 39
55 48
55 54
55 61
55 66
55 72
55 81
55 83
55 84
56 16
56 22
56 32
56 38
56 50
56 53
56 65
56 73
56 74
56 79
56 85
56 87
56 100
57 14
57 20
57 29
57 35
57 41
57 54
57 58
57 71
57 76
57 84
57 94
57 95
58 14
58 21
58 29
58 35
58 39
58 41
58 54
58 57
58 66
58 71
58 76
58 81
58 84
58 94
58 95
58 110
59 15
59 20
59 28
59 41
59 42
59 45
59 49
59 67
59 71
59 75
59 82
59 93
59 94
59 102
60 10
60 27
60 40
60 46
60 70
60 77
60 78
60 90
60 92
60 107
61 18
61 24
61 33
61 37
61 48
61 51
61 55
61 68
61 72
61 80
61 83
61 97
61 98
61 106
62 23
62 42
62 45
62 47
62 67
62 82
62 88
62 99
62 111
63 26
63 30
63 34
63 44
63 52
63 64
63 69
63 86
63 89
63 101
63 103
64 26
64 31
64 34
64 40
64 44
64 52
64 63
64 77
64 86
64 91
64 101
64 105
65 22
65 36
65 38
65 50
65 56
65 69
65 73
65 74
65 79
65 85
65 89
65 100
65 104
66 21
66 33
66 35
66 39
66 54
66 55
66 58
66 72
66 81
66 83
66 84
66 109
67 28
67 41
67 42
67 45
67 49
67 59
67 62
67 71
67 75
67 82
67 88
67 93
67 99
67 102
67 113
67 114
68 19
68 32
68 37
68 43
68 51
68 53
68 61
68 74
68 80
68 87
68 96
68 98
68 106
69 25
69 30
69 36
69 50
69 52
69 63
69 65
69 79
69 86
69 89
69 100
69 103
69 104
70 46
70 60
70 78
70 90
70 92
70 107
71 20
71 29
71 35
71 41
71 49
71 57
71 58
71 59
71 67
71 75
71 76
71 94
71 95
71 102
71 110
72 33
72 39
72 48
72 54
72 55
72 61
72 66
72 81
72 83
72 84
72 97
72 116
73 38
73 50
73 53
73 56
73 65
73 74
73 79
73 85
73 87
73 100
73 104
73 108
73 121
74 32
74 38
74 53
74 56
74 65
74 68
74 73
74 79
74 85
74 87
74 96
74 108
74 119
75 41
75 45
75 49
75 59
75 67
75 71
75 82
75 93
75 94
75 102
75 114
76 35
76 41
76 54
76 57
76 58
76 71
76 84
76 94
76 95
76 102
76 109
76 110
76 123
77 40
77 60
77 64
77 90
77 91
77 92
77 101
77 105
77 107
77 112
77 117
78 46
78 60
78 70
78 90
78 92
78 107
78 130
79 36
79 50
79 56
79 65
79 69
79 73
79 74
79 85
79 89
79 100
79 103
79 104
79 108
79 121
80 37
80 48
80 51
80 61
80 68
80 83
80 96
80 97
80 98
80 106
80 115
80 124
81 33
81 39
81 54
81 55
81 58
81 66
81 72
81 83
81 84
81 97
81 109
81 116
81 120
82 42
82 45
82 49
82 59
82 62
82 67
82 75
82 88
82 93
82 99
82 102
82 113
82 114
82 126
83 48
83 55
83 61
83 66
83 72
83 80
83 81
83 97
83 106
83 116
83 118
83 133
84 39
84 54
84 55
84 57
84 58
84 66
84 72
84 76
84 81
84 95
84 109
84 110
84 120
85 38
85 50
85 56
85 65
85 73
85 74
85 79
85 87
85 89
85 100
85 104
85 108
85 121
86 52
86 63
86 64
86 69
86 89
86 101
86 103
86 104
86 122
86 125
87 43
87 53
87 56
87 68
87 73
87 74
87 85
87 96
87 98
87 108
87 119
87 128
88 42
88 47
88 62
88 67
88 82
88 93
88 99
88 111
88 113
88 126
89 36
89 50
89 52
89 63
89 65
89 69
89 79
89 85
89 86
89 100
89 103
89 104
89 125
90 60
90 70
90 77
90 78
90 91
90 92
90 105
90 107
90 112
90 117
90 129
91 40
91 64
91 77
91 90
91 101
91 105
91 107
91 112
91 117
91 127
91 135
92 46
92 60
92 70
92 77
92 78
92 90
92 107
92 117
92 129
92 130
93 45
93 49
93 59
93 67
93 75
93 82
93 88
93 94
93 99
93 102
93 113
93 114
93 132
93 137
94 57
94 58
94 59
94 71
94 75
94 76
94 93
94 95
94 102
94 110
94 114
94 123
94 131
94 136
95 57
95 58
95 71
95 76
95 84
95 94
95 109
95 110
95 120
95 123
95 131
96 51
96 53
96 68
96 74
96 80
96 87
96 98
96 106
96 108
96 115
96 119
96 128
96 138
96 140
97 61
97 72
97 80
97 81
97 83
97 98
97 106
97 115
97 116
97 118
97 124
97 133
97 139
98 51
98 61
98 68
98 80
98 87
98 96
98 97
98 106
98 115
98 119
98 124
98 138
98 140
99 62
99 67
99 82
99 88
99 93
99 111
99 113
99 126
99 137
100 56
100 65
100 69
100 73
100 79
100 85
100 89
100 103
100 104
100 108
100 121
101 63
101 64
101 77
101 86
101 91
101 105
101 112
101 122
101 127
101 134
101 135
101 151
102 59
102 67
102 71
102 75
102 76
102 82
102 93
102 94
102 113
102 114
102 123
102 132
102 136
102 137
102 144
103 63
103 69
103 79
103 86
103 89
103 100
103 104
103 122
103 125
103 147
103 149
104 65
104 69
104 73
104 79
104 85
104 86
104 89
104 100
104 103
104 121
104 125
104 149
105 64
105 77
105 90
105 91
105 101
105 107
105 112
105 117
105 122
105 127
105 134
105 135
105 151
106 61
106 68
106 80
106 83
106 96
106 97
106 98
106 115
106 118
106 124
106 139
106 140
107 60
107 70
107 77
107 78
107 90
107 91
107 92
107 105
107 112
107 117
107 129
107 130
107 135
107 141
107 145
108 73
108 74
108 79
108 85
108 87
108 96
108 100
108 119
108 121
108 128
108 138
108 143
109 66
109 76
109 81
109 84
109 95
109 110
109 116
109 120
109 123
109 131
109 142
109 150
110 58
110 71
110 76
110 84
110 94
110 95
110 109
110 120
110 123
110 131
110 136
110 142
110 150
110 159
111 62
111 88
111 99
111 113
111 126
111 146
112 77
112 90
112 91
112 101
112 105
112 107
112 117
112 127
112 129
112 134
112 135
112 141
112 154
113 67
113 82
113 88
113 93
113 99
113 102
113 111
113 114
113 126
113 132
113 137
113 146
113 152
113 156
114 67
114 75
114 82
114 93
114 94
114 102
114 113
114 123
114 132
114 136
114 137
114 144
114 152
115 80
115 96
115 97
115 98
115 106
115 118
115 119
115 124
115 138
115 139
115 140
115 157
115 158
115 164
116 72
116 81
116 83
116 97
116 109
116 118
116 120
116 124
116 133
116 139
116 142
116 148
116 169
117 77
117 90
117 91
117 92
117 105
117 107
117 112
117 127
117 129
117 130
117 135
117 141
117 145
117 154
117 160
118 83
118 97
118 106
118 115
118 116
118 124
118 133
118 139
118 148
118 158
119 74
119 87
119 96
119 98
119 108
119 115
119 121
119 128
119 138
119 140
119 143
119 157
119 171
120 81
120 84
120 95
120 109
120 110
120 116
120 131
120 133
120 142
120 148
120 150
120 166
121 73
121 79
121 85
121 100
121 104
121 108
121 119
121 128
121 155
122 86
122 101
122 103
122 105
122 125
122 127
122 134
122 147
122 151
122 153
122 161
122 162
123 76
123 94
123 95
123 102
123 109
123 110
123 114
123 131
123 132
123 136
123 144
123 150
123 159
123 172
124 80
124 97
124 98
124 106
124 115
124 116
124 118
124 133
124 139
124 140
124 158
124 164
125 86
125 89
125 103
125 104
125 122
125 134
125 147
125 149
125 153
125 161
125 162
125 176
126 82
126 88
126 99
126 111
126 113
126 132
126 137
126 146
126 152
126 156
126 165
126 173
127 91
127 101
127 105
127 112
127 117
127 122
127 134
127 135
127 141
127 151
127 153
127 154
127 161
127 168
128 87
128 96
128 108
128 119
128 121
128 138
128 143
128 157
128 171
128 174
129 90
129 92
129 107
129 112
129 117
129 130
129 135
129 141
129 145
129 154
129 160
129 167
129 175
130 78
130 92
130 107
130 117
130 129
130 141
130 145
130 167
131 94
131 95
131 109
131 110
131 120
131 123
131 136
131 142
131 144
131 150
131 159
131 166
131 180
132 93
132 102
132 113
132 114
132 123
132 126
132 136
132 137
132 144
132 152
132 156
132 163
132 177
133 83
133 97
133 116
133 118
133 120
133 124
133 139
133 142
133 148
133 158
133 169
134 101
134 105
134 112
134 122
134 125
134 127
134 135
134 147
134 151
134 153
134 154
134 161
134 162
134 168
134 184
135 91
135 101
135 105
135 107
135 112
135 117
135 127
135 129
135 134
135 141
135 145
135 151
135 154
135 160
135 168
136 94
136 102
136 110
136 114
136 123
136 131
136 132
136 137
136 144
136 150
136 152
136 159
136 163
136 172
137 93
137 99
137 102
137 113
137 114
137 126
137 132
137 136
137 144
137 146
137 152
137 156
137 163
137 165
137 173
137 177
138 96
138 98
138 108
138 115
138 119
138 128
138 140
138 143
138 157
138 164
138 171
138 181
139 97
139 106
139 115
139 116
139 118
139 124
139 133
139 148
139 158
139 164
139 169
139 178
139 188
140 96
140 98
140 106
140 115
140 119
140 124
140 138
140 143
140 157
140 158
140 164
140 171
140 178
140 181
140 193
141 107
141 112
141 117
141 127
141 129
141 130
141 135
141 145
141 154
141 160
141 167
141 168
141 175
141 189
142 109
142 110
142 116
142 120
142 131
142 133
142 148
142 150
142 159
142 166
142 169
142 180
142 182
142 192
143 108
143 119
143 128
143 138
143 140
143 157
143 164
143 171
143 174
143 181
143 190
144 102
144 114
144 123
144 131
144 132
144 136
144 137
144 150
144 152
144 159
144 163
144 172
144 177
144 194
145 107
145 117
145 129
145 130
145 135
145 141
145 154
145 160
145 167
145 175
145 189
146 111
146 113
146 126
146 137
146 156
146 165
146 173
146 179
146 186
146 187
147 103
147 122
147 125
147 134
147 149
147 153
147 155
147 161
147 162
147 170
147 176
147 184
147 197
148 116
148 118
148 120
148 133
148 139
148 142
148 158
148 166
148 169
148 182
148 188
148 192
148 199
149 103
149 104
149 125
149 147
149 153
149 155
149 162
149 170
149 176
149 183
149 197
150 109
150 110
150 120
150 123
150 131
150 136
150 142
150 144
150 159
150 166
150 172
150 180
150 191
151 101
151 105
151 122
151 127
151 134
151 135
151 153
151 154
151 161
151 168
151 176
151 184
151 185
152 113
152 114
152 126
152 132
152 136
152 137
152 144
152 156
152 163
152 172
152 173
152 177
152 186
152 194
152 198
153 122
153 125
153 127
153 134
153 147
153 149
153 151
153 161
153 162
153 168
153 170
153 176
153 184
153 197
153 202
153 203
154 112
154 117
154 127
154 129
154 134
154 135
154 141
154 145
154 151
154 160
154 168
154 175
154 185
154 200
155 121
155 147
155 149
155 162
155 170
155 174
155 183
155 196
155 197
155 205
156 113
156 126
156 132
156 137
156 146
156 152
156 165
156 173
156 177
156 179
156 186
156 187
156 198
156 204
157 115
157 119
157 128
157 138
157 140
157 143
157 158
157 164
157 171
157 181
157 193
158 115
158 118
158 124
158 133
158 139
158 140
158 148
158 157
158 164
158 169
158 178
158 188
158 193
158 195
158 208
159 110
159 123
159 131
159 136
159 142
159 144
159 150
159 163
159 166
159 172
159 180
159 191
160 117
160 129
160 135
160 141
160 145
160 154
160 167
160 168
160 175
160 185
160 189
160 200
161 122
161 125
161 127
161 134
161 147
161 151
161 153
161 162
161 168
161 176
161 184
161 185
161 202
161 203
161 207
162 122
162 125
162 134
162 147
162 149
162 153
162 155
162 161
162 170
162 176
162 184
162 197
162 202
162 203
163 132
163 136
163 137
163 144
163 152
163 159
163 172
163 173
163 177
163 194
163 198
163 206
163 209
164 115
164 124
164 138
164 139
164 140
164 143
164 157
164 158
164 171
164 178
164 181
164 188
164 193
164 195
165 126
165 137
165 146
165 156
165 173
165 179
165 186
165 187
165 198
165 204
166 120
166 131
166 142
166 148
166 150
166 159
166 169
166 180
166 182
166 191
166 192
166 199
166 201
166 211
166 215
167 129
167 130
167 141
167 145
167 160
167 175
167 189
168 127
168 134
168 135
168 141
168 151
168 153
168 154
168 160
168 161
168 184
168 185
168 200
168 203
168 207
168 212
169 116
169 133
169 139
169 142
169 148
169 158
169 166
169 178
169 182
169 188
169 192
169 195
169 199
169 201
169 208
169 215
170 147
170 149
170 153
170 155
170 162
170 176
170 183
170 196
170 197
170 202
170 205
170 223
171 119
171 128
171 138
171 140
171 143
171 157
171 164
171 174
171 181
171 190
171 193
171 210
172 123
172 136
172 144
172 150
172 152
172 159
172 163
172 177
172 180
172 191
172 194
172 206
172 214
173 126
173 137
173 146
173 152
173 156
173 163
173 165
173 177
173 179
173 186
173 187
173 194
173 198
173 204
173 209
173 220
173 227
174 128
174 143
174 155
174 171
174 183
174 190
174 196
174 205
174 210
174 213
174 218
174 219
175 129
175 141
175 145
175 154
175 160
175 167
175 189
175 200
175 224
175 230
176 125
176 147
176 149
176 151
176 153
176 161
176 162
176 170
176 184
176 197
176 202
176 203
176 207
176 216
177 132
177 137
177 144
177 152
177 156
177 163
177 172
177 173
177 186
177 194
177 198
177 206
177 209
177 233
178 139
178 140
178 158
178 164
178 169
178 188
178 193
178 195
178 199
178 208
178 221
179 146
179 156
179 165
179 173
179 186
179 187
179 204
179 220
179 226
180 131
180 142
180 150
180 159
180 166
180 172
180 182
180 191
180 192
180 201
180 211
180 214
180 222
181 138
181 140
181 143
181 157
181 164
181 171
181 190
181 193
181 210
181 217
181 229
182 142
182 148
182 166
182 169
182 180
182 188
182 192
182 199
182 201
182 208
182 215
182 231
183 149
183 155
183 170
183 174
183 190
183 196
183 197
183 205
183 213
183 218
184 134
184 147
184 151
184 153
184 161
184 162
184 168
184 176
184 185
184 202
184 203
184 207
184 212
184 216
184 232
185 151
185 154
185 160
185 161
185 168
185 184
185 200
185 203
185 207
185 212
185 225
185 232
186 146
186 152
186 156
186 165
186 173
186 177
186 179
186 187
186 198
186 204
186 209
186 220
186 226
186 227
187 146
187 156
187 165
187 173
187 179
187 186
187 198
187 204
187 220
187 226
188 139
188 148
188 158
188 164
188 169
188 178
188 182
188 192
188 195
188 199
188 208
188 215
188 221
189 141
189 145
189 160
189 167
189 175
189 200
189 224
189 230
190 143
190 171
190 174
190 181
190 183
190 196
190 210
190 213
190 218
190 219
190 229
190 239
191 150
191 159
191 166
191 172
191 180
191 194
191 201
191 206
191 211
191 214
191 222
191 228
191 238
192 142
192 148
192 166
192 169
192 180
192 182
192 188
192 199
192 201
192 208
192 211
192 215
192 222
192 231
192 240
193 140
193 157
193 158
193 164
193 171
193 178
193 181
193 195
193 210
193 217
193 229
193 235
194 144
194 152
194 163
194 172
194 173
194 177
194 191
194 198
194 206
194 209
194 214
194 228
194 233
194 234
195 158
195 164
195 169
195 178
195 188
195 193
195 199
195 208
195 217
195 221
195 235
195 248
196 155
196 170
196 174
196 183
196 190
196 197
196 205
196 213
196 218
196 223
196 237
196 239
197 147
197 149
197 153
197 155
197 162
197 170
197 176
197 183
197 196
197 202
197 203
197 205
197 216
197 223
197 237
197 241
198 152
198 156
198 163
198 165
198 173
198 177
198 186
198 187
198 194
198 204
198 206
198 209
198 220
198 227
198 233
198 242
198 245
199 148
199 166
199 169
199 178
199 182
199 188
199 192
199 195
199 201
199 208
199 215
199 221
199 231
199 240
200 154
200 160
200 168
200 175
200 185
200 189
200 212
200 224
200 225
200 230
200 236
200 251
201 166
201 169
201 180
201 182
201 191
201 192
201 199
201 211
201 214
201 215
201 222
201 231
201 238
201 240
201 250
202 153
202 161
202 162
202 170
202 176
202 184
202 197
202 203
202 207
202 216
202 223
202 232
202 241
202 252
203 153
203 161
203 162
203 168
203 176
203 184
203 185
203 197
203 202
203 207
203 212
203 216
203 225
203 232
203 243
203 252
203 253
204 156
204 165
204 173
204 179
204 186
204 187
204 198
204 209
204 220
204 226
204 227
204 242
204 245
205 155
205 170
205 174
205 183
205 196
205 197
205 213
205 218
205 223
205 237
205 239
205 241
205 249
205 257
206 163
206 172
206 177
206 191
206 194
206 198
206 209
206 211
206 214
206 228
206 233
206 234
206 238
206 247
207 161
207 168
207 176
207 184
207 185
207 202
207 203
207 212
207 216
207 225
207 232
207 243
207 252
207 253
207 256
208 158
208 169
208 178
208 182
208 188
208 192
208 195
208 199
208 215
208 221
208 235
208 240
208 248
208 260
208 261
209 163
209 173
209 177
209 186
209 194
209 198
209 204
209 206
209 220
209 227
209 228
209 233
209 234
209 242
210 171
210 174
210 181
210 190
210 193
210 213
210 217
210 218
210 219
210 229
210 239
210 244
210 254
211 166
211 180
211 191
211 192
211 201
211 206
211 214
211 215
211 222
211 228
211 231
211 238
211 247
211 250
212 168
212 184
212 185
212 200
212 203
212 207
212 224
212 225
212 232
212 236
212 243
212 251
212 253
212 256
213 174
213 183
213 190
213 196
213 205
213 210
213 218
213 219
213 223
213 237
213 239
213 249
213 254
213 255
214 172
214 180
214 191
214 194
214 201
214 206
214 211
214 222
214 228
214 231
214 234
214 238
214 247
214 267
215 166
215 169
215 182
215 188
215 192
215 199
215 201
215 208
215 211
215 221
215 222
215 231
215 240
215 250
215 261
216 176
216 184
216 197
216 202
216 203
216 207
216 223
216 232
216 241
216 243
216 252
216 253
216 265
217 181
217 193
217 195
217 210
217 219
217 229
217 235
217 244
217 248
217 258
217 275
218 174
218 183
218 190
218 196
218 205
218 210
218 213
218 219
218 229
218 237
218 239
218 244
218 249
218 254
218 255
218 277
219 174
219 190
219 210
219 213
219 217
219 218
219 229
219 239
219 244
219 249
219 254
219 255
220 173
220 179
220 186
220 187
220 198
220 204
220 209
220 226
220 227
220 242
220 245
220 259
220 262
221 178
221 188
221 195
221 199
221 208
221 215
221 235
221 240
221 248
221 260
221 261
222 180
222 191
222 192
222 201
222 211
222 214
222 215
222 228
222 231
222 238
222 240
222 247
222 250
222 264
222 267
222 276
223 170
223 196
223 197
223 202
223 205
223 213
223 216
223 237
223 241
223 249
223 252
223 257
223 270
224 175
224 189
224 200
224 212
224 225
224 230
224 236
224 246
224 251
224 271
224 273
225 185
225 200
225 203
225 207
225 212
225 224
225 230
225 232
225 236
225 243
225 251
225 253
225 256
225 268
225 273
226 179
226 186
226 187
226 204
226 220
226 227
226 245
226 259
227 173
227 186
227 198
227 204
227 209
227 220
227 226
227 233
227 234
227 242
227 245
227 259
227 262
227 266
228 191
228 194
228 206
228 209
228 211
228 214
228 222
228 233
228 234
228 238
228 247
228 263
228 267
228 272
228 279
229 181
229 190
229 193
229 210
229 217
229 218
229 219
229 235
229 239
229 244
229 254
229 258
229 275
230 175
230 189
230 200
230 224
230 225
230 236
230 246
230 251
230 271
230 273
231 182
231 192
231 199
231 201
231 211
231 214
231 215
231 222
231 238
231 240
231 250
231 264
231 280
232 184
232 185
232 202
232 203
232 207
232 212
232 216
232 225
232 236
232 243
232 252
232 253
232 256
232 265
232 268
232 274
233 177
233 194
233 198
233 206
233 209
233 227
233 228
233 234
233 242
233 245
233 247
233 262
233 263
233 266
233 272
234 194
234 206
234 209
234 214
234 227
234 228
234 233
234 238
234 242
234 247
234 263
234 266
234 272
235 193
235 195
235 208
235 217
235 221
235 229
235 244
235 248
235 258
235 260
235 269
235 275
236 200
236 212
236 224
236 225
236 230
236 232
236 243
236 246
236 251
236 256
236 268
236 271
236 273
237 196
237 197
237 205
237 213
237 218
237 223
237 239
237 241
237 249
237 255
237 257
237 270
237 278
237 289
238 191
238 201
238 206
238 211
238 214
238 222
238 228
238 231
238 234
238 247
238 250
238 264
238 267
238 272
238 276
238 279
239 190
239 196
239 205
239 210
239 213
239 218
239 219
239 229
239 237
239 244
239 249
239 254
239 255
239 277
239 278
240 192
240 199
240 201
240 208
240 215
240 221
240 222
240 231
240 250
240 260
240 261
240 264
240 280
240 286
241 197
241 202
241 205
241 216
241 223
241 237
241 249
241 252
241 257
241 265
241 270
241 282
242 198
242 204
242 209
242 220
242 227
242 233
242 234
242 245
242 259
242 262
242 263
242 266
242 281
242 285
242 295
242 297
243 203
243 207
243 212
243 216
243 225
243 232
243 236
243 251
243 252
243 253
243 256
243 265
243 268
243 274
243 292
244 210
244 217
244 218
244 219
244 229
244 235
244 239
244 254
244 255
244 258
244 275
244 277
244 283
244 287
244 296
245 198
245 204
245 220
245 226
245 227
245 233
245 242
245 259
245 262
245 266
245 281
245 284
245 295
246 224
246 230
246 236
246 251
246 271
246 273
246 293
247 206
247 211
247 214
247 222
247 228
247 233
247 234
247 238
247 263
247 264
247 266
247 267
247 272
247 276
247 279
247 290
247 302
248 195
248 208
248 217
248 221
248 235
248 258
248 260
248 261
248 269
248 283
248 288
248 291
248 303
249 205
249 213
249 218
249 219
249 223
249 237
249 239
249 241
249 254
249 255
249 257
249 270
249 277
249 278
249 289
249 306
250 201
250 211
250 215
250 222
250 231
250 238
250 240
250 261
250 264
250 267
250 276
250 280
250 286
250 298
251 200
251 212
251 224
251 225
251 230
251 236
251 243
251 246
251 256
251 268
251 271
251 273
251 293
251 304
252 202
252 203
252 207
252 216
252 223
252 232
252 241
252 243
252 253
252 256
252 257
252 265
252 270
252 274
252 282
252 294
253 203
253 207
253 212
253 216
253 225
253 232
253 243
253 252
253 256
253 265
253 268
253 274
253 292
253 294
253 309
254 210
254 213
254 218
254 219
254 229
254 239
254 244
254 249
254 255
254 258
254 275
254 277
254 278
254 287
254 296
254 299
255 213
255 218
255 219
255 237
255 239
255 244
255 249
255 254
255 257
255 277
255 278
255 287
255 289
255 296
255 306
256 207
256 212
256 225
256 232
256 236
256 243
256 251
256 252
256 253
256 265
256 268
256 273
256 274
256 292
257 205
257 223
257 237
257 241
257 249
257 252
257 255
257 265
257 270
257 278
257 282
257 289
257 301
257 308
258 217
258 229
258 235
258 244
258 248
258 254
258 260
258 269
258 275
258 283
258 287
258 288
258 299
258 305
259 220
259 226
259 227
259 242
259 245
259 262
259 281
259 284
259 295
260 208
260 221
260 235
260 240
260 248
260 258
260 261
260 269
260 280
260 286
260 288
260 291
260 300
260 303
261 208
261 215
261 221
261 240
261 248
261 250
261 260
261 269
261 280
261 286
261 291
261 300
261 303
261 311
262 220
262 227
262 233
262 242
262 245
262 259
262 266
262 281
262 284
262 285
262 295
262 297
262 313
263 228
263 233
263 234
263 242
263 247
263 266
263 267
263 272
263 276
263 279
263 285
263 290
263 297
263 302
263 307
264 222
264 231
264 238
264 240
264 247
264 250
264 267
264 276
264 279
264 280
264 286
264 298
264 302
264 316
265 216
265 232
265 241
265 243
265 252
265 253
265 256
265 257
265 270
265 274
265 282
265 292
265 294
265 308
265 309
265 319
266 227
266 233
266 234
266 242
266 245
266 247
266 262
266 263
266 272
266 281
266 285
266 290
266 295
266 297
266 307
266 313
267 214
267 222
267 228
267 238
267 247
267 250
267 263
267 264
267 272
267 276
267 279
267 290
267 298
267 302
267 307
267 316
268 225
268 232
268 236
268 243
268 251
268 253
268 256
268 271
268 273
268 274
268 292
268 293
268 304
268 314
269 235
269 248
269 258
269 260
269 261
269 275
269 283
269 288
269 291
269 299
269 303
269 305
269 329
270 223
270 237
270 241
270 249
270 252
270 257
270 265
270 278
270 282
270 289
270 294
270 301
270 308
270 317
271 224
271 230
271 236
271 246
271 251
271 268
271 273
271 293
271 304
271 310
271 328
272 228
272 233
272 234
272 238
272 247
272 263
272 266
272 267
272 276
272 279
272 285
272 290
272 297
272 302
272 307
272 327
273 224
273 225
273 230
273 236
273 246
273 251
273 256
273 268
273 271
273 292
273 293
273 304
273 310
273 314
273 325
274 232
274 243
274 252
274 253
274 256
274 265
274 268
274 282
274 292
274 294
274 309
274 319
274 331
275 217
275 229
275 235
275 244
275 254
275 258
275 269
275 277
275 283
275 287
275 288
275 296
275 299
275 305
275 312
275 322
275 326
276 222
276 238
276 247
276 250
276 263
276 264
276 267
276 272
276 279
276 280
276 298
276 302
276 307
276 316
276 327
277 218
277 239
277 244
277 249
277 254
277 255
277 275
277 278
277 287
277 289
277 296
277 306
277 312
277 315
277 318
277 323
278 237
278 239
278 249
278 254
278 255
278 257
278 270
278 277
278 289
278 296
278 301
278 306
278 315
278 317
278 318
278 333
279 228
279 238
279 247
279 263
279 264
279 267
279 272
279 276
279 285
279 290
279 298
279 302
279 307
279 316
279 327
280 231
280 240
280 250
280 260
280 261
280 264
280 276
280 286
280 291
280 298
280 300
280 311
280 316
280 320
281 242
281 245
281 259
281 262
281 266
281 284
281 285
281 295
281 297
281 313
281 321
281 324
282 241
282 252
282 257
282 265
282 270
282 274
282 289
282 294
282 301
282 308
282 309
282 317
282 319
282 334
283 244
283 248
283 258
283 269
283 275
283 287
283 288
283 299
283 303
283 305
283 312
283 322
283 326
283 329
283 340
284 245
284 259
284 262
284 281
284 295
284 321
284 324
285 242
285 262
285 263
285 266
285 272
285 279
285 281
285 290
285 295
285 297
285 302
285 307
285 313
285 330
285 345
286 240
286 250
286 260
286 261
286 264
286 280
286 291
286 298
286 300
286 303
286 311
286 320
286 332
286 342
287 244
287 254
287 255
287 258
287 275
287 277
287 283
287 296
287 299
287 312
287 315
287 322
287 323
287 326
287 335
287 338
288 248
288 258
288 260
288 269
288 275
288 283
288 291
288 299
288 300
288 303
288 305
288 322
288 329
288 340
288 341
289 237
289 249
289 255
289 257
289 270
289 277
289 278
289 282
289 301
289 306
289 308
289 315
289 317
289 318
289 333
289 343
290 247
290 263
290 266
290 267
290 272
290 279
290 285
290 297
290 302
290 307
290 313
290 327
290 330
291 248
291 260
291 261
291 269
291 280
291 286
291 288
291 300
291 303
291 305
291 311
291 329
291 332
291 341
292 243
292 253
292 256
292 265
292 268
292 273
292 274
292 293
292 304
292 309
292 314
292 319
292 325
292 331
292 339
292 344
293 246
293 251
293 268
293 271
293 273
293 292
293 304
293 310
293 314
293 325
293 328
293 336
293 339
293 347
294 252
294 253
294 265
294 270
294 274
294 282
294 301
294 308
294 309
294 317
294 319
294 331
294 334
294 337
295 242
295 245
295 259
295 262
295 266
295 281
295 284
295 285
295 297
295 313
295 321
295 324
295 330
295 345
296 244
296 254
296 255
296 275
296 277
296 278
296 287
296 299
296 306
296 312
296 315
296 318
296 323
296 326
296 335
296 338
297 242
297 262
297 263
297 266
297 272
297 281
297 285
297 290
297 295
297 307
297 313
297 321
297 324
297 330
297 345
298 250
298 264
298 267
298 276
298 279
298 280
298 286
298 302
298 311
298 316
298 320
298 327
298 353
299 254
299 258
299 269
299 275
299 283
299 287
299 288
299 296
299 305
299 312
299 322
299 323
299 326
299 329
299 335
299 340
299 355
299 356
300 260
300 261
300 280
300 286
300 288
300 291
300 303
300 311
300 320
300 329
300 332
300 341
300 342
300 354
301 257
301 270
301 278
301 282
301 289
301 294
301 306
301 308
301 315
301 317
301 318
301 333
301 334
301 343
301 348
302 247
302 263
302 264
302 267
302 272
302 276
302 279
302 285
302 290
302 298
302 307
302 316
302 327
302 350
302 357
303 248
303 260
303 261
303 269
303 283
303 286
303 288
303 291
303 300
303 305
303 311
303 322
303 329
303 332
303 340
303 341
303 351
303 354
304 251
304 268
304 271
304 273
304 292
304 293
304 310
304 314
304 325
304 336
304 339
304 344
304 347
305 258
305 269
305 275
305 283
305 288
305 291
305 299
305 303
305 312
305 322
305 326
305 329
305 340
305 341
305 351
305 355
306 249
306 255
306 277
306 278
306 289
306 296
306 301
306 308
306 315
306 317
306 318
306 323
306 333
306 338
306 343
306 360
307 263
307 266
307 267
307 272
307 276
307 279
307 285
307 290
307 297
307 302
307 313
307 316
307 327
307 330
307 350
307 362
308 257
308 265
308 270
308 282
308 289
308 294
308 301
308 306
308 317
308 318
308 319
308 333
308 334
308 337
308 348
308 361
309 253
309 265
309 274
309 282
309 292
309 294
309 314
309 319
309 331
309 334
309 337
309 344
309 352
310 271
310 273
310 293
310 304
310 314
310 325
310 328
310 336
310 339
310 347
310 359
310 363
311 261
311 280
311 286
311 291
311 298
311 300
311 303
311 320
311 332
311 341
311 342
311 353
311 354
312 275
312 277
312 283
312 287
312 296
312 299
312 305
312 315
312 322
312 323
312 326
312 335
312 338
312 355
312 356
312 364
313 262
313 266
313 281
313 285
313 290
313 295
313 297
313 307
313 321
313 324
313 330
313 345
313 350
313 358
313 362
314 268
314 273
314 292
314 293
314 304
314 309
314 310
314 325
314 331
314 339
314 344
314 347
314 352
314 371
314 374
315 277
315 278
315 287
315 289
315 296
315 301
315 306
315 312
315 317
315 318
315 323
315 326
315 333
315 335
315 338
315 343
315 356
315 360
315 364
316 264
316 267
316 276
316 279
316 280
316 298
316 302
316 307
316 320
316 327
316 353
316 357
316 375
317 270
317 278
317 282
317 289
317 294
317 301
317 306
317 308
317 315
317 318
317 319
317 333
317 334
317 343
317 348
317 360
317 361
317 365
317 377
318 277
318 278
318 289
318 296
318 301
318 306
318 308
318 315
318 317
318 323
318 333
318 338
318 343
318 348
318 360
318 365
319 265
319 274
319 282
319 292
319 294
319 308
319 309
319 317
319 331
319 334
319 337
319 344
319 348
319 352
319 361
319 370
319 376
319 380
320 280
320 286
320 298
320 300
320 311
320 316
320 332
320 342
320 353
320 354
320 369
321 281
321 284
321 295
321 297
321 313
321 324
321 345
321 346
321 349
321 358
321 368
322 275
322 283
322 287
322 288
322 299
322 303
322 305
322 312
322 326
322 329
322 335
322 340
322 341
322 351
322 355
322 356
322 372
322 379
323 277
323 287
323 296
323 299
323 306
323 312
323 315
323 318
323 326
323 333
323 335
323 338
323 343
323 356
323 364
324 281
324 284
324 295
324 297
324 313
324 321
324 330
324 345
324 346
324 349
324 358
324 368
324 373
325 273
325 292
325 293
325 304
325 310
325 314
325 328
325 336
325 339
325 344
325 347
325 359
325 363
325 367
325 374
326 275
326 283
326 287
326 296
326 299
326 305
326 312
326 315
326 322
326 323
326 329
326 335
326 338
326 340
326 355
326 356
326 364
326 372
327 272
327 276
327 279
327 290
327 298
327 302
327 307
327 316
327 330
327 350
327 357
327 362
327 375
327 378
328 271
328 293
328 310
328 325
328 336
328 347
328 359
328 363
328 367
328 387
329 269
329 283
329 288
329 291
329 299
329 300
329 303
329 305
329 322
329 326
329 332
329 340
329 341
329 351
329 354
329 355
329 366
329 379
329 381
330 285
330 290
330 295
330 297
330 307
330 313
330 324
330 327
330 345
330 350
330 358
330 362
330 373
330 384
331 274
331 292
331 294
331 309
331 314
331 319
331 334
331 337
331 339
331 344
331 352
331 361
331 370
331 371
331 376
331 380
332 286
332 291
332 300
332 303
332 311
332 320
332 329
332 341
332 342
332 351
332 353
332 354
332 366
332 369
332 389
333 278
333 289
333 301
333 306
333 308
333 315
333 317
333 318
333 323
333 334
333 338
333 343
333 348
333 360
333 361
333 365
333 377
333 382
333 385
334 282
334 294
334 301
334 308
334 309
334 317
334 319
334 331
334 333
334 337
334 348
334 361
334 365
334 370
334 377
334 380
334 392
335 287
335 296
335 299
335 312
335 315
335 322
335 323
335 326
335 338
335 343
335 355
335 356
335 364
335 372
336 293
336 304
336 310
336 325
336 328
336 339
336 347
336 359
336 363
336 367
336 387
337 294
337 308
337 309
337 319
337 331
337 334
337 344
337 348
337 352
337 361
337 370
337 371
337 376
337 380
338 287
338 296
338 306
338 312
338 315
338 318
338 323
338 326
338 333
338 335
338 343
338 356
338 360
338 364
338 382
338 385
338 391
339 292
339 293
339 304
339 310
339 314
339 325
339 331
339 336
339 344
339 347
339 352
339 359
339 367
339 371
339 374
339 376
339 390
339 396
340 283
340 288
340 299
340 303
340 305
340 322
340 326
340 329
340 341
340 351
340 355
340 356
340 366
340 372
340 379
340 381
340 394
341 288
341 291
341 300
341 303
341 305
341 311
341 322
341 329
341 332
341 340
341 342
341 351
341 354
341 355
341 366
341 379
341 381
342 286
342 300
342 311
342 320
342 332
342 341
342 353
342 354
342 366
342 369
342 386
342 389
343 289
343 301
343 306
343 315
343 317
343 318
343 323
343 333
343 335
343 338
343 348
343 360
343 364
343 365
343 382
343 385
343 391
343 395
344 292
344 304
344 309
344 314
344 319
344 325
344 331
344 337
344 339
344 347
344 352
344 367
344 371
344 374
344 376
344 390
344 396
345 285
345 295
345 297
345 313
345 321
345 324
345 330
345 349
345 350
345 358
345 362
345 368
345 373
345 384
345 397
346 321
346 324
346 349
346 358
346 368
346 383
347 293
347 304
347 310
347 314
347 325
347 328
347 336
347 339
347 344
347 352
347 359
347 363
347 367
347 371
347 374
347 387
347 390
347 396
348 301
348 308
348 317
348 318
348 319
348 333
348 334
348 337
348 343
348 360
348 361
348 365
348 370
348 377
348 380
348 385
348 392
348 395
349 321
349 324
349 345
349 346
349 358
349 368
349 373
349 383
349 397
349 408
350 302
350 307
350 313
350 327
350 330
350 345
350 357
350 362
350 375
350 378
350 384
350 388
351 303
351 305
351 322
351 329
351 332
351 340
351 341
351 354
351 355
351 366
351 372
351 379
351 381
351 394
351 406
351 410
352 309
352 314
352 319
352 331
352 337
352 339
352 344
352 347
352 370
352 371
352 374
352 376
352 380
352 390
352 396
352 405
352 411
353 298
353 311
353 316
353 320
353 332
353 342
353 354
353 357
353 369
353 375
353 386
353 389
353 393
353 398
353 399
353 404
354 300
354 303
354 311
354 320
354 329
354 332
354 341
354 342
354 351
354 353
354 366
354 369
354 381
354 389
354 404
354 409
354 410
355 299
355 305
355 312
355 322
355 326
355 329
355 335
355 340
355 341
355 351
355 356
355 364
355 372
355 379
355 381
355 394
355 402
355 406
356 299
356 312
356 315
356 322
356 323
356 326
356 335
356 338
356 340
356 355
356 364
356 372
356 391
356 394
356 402
356 417
356 418
357 302
357 316
357 327
357 350
357 353
357 362
357 375
357 378
357 386
357 388
357 393
357 399
357 414
358 313
358 321
358 324
358 330
358 345
358 346
358 349
358 362
358 368
358 373
358 383
358 384
358 397
358 408
358 413
359 310
359 325
359 328
359 336
359 339
359 347
359 363
359 367
359 387
359 390
359 400
359 401
359 415
360 306
360 315
360 317
360 318
360 333
360 338
360 343
360 348
360 361
360 364
360 365
360 377
360 382
360 385
360 391
360 395
360 407
360 412
361 308
361 317
361 319
361 331
361 333
361 334
361 337
361 348
361 360
361 365
361 370
361 376
361 377
361 380
361 392
361 412
361 416
362 307
362 313
362 327
362 330
362 345
362 350
362 357
362 358
362 373
362 378
362 384
362 388
362 403
363 310
363 325
363 328
363 336
363 347
363 359
363 367
363 387
363 400
363 401
364 312
364 315
364 323
364 326
364 335
364 338
364 343
364 355
364 356
364 360
364 372
364 382
364 385
364 391
364 402
364 407
364 417
364 418
364 420
365 317
365 318
365 333
365 334
365 343
365 348
365 360
365 361
365 370
365 377
365 382
365 385
365 392
365 395
365 407
365 412
365 416
366 329
366 332
366 340
366 341
366 342
366 351
366 354
366 369
366 379
366 381
366 389
366 404
366 406
366 409
366 410
366 419
366 426
367 325
367 328
367 336
367 339
367 344
367 347
367 359
367 363
367 371
367 374
367 387
367 390
367 396
367 400
367 401
367 415
367 421
368 321
368 324
368 345
368 346
368 349
368 358
368 373
368 383
368 397
368 408
368 429
369 320
369 332
369 342
369 353
369 354
369 366
369 386
369 389
369 393
369 398
369 404
369 409
369 419
369 433
370 319
370 331
370 334
370 337
370 348
370 352
370 361
370 365
370 376
370 377
370 380
370 392
370 411
370 412
370 416
370 422
370 425
371 314
371 331
371 337
371 339
371 344
371 347
371 352
371 367
371 374
371 376
371 380
371 390
371 396
371 405
371 411
372 322
372 326
372 335
372 340
372 351
372 355
372 356
372 364
372 379
372 381
372 391
372 394
372 402
372 406
372 417
372 418
372 428
373 324
373 330
373 345
373 349
373 358
373 362
373 368
373 384
373 388
373 397
373 403
373 408
373 413
373 429
373 436
374 314
374 325
374 339
374 344
374 347
374 352
374 367
374 371
374 376
374 390
374 396
374 405
374 415
374 421
375 316
375 327
375 350
375 353
375 357
375 378
375 386
375 388
375 393
375 398
375 399
375 414
375 423
375 424
376 319
376 331
376 337
376 339
376 344
376 352
376 361
376 370
376 371
376 374
376 380
376 392
376 396
376 405
376 411
376 425
377 317
377 333
377 334
377 348
377 360
377 361
377 365
377 370
377 380
377 382
377 385
377 392
377 395
377 407
377 412
377 416
377 422
377 431
378 327
378 350
378 357
378 362
378 375
378 384
378 388
378 393
378 399
378 403
378 414
378 423
378 424
378 438
379 322
379 329
379 340
379 341
379 351
379 355
379 366
379 372
379 381
379 394
379 402
379 406
379 410
379 426
379 428
379 439
379 440
380 319
380 331
380 334
380 337
380 348
380 352
380 361
380 370
380 371
380 376
380 377
380 392
380 405
380 411
380 416
380 422
380 425
381 329
381 340
381 341
381 351
381 354
381 355
381 366
381 372
381 379
381 394
381 402
381 406
381 409
381 410
381 426
381 440
382 333
382 338
382 343
382 360
382 364
382 365
382 377
382 385
382 391
382 395
382 407
382 412
382 418
382 420
382 432
383 346
383 349
383 358
383 368
383 397
383 408
383 429
383 434
384 330
384 345
384 350
384 358
384 362
384 373
384 378
384 388
384 397
384 403
384 413
384 423
384 435
384 436
385 333
385 338
385 343
385 348
385 360
385 364
385 365
385 377
385 382
385 391
385 395
385 407
385 412
385 416
385 420
385 431
385 432
386 342
386 353
386 357
386 369
386 375
386 389
386 393
386 398
386 399
386 404
386 419
386 424
386 433
386 444
387 328
387 336
387 347
387 359
387 363
387 367
387 390
387 400
387 401
387 415
387 427
387 430
388 350
388 357
388 362
388 373
388 375
388 378
388 384
388 399
388 403
388 413
388 414
388 423
388 435
388 438
389 332
389 342
389 353
389 354
389 366
389 369
389 386
389 393
389 398
389 404
389 409
389 410
389 419
389 433
389 443
390 339
390 344
390 347
390 352
390 359
390 367
390 371
390 374
390 387
390 396
390 401
390 405
390 415
390 421
390 430
390 437
391 338
391 343
391 356
391 360
391 364
391 372
391 382
391 385
391 395
391 402
391 407
391 417
391 418
391 420
391 432
391 445
392 334
392 348
392 361
392 365
392 370
392 376
392 377
392 380
392 395
392 411
392 412
392 416
392 422
392 425
392 431
392 447
393 353
393 357
393 369
393 375
393 378
393 386
393 389
393 398
393 399
393 404
393 414
393 424
393 433
393 444
393 454
394 340
394 351
394 355
394 356
394 372
394 379
394 381
394 402
394 406
394 410
394 417
394 426
394 428
394 439
394 440
394 451
395 343
395 348
395 360
395 365
395 377
395 382
395 385
395 391
395 392
395 407
395 412
395 416
395 420
395 431
395 432
395 445
395 456
396 339
396 344
396 347
396 352
396 367
396 371
396 374
396 376
396 390
396 405
396 411
396 415
396 421
396 437
396 442
396 446
397 345
397 349
397 358
397 368
397 373
397 383
397 384
397 403
397 408
397 413
397 429
397 434
397 435
397 436
397 453
398 353
398 369
398 375
398 386
398 389
398 393
398 399
398 404
398 409
398 414
398 419
398 424
398 433
398 443
398 444
398 454
398 455
399 353
399 357
399 375
399 378
399 386
399 388
399 393
399 398
399 414
399 423
399 424
399 433
399 438
399 444
399 454
400 359
400 363
400 367
400 387
400 401
400 415
400 427
400 430
400 460
401 359
401 363
401 367
401 387
401 390
401 400
401 415
401 421
401 427
401 430
401 437
401 460
402 355
402 356
402 364
402 372
402 379
402 381
402 391
402 394
402 406
402 417
402 418
402 428
402 439
402 440
402 441
402 451
403 362
403 373
403 378
403 384
403 388
403 397
403 413
403 414
403 423
403 429
403 435
403 436
403 438
403 449
403 453
403 461
404 353
404 354
404 366
404 369
404 386
404 389
404 393
404 398
404 409
404 410
404 419
404 424
404 433
404 443
404 444
404 455
405 352
405 371
405 374
405 376
405 380
405 390
405 396
405 411
405 421
405 425
405 442
405 446
405 452
405 464
405 466
406 351
406 355
406 366
406 372
406 379
406 381
406 394
406 402
406 409
406 410
406 426
406 428
406 439
406 440
406 450
406 451
406 469
407 360
407 364
407 365
407 377
407 382
407 385
407 391
407 395
407 412
407 417
407 418
407 420
407 431
407 432
407 445
407 456
407 463
408 349
408 358
408 368
408 373
408 383
408 397
408 413
408 429
408 434
408 436
408 448
408 457
408 465
408 467
409 354
409 366
409 369
409 381
409 389
409 398
409 404
409 406
409 410
409 419
409 426
409 433
409 440
409 443
409 450
410 351
410 354
410 366
410 379
410 381
410 389
410 394
410 404
410 406
410 409
410 419
410 426
410 439
410 440
410 443
410 450
411 352
411 370
411 371
411 376
411 380
411 392
411 396
411 405
411 416
411 422
411 425
411 442
411 446
411 447
411 452
411 462
411 466
412 360
412 361
412 365
412 370
412 377
412 382
412 385
412 392
412 395
412 407
412 416
412 420
412 422
412 425
412 431
412 432
412 447
412 456
412 459
413 358
413 373
413 384
413 388
413 397
413 403
413 408
413 429
413 434
413 435
413 436
413 449
413 453
413 461
413 465
413 472
414 357
414 375
414 378
414 388
414 393
414 398
414 399
414 403
414 423
414 424
414 435
414 438
414 444
414 449
414 454
414 470
415 359
415 367
415 374
415 387
415 390
415 396
415 400
415 401
415 421
415 427
415 430
415 437
415 446
415 468
416 361
416 365
416 370
416 377
416 380
416 385
416 392
416 395
416 411
416 412
416 422
416 425
416 431
416 432
416 447
416 456
416 459
416 462
417 356
417 364
417 372
417 391
417 394
417 402
417 407
417 418
417 420
417 428
417 439
417 441
417 445
417 451
417 458
418 356
418 364
418 372
418 382
418 391
418 402
418 407
418 417
418 420
418 428
418 441
418 445
418 451
418 458
418 463
419 366
419 369
419 386
419 389
419 398
419 404
419 409
419 410
419 424
419 426
419 433
419 443
419 444
419 450
419 455
420 364
420 382
420 385
420 391
420 395
420 407
420 412
420 417
420 418
420 432
420 441
420 445
420 456
420 458
420 463
421 367
421 374
421 390
421 396
421 401
421 405
421 415
421 430
421 437
421 442
421 446
421 464
422 370
422 377
422 380
422 392
422 411
422 412
422 416
422 425
422 431
422 447
422 452
422 459
422 462
422 471
423 375
423 378
423 384
423 388
423 399
423 403
423 414
423 424
423 435
423 438
423 449
423 454
423 461
423 470
424 375
424 378
424 386
424 393
424 398
424 399
424 404
424 414
424 419
424 423
424 433
424 438
424 443
424 444
424 454
424 455
425 370
425 376
425 380
425 392
425 405
425 411
425 412
425 416
425 422
425 431
425 442
425 447
425 452
425 459
425 462
425 466
425 471
426 366
426 379
426 381
426 394
426 406
426 409
426 410
426 419
426 428
426 439
426 440
426 450
426 451
426 469
427 387
427 400
427 401
427 415
427 430
427 437
427 460
427 468
428 372
428 379
428 394
428 402
428 406
428 417
428 418
428 426
428 439
428 440
428 441
428 451
428 458
428 469
429 368
429 373
429 383
429 397
429 403
429 408
429 413
429 434
429 436
429 448
429 453
429 457
429 461
429 465
429 467
429 472
430 387
430 390
430 400
430 401
430 415
430 421
430 427
430 437
430 446
430 460
430 468
431 377
431 385
431 392
431 395
431 407
431 412
431 416
431 422
431 425
431 432
431 445
431 447
431 456
431 459
431 462
431 463
432 382
432 385
432 391
432 395
432 407
432 412
432 416
432 420
432 431
432 445
432 456
432 458
432 459
432 463
433 369
433 386
433 389
433 393
433 398
433 399
433 404
433 409
433 419
433 424
433 443
433 444
433 454
433 455
434 383
434 397
434 408
434 413
434 429
434 436
434 448
434 457
434 465
434 467
434 472
435 384
435 388
435 397
435 403
435 413
435 414
435 423
435 436
435 438
435 449
435 453
435 461
435 470
435 472
436 373
436 384
436 397
436 403
436 408
436 413
436 429
436 434
436 435
436 449
436 453
436 457
436 461
436 465
436 472
437 390
437 396
437 401
437 415
437 421
437 427
437 430
437 442
437 446
437 460
437 464
437 468
438 378
438 388
438 399
438 403
438 414
438 423
438 424
438 435
438 444
438 449
438 454
438 461
438 470
439 379
439 394
439 402
439 406
439 410
439 417
439 426
439 428
439 440
439 441
439 450
439 451
439 469
440 379
440 381
440 394
440 402
440 406
440 409
440 410
440 426
440 428
440 439
440 450
440 451
440 469
441 402
441 417
441 418
441 420
441 428
441 439
441 445
441 451
441 458
441 463
441 469
442 396
442 405
442 411
442 421
442 425
442 437
442 446
442 452
442 462
442 464
442 466
442 471
443 389
443 398
443 404
443 409
443 410
443 419
443 424
443 433
443 444
443 450
443 454
443 455
444 386
444 393
444 398
444 399
444 404
444 414
444 419
444 424
444 433
444 438
444 443
444 454
444 455
445 391
445 395
445 407
445 417
445 418
445 420
445 431
445 432
445 441
445 456
445 458
445 463
446 396
446 405
446 411
446 415
446 421
446 430
446 437
446 442
446 452
446 464
446 466
447 392
447 411
447 412
447 416
447 422
447 425
447 431
447 452
447 456
447 459
447 462
447 471
448 408
448 429
448 434
448 457
448 465
448 467
449 403
449 413
449 414
449 423
449 435
449 436
449 438
449 453
449 454
449 461
449 470
449 472
450 406
450 409
450 410
450 419
450 426
450 439
450 440
450 443
450 451
450 469
451 394
451 402
451 406
451 417
451 418
451 426
451 428
451 439
451 440
451 441
451 450
451 458
451 469
452 405
452 411
452 422
452 425
452 442
452 446
452 447
452 459
452 462
452 464
452 466
452 471
453 397
453 403
453 413
453 429
453 435
453 436
453 449
453 457
453 461
453 465
453 470
453 472
454 393
454 398
454 399
454 414
454 423
454 424
454 433
454 438
454 443
454 444
454 449
454 455
454 470
455 398
455 404
455 419
455 424
455 433
455 443
455 444
455 454
456 395
456 407
456 412
456 416
456 420
456 431
456 432
456 445
456 447
456 459
456 463
457 408
457 429
457 434
457 436
457 448
457 453
457 465
457 467
457 472
458 417
458 418
458 420
458 428
458 432
458 441
458 445
458 451
458 463
459 412
459 416
459 422
459 425
459 431
459 432
459 447
459 452
459 456
459 462
459 471
460 400
460 401
460 427
460 430
460 437
460 468
461 403
461 413
461 423
461 429
461 435
461 436
461 438
461 449
461 453
461 465
461 470
461 472
462 411
462 416
462 422
462 425
462 431
462 442
462 447
462 452
462 459
462 466
462 471
463 407
463 418
463 420
463 431
463 432
463 441
463 445
463 456
463 458
464 405
464 421
464 437
464 442
464 446
464 452
464 466
464 471
465 408
465 413
465 429
465 434
465 436
465 448
465 453
465 457
465 461
465 467
465 472
466 405
466 411
466 425
466 442
466 446
466 452
466 462
466 464
466 471
467 408
467 429
467 434
467 448
467 457
467 465
468 415
468 427
468 430
468 437
468 460
469 406
469 426
469 428
469 439
469 440
469 441
469 450
469 451
470 414
470 423
470 435
470 438
470 449
470 453
470 454
470 461
471 422
471 425
471 442
471 447
471 452
471 459
471 462
471 464
471 466
472 413
472 429
472 434
472 435
472 436
472 449
472 453
472 457
472 461
472 465
