1 21
1 22
1 25
1 28
1 33
2 3
2 12
2 16
2 17
2 31
2 37
3 2
3 16
3 17
3 24
3 31
3 32
3 37
3 46
4 9
4 15
4 35
4 38
4 44
5 6
5 13
5 20
5 30
6 5
6 19
6 20
7 10
7 27
7 28
7 34
7 42
8 10
8 11
8 23
8 26
8 27
8 39
8 40
8 49
9 4
9 36
9 38
9 44
10 7
10 8
10 26
10 27
10 34
10 42
11 8
11 15
11 23
11 26
11 39
11 40
12 2
12 14
12 17
12 18
12 29
12 31
12 48
12 53
13 5
13 20
13 24
13 30
13 43
13 45
14 12
14 18
14 21
14 29
14 41
14 48
14 59
15 4
15 11
15 23
15 35
15 38
15 40
15 60
16 2
16 3
16 17
16 24
16 31
16 32
16 37
16 45
16 46
17 2
17 3
17 12
17 16
17 31
17 32
17 37
17 50
18 12
18 14
18 21
18 29
18 41
18 48
18 59
19 6
19 20
19 51
20 5
20 6
20 13
20 19
20 30
20 57
21 1
21 14
21 18
21 22
21 25
21 33
21 41
21 47
21 54
22 1
22 21
22 25
22 28
22 33
22 47
22 54
22 62
23 8
23 11
23 15
23 26
23 35
23 39
23 40
23 49
23 58
24 3
24 13
24 16
24 30
24 32
24 43
24 45
24 46
25 1
25 21
25 22
25 28
25 33
25 34
25 47
25 52
25 54
25 62
26 8
26 10
26 11
26 23
26 27
26 39
26 40
26 42
26 49
26 58
26 68
26 70
27 7
27 8
27 10
27 26
27 34
27 39
27 42
27 49
27 55
27 63
27 68
28 1
28 7
28 22
28 25
28 33
28 34
28 42
28 47
28 52
28 55
28 62
28 71
29 12
29 14
29 18
29 31
29 41
29 48
29 53
29 59
29 74
30 5
30 13
30 20
30 24
30 43
30 57
30 64
30 69
31 2
31 3
31 12
31 16
31 17
31 29
31 32
31 37
31 46
31 48
31 50
31 53
31 66
32 3
32 16
32 17
32 24
32 31
32 37
32 45
32 46
32 50
32 72
33 1
33 21
33 22
33 25
33 28
33 41
33 47
33 52
33 54
33 62
33 73
34 7
34 10
34 25
34 27
34 28
34 42
34 47
34 52
34 55
34 62
34 63
34 71
34 76
35 4
35 15
35 23
35 38
35 40
35 44
35 56
35 58
35 60
36 9
36 38
36 44
36 56
36 61
36 75
37 2
37 3
37 16
37 17
37 31
37 32
37 45
37 46
37 50
37 66
38 4
38 9
38 15
38 35
38 36
38 44
38 56
38 60
38 61
38 75
39 8
39 11
39 23
39 26
39 27
39 40
39 49
39 58
39 68
39 70
39 77
40 8
40 11
40 15
40 23
40 26
40 35
40 39
40 49
40 58
40 60
40 70
40 77
40 80
41 14
41 18
41 21
41 29
41 33
41 48
41 54
41 59
41 67
41 74
42 7
42 10
42 26
42 27
42 28
42 34
42 49
42 52
42 55
42 63
42 68
42 71
42 76
43 13
43 24
43 30
43 45
43 64
43 69
43 72
43 81
44 4
44 9
44 35
44 36
44 38
44 56
44 61
44 75
45 13
45 16
45 24
45 32
45 37
45 43
45 46
45 72
45 79
45 87
46 3
46 16
46 24
46 31
46 32
46 37
46 45
46 50
46 66
46 72
46 79
47 21
47 22
47 25
47 28
47 33
47 34
47 52
47 54
47 55
47 62
47 71
47 73
47 78
47 90
48 12
48 14
48 18
48 29
48 31
48 41
48 53
48 59
48 66
48 67
48 74
48 89
49 8
49 23
49 26
49 27
49 39
49 40
49 42
49 58
49 63
49 68
49 70
49 77
49 84
49 94
50 17
50 31
50 32
50 37
50 46
50 53
50 66
50 85
51 19
51 57
51 65
51 82
52 25
52 28
52 33
52 34
52 42
52 47
52 55
52 62
52 63
52 71
52 76
52 78
52 98
53 12
53 29
53 31
53 48
53 50
53 59
53 66
53 74
53 85
53 89
54 21
54 22
54 25
54 33
54 41
54 47
54 59
54 62
54 67
54 73
54 83
54 90
55 27
55 28
55 34
55 42
55 47
55 52
55 62
55 63
55 68
55 71
55 76
55 78
55 93
55 98
55 102
56 35
56 36
56 38
56 44
56 60
56 61
56 75
56 80
56 91
57 20
57 30
57 51
57 64
57 65
57 69
57 82
57 86
57 99
58 23
58 26
58 35
58 39
58 40
58 49
58 60
58 68
58 70
58 77
58 80
58 88
58 94
58 100
59 14
59 18
59 29
59 41
59 48
59 53
59 54
59 67
59 74
59 83
59 89
59 96
60 15
60 35
60 38
60 40
60 56
60 58
60 77
60 80
60 88
60 91
60 100
61 36
61 38
61 44
61 56
61 75
61 91
61 101
62 22
62 25
62 28
62 33
62 34
62 47
62 52
62 54
62 55
62 71
62 73
62 78
62 90
62 98
63 27
63 34
63 42
63 49
63 52
63 55
63 68
63 70
63 71
63 76
63 84
63 93
63 102
64 30
64 43
64 57
64 69
64 81
64 82
64 86
64 92
64 95
65 51
65 57
65 82
65 86
65 99
66 31
66 37
66 46
66 48
66 50
66 53
66 85
66 89
66 97
66 103
67 41
67 48
67 54
67 59
67 73
67 74
67 83
67 96
67 106
68 26
68 27
68 39
68 42
68 49
68 55
68 58
68 63
68 70
68 71
68 76
68 77
68 84
68 93
68 94
68 109
69 30
69 43
69 57
69 64
69 72
69 81
69 86
69 87
69 92
69 95
70 26
70 39
70 40
70 49
70 58
70 63
70 68
70 77
70 80
70 84
70 88
70 94
70 109
71 28
71 34
71 42
71 47
71 52
71 55
71 62
71 63
71 68
71 76
71 78
71 93
71 98
71 102
72 32
72 43
72 45
72 46
72 69
72 79
72 81
72 87
72 92
72 97
72 108
72 115
73 33
73 47
73 54
73 62
73 67
73 78
73 83
73 90
73 98
73 104
74 29
74 41
74 48
74 53
74 59
74 67
74 83
74 89
74 96
74 106
75 36
75 38
75 44
75 56
75 61
75 91
75 101
75 105
75 113
76 34
76 42
76 52
76 55
76 63
76 68
76 71
76 84
76 93
76 94
76 102
77 39
77 40
77 49
77 58
77 60
77 68
77 70
77 80
77 84
77 88
77 94
77 100
77 109
77 116
78 47
78 52
78 55
78 62
78 71
78 73
78 90
78 98
78 112
79 45
79 46
79 72
79 87
79 92
79 97
79 108
79 111
79 115
80 40
80 56
80 58
80 60
80 70
80 77
80 88
80 91
80 100
80 107
80 116
80 123
81 43
81 64
81 69
81 72
81 86
81 87
81 92
81 95
81 114
81 115
81 120
82 51
82 57
82 64
82 65
82 86
82 99
82 110
82 114
82 121
83 54
83 59
83 67
83 73
83 74
83 90
83 96
83 104
83 106
83 122
84 49
84 63
84 68
84 70
84 76
84 77
84 88
84 93
84 94
84 102
84 109
85 50
85 53
85 66
85 89
85 97
85 103
85 111
85 118
85 125
86 57
86 64
86 65
86 69
86 81
86 82
86 95
86 99
86 114
86 121
87 45
87 69
87 72
87 79
87 81
87 92
87 95
87 97
87 108
87 115
88 58
88 60
88 70
88 77
88 80
88 84
88 94
88 100
88 109
88 116
89 48
89 53
89 59
89 66
89 74
89 85
89 96
89 103
89 118
89 125
89 127
89 129
90 47
90 54
90 62
90 73
90 78
90 83
90 98
90 104
90 112
90 126
91 56
91 60
91 61
91 75
91 80
91 100
91 101
91 105
91 107
91 113
91 123
91 128
92 64
92 69
92 72
92 79
92 81
92 87
92 95
92 108
92 115
92 120
93 55
93 63
93 68
93 71
93 76
93 84
93 94
93 102
93 109
93 117
93 124
93 133
94 49
94 58
94 68
94 70
94 76
94 77
94 84
94 88
94 93
94 109
94 116
94 136
95 64
95 69
95 81
95 86
95 87
95 92
95 114
95 115
95 120
95 130
95 132
96 59
96 67
96 74
96 83
96 89
96 106
96 119
96 122
96 127
96 140
97 66
97 72
97 79
97 85
97 87
97 103
97 108
97 111
97 118
97 125
97 135
98 52
98 55
98 62
98 71
98 73
98 78
98 90
98 102
98 104
98 112
98 117
98 126
98 139
99 57
99 65
99 82
99 86
99 110
99 114
99 121
99 130
100 58
100 60
100 77
100 80
100 88
100 91
100 105
100 107
100 116
100 123
101 61
101 75
101 91
101 105
101 113
101 128
102 55
102 63
102 71
102 76
102 84
102 93
102 98
102 112
102 117
102 124
102 133
102 137
102 145
103 66
103 85
103 89
103 97
103 111
103 118
103 125
103 129
103 135
104 73
104 83
104 90
104 98
104 106
104 112
104 122
104 126
104 144
105 75
105 91
105 100
105 101
105 107
105 113
105 123
105 128
105 143
106 67
106 74
106 83
106 96
106 104
106 119
106 122
106 127
106 140
106 142
106 146
107 80
107 91
107 100
107 105
107 113
107 123
107 128
107 143
107 147
108 72
108 79
108 87
108 92
108 97
108 111
108 115
108 131
108 135
108 138
109 68
109 70
109 77
109 84
109 88
109 93
109 94
109 116
109 124
109 133
109 136
109 156
110 82
110 99
110 121
110 134
110 141
111 79
111 85
111 97
111 103
111 108
111 115
111 118
111 125
111 131
111 135
111 152
112 78
112 90
112 98
112 102
112 104
112 117
112 126
112 137
112 139
112 151
112 157
113 75
113 91
113 101
113 105
113 107
113 128
113 143
113 155
114 81
114 82
114 86
114 95
114 99
114 120
114 121
114 130
114 132
114 148
115 72
115 79
115 81
115 87
115 92
115 95
115 108
115 111
115 120
115 131
115 132
115 138
116 77
116 80
116 88
116 94
116 100
116 109
116 123
116 136
116 150
116 156
117 93
117 98
117 102
117 112
117 124
117 126
117 133
117 137
117 139
117 145
117 157
117 162
118 85
118 89
118 97
118 103
118 111
118 125
118 127
118 129
118 135
118 152
118 153
118 159
119 96
119 106
119 122
119 127
119 129
119 140
119 142
119 146
119 154
119 164
120 81
120 92
120 95
120 114
120 115
120 130
120 131
120 132
120 138
120 148
120 158
121 82
121 86
121 99
121 110
121 114
121 130
121 134
121 141
121 148
121 167
122 83
122 96
122 104
122 106
122 119
122 126
122 127
122 140
122 142
122 144
122 146
122 165
122 173
123 80
123 91
123 100
123 105
123 107
123 116
123 128
123 143
123 147
123 150
124 93
124 102
124 109
124 117
124 133
124 136
124 137
124 145
124 149
124 162
124 166
125 85
125 89
125 97
125 103
125 111
125 118
125 129
125 135
125 152
125 153
125 159
125 170
126 90
126 98
126 104
126 112
126 117
126 122
126 139
126 144
126 146
126 151
126 157
126 165
127 89
127 96
127 106
127 118
127 119
127 122
127 129
127 140
127 142
127 146
127 154
127 159
127 164
128 91
128 101
128 105
128 107
128 113
128 123
128 143
128 147
128 155
128 161
128 168
128 177
129 89
129 103
129 118
129 119
129 125
129 127
129 140
129 153
129 154
129 159
129 164
129 176
130 95
130 99
130 114
130 120
130 121
130 132
130 138
130 141
130 148
130 158
130 174
131 108
131 111
131 115
131 120
131 132
131 135
131 138
131 160
131 172
132 95
132 114
132 115
132 120
132 130
132 131
132 138
132 148
132 158
133 93
133 102
133 109
133 117
133 124
133 136
133 137
133 145
133 149
133 156
133 162
133 166
133 171
134 110
134 121
134 141
134 163
134 167
135 97
135 103
135 108
135 111
135 118
135 125
135 131
135 152
135 153
135 160
135 170
136 94
136 109
136 116
136 124
136 133
136 145
136 149
136 150
136 156
136 166
136 169
136 171
136 180
137 102
137 112
137 117
137 124
137 133
137 139
137 145
137 149
137 151
137 157
137 162
137 166
137 187
137 190
138 108
138 115
138 120
138 130
138 131
138 132
138 148
138 158
138 160
138 172
139 98
139 112
139 117
139 126
139 137
139 145
139 151
139 157
139 162
139 181
139 187
140 96
140 106
140 119
140 122
140 127
140 129
140 142
140 146
140 154
140 159
140 164
140 173
140 182
140 185
141 110
141 121
141 130
141 134
141 148
141 163
141 167
141 174
142 106
142 119
142 122
142 127
142 140
142 144
142 146
142 154
142 164
142 165
142 173
142 178
142 182
142 185
143 105
143 107
143 113
143 123
143 128
143 147
143 155
143 161
143 168
143 177
143 179
144 104
144 122
144 126
144 142
144 146
144 151
144 157
144 165
144 173
144 178
144 183
145 102
145 117
145 124
145 133
145 136
145 137
145 139
145 149
145 157
145 162
145 166
145 171
145 187
145 190
145 192
146 106
146 119
146 122
146 126
146 127
146 140
146 142
146 144
146 151
146 164
146 165
146 173
146 178
146 183
146 185
147 107
147 123
147 128
147 143
147 150
147 161
147 175
147 179
148 114
148 120
148 121
148 130
148 132
148 138
148 141
148 158
148 167
148 174
148 184
148 189
149 124
149 133
149 136
149 137
149 145
149 156
149 162
149 166
149 171
149 190
149 192
149 193
150 116
150 123
150 136
150 147
150 156
150 169
150 175
150 179
150 180
151 112
151 126
151 137
151 139
151 144
151 146
151 157
151 165
151 181
151 183
151 187
152 111
152 118
152 125
152 135
152 153
152 160
152 170
152 176
152 186
152 191
152 197
153 118
153 125
153 129
153 135
153 152
153 154
153 159
153 170
153 176
153 182
153 191
153 197
153 203
154 119
154 127
154 129
154 140
154 142
154 153
154 159
154 164
154 176
154 182
154 185
155 113
155 128
155 143
155 161
155 168
155 177
155 188
155 204
156 109
156 116
156 133
156 136
156 149
156 150
156 166
156 169
156 171
156 175
156 180
156 193
156 201
157 112
157 117
157 126
157 137
157 139
157 144
157 145
157 151
157 162
157 165
157 181
157 183
157 187
157 190
157 205
158 120
158 130
158 132
158 138
158 148
158 172
158 174
158 184
158 189
158 199
159 118
159 125
159 127
159 129
159 140
159 153
159 154
159 164
159 170
159 176
159 182
159 185
159 203
159 210
160 131
160 135
160 138
160 152
160 170
160 172
160 186
160 191
160 194
161 128
161 143
161 147
161 155
161 168
161 177
161 179
161 188
161 202
161 204
162 117
162 124
162 133
162 137
162 139
162 145
162 149
162 157
162 166
162 171
162 181
162 187
162 190
162 192
162 207
162 211
163 134
163 141
163 167
163 174
163 195
163 196
164 119
164 127
164 129
164 140
164 142
164 146
164 154
164 159
164 173
164 176
164 178
164 182
164 185
164 198
164 210
165 122
165 126
165 142
165 144
165 146
165 151
165 157
165 173
165 178
165 181
165 183
165 198
165 200
165 205
166 124
166 133
166 136
166 137
166 145
166 149
166 156
166 162
166 171
166 187
166 190
166 192
166 193
166 211
166 214
167 121
167 134
167 141
167 148
167 163
167 174
167 189
167 195
167 196
167 212
167 218
168 128
168 143
168 155
168 161
168 177
168 188
168 202
168 204
169 136
169 150
169 156
169 171
169 175
169 180
169 193
169 201
169 206
170 125
170 135
170 152
170 153
170 159
170 160
170 176
170 186
170 191
170 197
171 133
171 136
171 145
171 149
171 156
171 162
171 166
171 169
171 180
171 190
171 192
171 193
171 201
171 214
171 217
172 131
172 138
172 158
172 160
172 184
172 186
172 194
172 199
172 213
172 215
173 122
173 140
173 142
173 144
173 146
173 164
173 165
173 178
173 182
173 183
173 185
173 198
173 200
173 216
173 223
174 130
174 141
174 148
174 158
174 163
174 167
174 184
174 189
174 195
174 196
174 209
174 212
175 147
175 150
175 156
175 169
175 179
175 180
175 201
175 206
175 208
175 220
175 224
176 129
176 152
176 153
176 154
176 159
176 164
176 170
176 182
176 185
176 191
176 197
176 203
176 210
176 226
177 128
177 143
177 155
177 161
177 168
177 179
177 188
177 202
177 204
177 222
177 228
178 142
178 144
178 146
178 164
178 165
178 173
178 183
178 185
178 198
178 200
178 205
178 216
178 223
179 143
179 147
179 150
179 161
179 175
179 177
179 202
179 206
179 208
179 224
179 225
180 136
180 150
180 156
180 169
180 171
180 175
180 193
180 201
180 206
180 214
180 217
180 220
180 230
181 139
181 151
181 157
181 162
181 165
181 183
181 187
181 190
181 200
181 205
181 207
181 231
182 140
182 142
182 153
182 154
182 159
182 164
182 173
182 176
182 185
182 198
182 203
182 210
182 216
182 233
183 144
183 146
183 151
183 157
183 165
183 173
183 178
183 181
183 187
183 198
183 200
183 205
183 223
183 229
183 231
184 148
184 158
184 172
184 174
184 189
184 194
184 199
184 209
184 212
184 221
185 140
185 142
185 146
185 154
185 159
185 164
185 173
185 176
185 178
185 182
185 198
185 203
185 210
185 216
185 223
186 152
186 160
186 170
186 172
186 191
186 194
186 197
186 213
186 215
186 219
186 227
187 137
187 139
187 145
187 151
187 157
187 162
187 166
187 181
187 183
187 190
187 192
187 205
187 207
187 211
187 231
187 232
188 155
188 161
188 168
188 177
188 202
188 204
188 222
188 228
189 148
189 158
189 167
189 174
189 184
189 196
189 199
189 209
189 212
189 221
189 234
190 137
190 145
190 149
190 157
190 162
190 166
190 171
190 181
190 187
190 192
190 193
190 207
190 211
190 214
190 235
191 152
191 153
191 160
191 170
191 176
191 186
191 197
191 203
191 213
191 219
191 226
191 227
192 145
192 149
192 162
192 166
192 171
192 187
192 190
192 193
192 207
192 211
192 214
192 217
192 235
192 236
193 149
193 156
193 166
193 169
193 171
193 180
193 190
193 192
193 201
193 211
193 214
193 217
193 236
193 240
194 160
194 172
194 184
194 186
194 199
194 213
194 215
194 221
194 237
195 163
195 167
195 174
195 196
195 212
195 218
195 241
196 163
196 167
196 174
196 189
196 195
196 209
196 212
196 218
196 234
196 241
197 152
197 153
197 170
197 176
197 186
197 191
197 203
197 210
197 213
197 219
197 226
197 227
197 243
198 164
198 165
198 173
198 178
198 182
198 183
198 185
198 200
198 210
198 216
198 223
198 242
199 158
199 172
199 184
199 189
199 194
199 209
199 212
199 215
199 221
199 234
199 238
200 165
200 173
200 178
200 181
200 183
200 198
200 205
200 223
200 229
200 231
201 156
201 169
201 171
201 175
201 180
201 193
201 206
201 214
201 217
201 220
201 230
201 240
201 245
202 161
202 168
202 177
202 179
202 188
202 204
202 208
202 222
202 224
202 225
202 228
202 247
203 153
203 159
203 176
203 182
203 185
203 191
203 197
203 210
203 226
203 227
203 233
203 243
204 155
204 161
204 168
204 177
204 188
204 202
204 222
204 228
205 157
205 165
205 178
205 181
205 183
205 187
205 200
205 207
205 223
205 229
205 231
205 232
206 169
206 175
206 179
206 180
206 201
206 208
206 217
206 220
206 224
206 225
206 230
206 239
206 245
207 162
207 181
207 187
207 190
207 192
207 205
207 211
207 214
207 231
207 232
207 235
208 175
208 179
208 202
208 206
208 220
208 224
208 225
208 228
208 230
208 239
209 174
209 184
209 189
209 196
209 199
209 212
209 218
209 221
209 234
209 238
210 159
210 164
210 176
210 182
210 185
210 197
210 198
210 203
210 216
210 226
210 233
210 242
210 243
210 249
211 162
211 166
211 187
211 190
211 192
211 193
211 207
211 214
211 217
211 232
211 235
211 236
211 240
211 256
211 257
212 167
212 174
212 184
212 189
212 195
212 196
212 199
212 209
212 218
212 234
212 241
212 254
213 172
213 186
213 191
213 194
213 197
213 215
213 219
213 227
213 237
213 244
213 259
214 166
214 171
214 180
214 190
214 192
214 193
214 201
214 207
214 211
214 217
214 235
214 236
214 240
214 257
215 172
215 186
215 194
215 199
215 213
215 219
215 221
215 237
215 238
215 244
215 250
215 259
216 173
216 178
216 182
216 185
216 198
216 210
216 223
216 233
216 242
216 249
216 252
217 171
217 180
217 192
217 193
217 201
217 206
217 211
217 214
217 220
217 230
217 236
217 240
217 245
217 246
217 269
218 167
218 195
218 196
218 209
218 212
218 234
218 241
218 254
219 186
219 191
219 197
219 213
219 215
219 226
219 227
219 237
219 243
219 244
219 248
219 263
220 175
220 180
220 201
220 206
220 208
220 217
220 224
220 225
220 230
220 239
220 245
220 246
220 261
220 270
221 184
221 189
221 194
221 199
221 209
221 215
221 234
221 237
221 238
221 250
221 267
222 177
222 188
222 202
222 204
222 225
222 228
222 247
222 251
222 262
223 173
223 178
223 183
223 185
223 198
223 200
223 205
223 216
223 229
223 242
223 252
223 253
224 175
224 179
224 202
224 206
224 208
224 220
224 225
224 228
224 230
224 239
224 245
224 247
224 261
225 179
225 202
225 206
225 208
225 220
225 222
225 224
225 228
225 239
225 247
225 251
225 261
225 272
226 176
226 191
226 197
226 203
226 210
226 219
226 227
226 233
226 243
226 248
226 249
226 260
226 265
226 275
227 186
227 191
227 197
227 203
227 213
227 219
227 226
227 233
227 243
227 244
227 248
227 260
227 263
228 177
228 188
228 202
228 204
228 208
228 222
228 224
228 225
228 239
228 247
228 251
228 262
228 272
229 183
229 200
229 205
229 223
229 231
229 232
229 252
229 253
229 255
229 258
229 277
230 180
230 201
230 206
230 208
230 217
230 220
230 224
230 239
230 240
230 245
230 246
230 261
230 269
230 270
231 181
231 183
231 187
231 200
231 205
231 207
231 229
231 232
231 253
231 255
231 258
231 264
231 277
231 279
232 187
232 205
232 207
232 211
232 229
232 231
232 235
232 255
232 256
232 258
232 264
232 279
233 182
233 203
233 210
233 216
233 226
233 227
233 242
233 243
233 249
233 260
233 265
233 268
233 273
233 275
234 189
234 196
234 199
234 209
234 212
234 218
234 221
234 238
234 241
234 254
234 266
234 271
234 276
235 190
235 192
235 207
235 211
235 214
235 232
235 236
235 240
235 255
235 256
235 257
235 264
235 274
236 192
236 193
236 211
236 214
236 217
236 235
236 240
236 246
236 256
236 257
236 269
236 274
237 194
237 213
237 215
237 219
237 221
237 238
237 244
237 250
237 259
237 263
237 267
237 281
238 199
238 209
238 215
238 221
238 234
238 237
238 250
238 266
238 267
238 276
239 206
239 208
239 220
239 224
239 225
239 228
239 230
239 245
239 247
239 261
239 272
239 283
240 193
240 201
240 211
240 214
240 217
240 230
240 235
240 236
240 245
240 246
240 256
240 257
240 269
240 270
240 274
241 195
241 196
241 212
241 218
241 234
241 254
241 271
241 280
242 198
242 210
242 216
242 223
242 233
242 249
242 252
242 253
242 268
242 273
242 278
242 282
243 197
243 203
243 210
243 219
243 226
243 227
243 233
243 244
243 248
243 249
243 260
243 263
243 265
243 275
243 287
244 213
244 215
244 219
244 227
244 237
244 243
244 248
244 259
244 263
244 281
244 286
245 201
245 206
245 217
245 220
245 224
245 230
245 239
245 240
245 246
245 261
245 269
245 270
245 283
245 291
246 217
246 220
246 230
246 236
246 240
246 245
246 257
246 261
246 269
246 270
246 288
246 291
247 202
247 222
247 224
247 225
247 228
247 239
247 251
247 261
247 262
247 272
247 283
247 284
247 285
248 219
248 226
248 227
248 243
248 244
248 260
248 263
248 265
248 275
248 286
248 298
249 210
249 216
249 226
249 233
249 242
249 243
249 260
249 265
249 268
249 273
249 275
249 278
249 287
250 215
250 221
250 237
250 238
250 259
250 266
250 267
250 276
250 281
250 295
250 300
251 222
251 225
251 228
251 247
251 262
251 272
251 284
251 285
251 301
252 216
252 223
252 229
252 242
252 253
252 258
252 268
252 277
252 278
252 282
252 297
253 223
253 229
253 231
253 242
253 252
253 255
253 258
253 277
253 278
253 282
253 294
253 297
254 212
254 218
254 234
254 241
254 266
254 271
254 280
254 289
255 229
255 231
255 232
255 235
255 253
255 256
255 258
255 264
255 277
255 279
255 294
255 296
255 305
256 211
256 232
256 235
256 236
256 240
256 255
256 257
256 264
256 274
256 279
256 292
256 293
256 296
257 211
257 214
257 235
257 236
257 240
257 246
257 256
257 264
257 269
257 274
257 288
257 292
257 293
257 296
258 229
258 231
258 232
258 252
258 253
258 255
258 264
258 277
258 279
258 282
258 294
258 297
258 304
258 305
259 213
259 215
259 237
259 244
259 250
259 263
259 267
259 281
259 295
259 300
260 226
260 227
260 233
260 243
260 248
260 249
260 263
260 265
260 273
260 275
260 286
260 287
260 298
260 307
261 220
261 224
261 225
261 230
261 239
261 245
261 246
261 247
261 270
261 272
261 283
261 284
261 291
261 302
261 306
262 222
262 228
262 247
262 251
262 272
262 284
262 285
263 219
263 227
263 237
263 243
263 244
263 248
263 259
263 260
263 275
263 281
263 286
263 295
263 303
264 231
264 232
264 235
264 255
264 256
264 257
264 258
264 274
264 277
264 279
264 293
264 294
264 296
264 305
265 226
265 233
265 243
265 248
265 249
265 260
265 268
265 273
265 275
265 287
265 298
265 307
266 234
266 238
266 250
266 254
266 267
266 271
266 276
266 289
266 290
266 299
267 221
267 237
267 238
267 250
267 259
267 266
267 276
267 281
267 290
267 295
267 299
267 300
268 233
268 242
268 249
268 252
268 265
268 273
268 278
268 282
268 287
269 217
269 230
269 236
269 240
269 245
269 246
269 257
269 270
269 274
269 288
269 291
269 292
269 293
269 309
269 310
270 220
270 230
270 240
270 245
270 246
270 261
270 269
270 283
270 288
270 291
270 309
271 234
271 241
271 254
271 266
271 280
271 289
271 311
271 314
272 225
272 228
272 239
272 247
272 251
272 261
272 262
272 283
272 284
272 285
272 301
272 302
272 319
273 233
273 242
273 249
273 260
273 265
273 268
273 275
273 278
273 287
273 298
273 317
273 320
274 235
274 236
274 240
274 256
274 257
274 264
274 269
274 288
274 292
274 293
274 296
274 308
274 310
275 226
275 233
275 243
275 248
275 249
275 260
275 263
275 265
275 273
275 286
275 287
275 298
275 303
275 307
276 234
276 238
276 250
276 266
276 267
276 281
276 289
276 290
276 299
276 300
277 229
277 231
277 252
277 253
277 255
277 258
277 264
277 279
277 282
277 294
277 297
277 304
277 305
277 318
277 326
278 242
278 249
278 252
278 253
278 268
278 273
278 282
278 297
278 312
278 317
278 322
279 231
279 232
279 255
279 256
279 258
279 264
279 277
279 293
279 294
279 296
279 304
279 305
279 313
279 323
280 241
280 254
280 271
280 289
280 311
280 314
281 237
281 244
281 250
281 259
281 263
281 267
281 276
281 295
281 299
281 300
281 315
281 316
282 242
282 252
282 253
282 258
282 268
282 277
282 278
282 294
282 297
282 304
282 312
282 318
282 322
283 239
283 245
283 247
283 261
283 270
283 272
283 284
283 291
283 301
283 302
283 306
283 324
283 328
284 247
284 251
284 261
284 262
284 272
284 283
284 285
284 301
284 302
284 306
284 319
284 328
284 337
285 247
285 251
285 262
285 272
285 284
285 301
285 319
285 327
286 244
286 248
286 260
286 263
286 275
286 287
286 295
286 298
286 303
286 307
286 316
286 321
286 336
287 243
287 249
287 260
287 265
287 268
287 273
287 275
287 286
287 298
287 307
287 317
287 320
287 329
287 334
288 246
288 257
288 269
288 270
288 274
288 291
288 292
288 308
288 309
288 310
288 325
289 254
289 266
289 271
289 276
289 280
289 290
289 299
289 311
289 314
289 338
290 266
290 267
290 276
290 289
290 299
290 300
290 314
290 331
291 245
291 246
291 261
291 269
291 270
291 283
291 288
291 306
291 309
291 310
291 324
291 325
292 256
292 257
292 269
292 274
292 288
292 293
292 296
292 308
292 309
292 310
292 330
292 335
293 256
293 257
293 264
293 269
293 274
293 279
293 292
293 296
293 308
293 310
293 313
293 330
293 332
293 335
294 253
294 255
294 258
294 264
294 277
294 279
294 282
294 296
294 297
294 304
294 305
294 318
294 323
294 326
295 250
295 259
295 263
295 267
295 281
295 286
295 300
295 303
295 315
295 316
295 321
295 333
296 255
296 256
296 257
296 264
296 274
296 279
296 292
296 293
296 294
296 305
296 308
296 313
296 323
296 330
296 332
297 252
297 253
297 258
297 277
297 278
297 282
297 294
297 304
297 305
297 312
297 318
297 322
297 326
298 248
298 260
298 265
298 273
298 275
298 286
298 287
298 303
298 307
298 320
298 321
298 329
298 334
298 336
299 266
299 267
299 276
299 281
299 289
299 290
299 300
299 314
299 315
299 331
299 338
299 351
300 250
300 259
300 267
300 276
300 281
300 290
300 295
300 299
300 315
300 316
300 331
300 333
300 340
301 251
301 272
301 283
301 284
301 285
301 302
301 306
301 319
301 327
301 328
301 337
301 355
302 261
302 272
302 283
302 284
302 301
302 306
302 319
302 324
302 328
302 337
302 343
302 355
303 263
303 275
303 286
303 295
303 298
303 307
303 316
303 321
303 329
303 333
303 336
304 258
304 277
304 279
304 282
304 294
304 297
304 305
304 312
304 318
304 322
304 323
304 326
304 347
304 348
305 255
305 258
305 264
305 277
305 279
305 294
305 296
305 297
305 304
305 313
305 318
305 323
305 326
305 332
305 349
306 261
306 283
306 284
306 291
306 301
306 302
306 309
306 324
306 325
306 328
306 341
306 343
307 260
307 265
307 275
307 286
307 287
307 298
307 303
307 320
307 321
307 329
307 334
307 336
307 353
308 274
308 288
308 292
308 293
308 296
308 309
308 310
308 313
308 330
308 332
308 335
308 342
308 354
309 269
309 270
309 288
309 291
309 292
309 306
309 308
309 310
309 324
309 325
309 341
309 342
309 344
310 269
310 274
310 288
310 291
310 292
310 293
310 308
310 309
310 325
310 330
310 335
310 342
310 344
311 271
311 280
311 289
311 314
311 338
311 339
311 350
312 278
312 282
312 297
312 304
312 317
312 318
312 322
312 326
312 345
312 347
312 348
312 362
313 279
313 293
313 296
313 305
313 308
313 323
313 330
313 332
313 335
313 349
313 352
313 354
314 271
314 280
314 289
314 290
314 299
314 311
314 331
314 338
314 350
314 358
315 281
315 295
315 299
315 300
315 316
315 333
315 340
315 357
315 360
316 281
316 286
316 295
316 300
316 303
316 315
316 321
316 333
316 336
316 340
316 357
316 359
317 273
317 278
317 287
317 312
317 320
317 322
317 334
317 345
317 346
317 347
317 362
318 277
318 282
318 294
318 297
318 304
318 305
318 312
318 322
318 323
318 326
318 345
318 347
318 348
318 363
319 272
319 284
319 285
319 301
319 302
319 327
319 328
319 337
319 343
319 355
319 356
320 273
320 287
320 298
320 307
320 317
320 322
320 329
320 334
320 345
320 346
320 353
321 286
321 295
321 298
321 303
321 307
321 316
321 329
321 333
321 336
321 357
321 359
322 278
322 282
322 297
322 304
322 312
322 317
322 318
322 320
322 326
322 345
322 346
322 347
322 362
323 279
323 294
323 296
323 304
323 305
323 313
323 318
323 326
323 330
323 332
323 348
323 349
323 352
323 365
324 283
324 291
324 302
324 306
324 309
324 325
324 328
324 341
324 343
324 344
324 364
324 367
325 288
325 291
325 306
325 309
325 310
325 324
325 341
325 342
325 344
325 361
325 364
325 367
326 277
326 294
326 297
326 304
326 305
326 312
326 318
326 322
326 323
326 347
326 348
326 349
326 363
326 365
327 285
327 301
327 319
327 337
327 356
327 369
328 283
328 284
328 301
328 302
328 306
328 319
328 324
328 337
328 341
328 343
328 355
328 364
328 371
328 374
329 287
329 298
329 303
329 307
329 320
329 321
329 334
329 336
329 346
329 353
329 359
329 370
329 375
330 292
330 293
330 296
330 308
330 310
330 313
330 323
330 332
330 335
330 342
330 349
330 352
330 354
330 376
331 290
331 299
331 300
331 314
331 338
331 340
331 351
331 358
331 360
331 372
331 384
332 293
332 296
332 305
332 308
332 313
332 323
332 330
332 335
332 349
332 352
332 354
332 365
332 377
333 295
333 300
333 303
333 315
333 316
333 321
333 336
333 340
333 357
333 359
333 360
333 366
333 373
334 287
334 298
334 307
334 317
334 320
334 329
334 336
334 345
334 346
334 353
334 375
334 378
335 292
335 293
335 308
335 310
335 313
335 330
335 332
335 342
335 344
335 352
335 354
335 361
335 376
336 286
336 298
336 303
336 307
336 316
336 321
336 329
336 333
336 334
336 353
336 357
336 359
336 370
336 373
337 284
337 301
337 302
337 319
337 327
337 328
337 343
337 355
337 356
337 368
337 369
337 371
338 289
338 299
338 311
338 314
338 331
338 350
338 351
338 358
338 372
338 387
339 311
339 350
339 358
339 381
340 300
340 315
340 316
340 331
340 333
340 351
340 357
340 360
340 366
340 379
340 388
341 306
341 309
341 324
341 325
341 328
341 342
341 343
341 344
341 361
341 364
341 367
341 374
341 385
342 308
342 309
342 310
342 325
342 330
342 335
342 341
342 344
342 354
342 361
342 367
342 376
342 382
342 385
343 302
343 306
343 319
343 324
343 328
343 337
343 341
343 355
343 364
343 368
343 371
343 374
344 309
344 310
344 324
344 325
344 335
344 341
344 342
344 361
344 364
344 367
344 382
344 385
345 312
345 317
345 318
345 320
345 322
345 334
345 346
345 347
345 348
345 362
345 363
345 378
345 380
345 386
346 317
346 320
346 322
346 329
346 334
346 345
346 353
346 362
346 375
346 378
346 380
346 395
347 304
347 312
347 317
347 318
347 322
347 326
347 345
347 348
347 362
347 363
347 380
347 386
347 390
348 304
348 312
348 318
348 323
348 326
348 345
348 347
348 349
348 362
348 363
348 365
348 386
348 389
348 390
349 305
349 313
349 323
349 326
349 330
349 332
349 348
349 352
349 354
349 363
349 365
349 377
349 383
349 389
350 311
350 314
350 338
350 339
350 358
350 372
350 381
350 387
350 397
351 299
351 331
351 338
351 340
351 358
351 360
351 372
351 379
351 384
351 393
352 313
352 323
352 330
352 332
352 335
352 349
352 354
352 365
352 376
352 377
352 383
353 307
353 320
353 329
353 334
353 336
353 346
353 359
353 370
353 375
353 378
353 392
354 308
354 313
354 330
354 332
354 335
354 342
354 349
354 352
354 376
354 377
354 383
354 396
355 301
355 302
355 319
355 328
355 337
355 343
355 356
355 368
355 369
355 371
355 374
355 399
356 319
356 327
356 337
356 355
356 368
356 369
357 315
357 316
357 321
357 333
357 336
357 340
357 359
357 360
357 366
357 370
357 373
357 388
357 391
357 394
358 314
358 331
358 338
358 339
358 350
358 351
358 372
358 381
358 384
358 387
358 393
358 397
359 316
359 321
359 329
359 333
359 336
359 353
359 357
359 366
359 370
359 373
359 388
359 391
359 392
359 394
360 315
360 331
360 333
360 340
360 351
360 357
360 366
360 379
360 384
360 388
360 400
361 325
361 335
361 341
361 342
361 344
361 364
361 367
361 376
361 382
361 385
361 401
361 404
362 312
362 317
362 322
362 345
362 346
362 347
362 348
362 363
362 378
362 380
362 386
362 390
362 395
362 403
362 407
363 318
363 326
363 345
363 347
363 348
363 349
363 362
363 365
363 380
363 386
363 389
363 390
363 408
363 411
364 324
364 325
364 328
364 341
364 343
364 344
364 361
364 367
364 371
364 374
364 382
364 385
364 398
364 401
364 416
365 323
365 326
365 332
365 348
365 349
365 352
365 363
365 377
365 383
365 389
365 390
365 411
365 413
366 333
366 340
366 357
366 359
366 360
366 373
366 379
366 388
366 391
366 394
366 400
366 405
367 324
367 325
367 341
367 342
367 344
367 361
367 364
367 374
367 382
367 385
367 398
367 401
367 404
367 416
368 337
368 343
368 355
368 356
368 369
368 371
368 374
368 399
368 402
368 410
368 417
369 327
369 337
369 355
369 356
369 368
369 371
369 399
369 402
370 329
370 336
370 353
370 357
370 359
370 373
370 375
370 378
370 391
370 392
370 394
370 412
370 415
371 328
371 337
371 343
371 355
371 364
371 368
371 369
371 374
371 398
371 399
371 402
371 410
371 417
372 331
372 338
372 350
372 351
372 358
372 379
372 384
372 387
372 393
372 397
372 406
372 414
373 333
373 336
373 357
373 359
373 366
373 370
373 388
373 391
373 392
373 394
373 405
373 415
373 423
374 328
374 341
374 343
374 355
374 364
374 367
374 368
374 371
374 398
374 399
374 401
374 410
374 416
375 329
375 334
375 346
375 353
375 370
375 378
375 392
375 395
375 412
375 418
376 330
376 335
376 342
376 352
376 354
376 361
376 377
376 382
376 383
376 396
376 409
376 420
376 421
377 332
377 349
377 352
377 354
377 365
377 376
377 383
377 389
377 409
377 413
378 334
378 345
378 346
378 353
378 362
378 370
378 375
378 380
378 392
378 395
378 403
378 412
378 418
379 340
379 351
379 360
379 366
379 372
379 384
379 388
379 400
379 405
379 406
379 414
380 345
380 346
380 347
380 362
380 363
380 378
380 386
380 390
380 395
380 403
380 407
380 408
380 418
380 422
381 339
381 350
381 358
381 387
381 397
381 419
381 432
382 342
382 344
382 361
382 364
382 367
382 376
382 385
382 396
382 401
382 404
382 420
382 431
383 349
383 352
383 354
383 365
383 376
383 377
383 396
383 409
383 413
383 421
383 430
384 331
384 351
384 358
384 360
384 372
384 379
384 388
384 393
384 400
384 406
384 414
385 341
385 342
385 344
385 361
385 364
385 367
385 382
385 396
385 398
385 401
385 404
385 416
385 420
385 431
386 345
386 347
386 348
386 362
386 363
386 380
386 389
386 390
386 403
386 407
386 408
386 411
386 422
386 434
387 338
387 350
387 358
387 372
387 381
387 393
387 397
387 406
387 419
387 425
388 340
388 357
388 359
388 360
388 366
388 373
388 379
388 384
388 391
388 394
388 400
388 405
388 423
388 426
389 348
389 349
389 363
389 365
389 377
389 386
389 390
389 408
389 409
389 411
389 413
389 429
390 347
390 348
390 362
390 363
390 365
390 380
390 386
390 389
390 403
390 407
390 408
390 411
390 429
390 434
391 357
391 359
391 366
391 370
391 373
391 388
391 392
391 394
391 400
391 405
391 415
391 423
391 426
392 353
392 359
392 370
392 373
392 375
392 378
392 391
392 394
392 395
392 412
392 415
392 423
392 424
393 351
393 358
393 372
393 384
393 387
393 397
393 406
393 414
393 419
393 425
394 357
394 359
394 366
394 370
394 373
394 388
394 391
394 392
394 405
394 415
394 423
394 424
394 426
395 346
395 362
395 375
395 378
395 380
395 392
395 403
395 407
395 412
395 418
395 422
395 433
395 438
395 446
396 354
396 376
396 382
396 383
396 385
396 404
396 409
396 420
396 421
396 431
396 435
396 444
396 450
397 350
397 358
397 372
397 381
397 387
397 393
397 406
397 419
397 425
397 432
397 439
398 364
398 367
398 371
398 374
398 385
398 399
398 401
398 410
398 416
398 417
398 428
398 436
398 440
399 355
399 368
399 369
399 371
399 374
399 398
399 402
399 410
399 416
399 417
399 427
399 428
399 436
399 441
399 445
400 360
400 366
400 379
400 384
400 388
400 391
400 405
400 406
400 414
400 426
400 442
400 443
401 361
401 364
401 367
401 374
401 382
401 385
401 398
401 404
401 410
401 416
401 420
401 428
401 431
401 440
402 368
402 369
402 371
402 399
402 410
402 417
402 427
402 441
402 445
403 362
403 378
403 380
403 386
403 390
403 395
403 407
403 408
403 412
403 418
403 422
403 433
403 434
403 438
403 446
404 361
404 367
404 382
404 385
404 396
404 401
404 416
404 420
404 431
404 440
404 444
404 451
405 366
405 373
405 379
405 388
405 391
405 394
405 400
405 414
405 415
405 423
405 426
405 442
405 447
406 372
406 379
406 384
406 387
406 393
406 397
406 400
406 414
406 419
406 425
406 443
407 362
407 380
407 386
407 390
407 395
407 403
407 408
407 411
407 418
407 422
407 429
407 434
407 438
408 363
408 380
408 386
408 389
408 390
408 403
408 407
408 411
408 413
408 422
408 429
408 434
408 438
409 376
409 377
409 383
409 389
409 396
409 413
409 421
409 430
409 435
409 437
409 449
410 368
410 371
410 374
410 398
410 399
410 401
410 402
410 416
410 417
410 428
410 436
410 441
410 445
411 363
411 365
411 386
411 389
411 390
411 407
411 408
411 413
411 429
411 430
411 434
411 437
412 370
412 375
412 378
412 392
412 395
412 403
412 415
412 418
412 424
412 433
412 446
413 365
413 377
413 383
413 389
413 408
413 409
413 411
413 421
413 429
413 430
413 437
413 449
414 372
414 379
414 384
414 393
414 400
414 405
414 406
414 425
414 442
414 443
415 370
415 373
415 391
415 392
415 394
415 405
415 412
415 423
415 424
415 426
415 447
415 448
416 364
416 367
416 374
416 385
416 398
416 399
416 401
416 404
416 410
416 428
416 431
416 436
416 440
417 368
417 371
417 398
417 399
417 402
417 410
417 427
417 428
417 436
417 441
417 445
418 375
418 378
418 380
418 395
418 403
418 407
418 412
418 422
418 424
418 433
418 438
418 446
419 381
419 387
419 393
419 397
419 406
419 425
419 432
419 439
420 376
420 382
420 385
420 396
420 401
420 404
420 421
420 431
420 435
420 444
420 450
420 451
421 376
421 383
421 396
421 409
421 413
421 420
421 430
421 435
421 444
421 449
421 450
422 380
422 386
422 395
422 403
422 407
422 408
422 418
422 429
422 433
422 434
422 438
422 446
423 373
423 388
423 391
423 392
423 394
423 405
423 415
423 424
423 426
423 447
423 448
424 392
424 394
424 412
424 415
424 418
424 423
424 433
424 448
425 387
425 393
425 397
425 406
425 414
425 419
425 432
425 439
425 443
426 388
426 391
426 394
426 400
426 405
426 415
426 423
426 442
426 447
426 448
427 399
427 402
427 417
427 441
427 445
428 398
428 399
428 401
428 410
428 416
428 417
428 431
428 436
428 440
428 445
429 389
429 390
429 407
429 408
429 411
429 413
429 422
429 434
429 437
430 383
430 409
430 411
430 413
430 421
430 435
430 437
430 449
430 450
431 382
431 385
431 396
431 401
431 404
431 416
431 420
431 428
431 435
431 440
431 444
431 450
431 451
432 381
432 397
432 419
432 425
432 439
433 395
433 403
433 412
433 418
433 422
433 424
433 438
433 446
434 386
434 390
434 403
434 407
434 408
434 411
434 422
434 429
434 438
435 396
435 409
435 420
435 421
435 430
435 431
435 444
435 449
435 450
436 398
436 399
436 410
436 416
436 417
436 428
436 441
436 445
437 409
437 411
437 413
437 429
437 430
437 449
438 395
438 403
438 407
438 408
438 418
438 422
438 433
438 434
438 446
439 397
439 419
439 425
439 432
440 398
440 401
440 404
440 416
440 428
440 431
440 444
440 451
441 399
441 402
441 410
441 417
441 427
441 436
441 445
442 400
442 405
442 414
442 426
442 443
442 447
443 400
443 406
443 414
443 425
443 442
444 396
444 404
444 420
444 421
444 431
444 435
444 440
444 450
444 451
445 399
445 402
445 410
445 417
445 427
445 428
445 436
445 441
446 395
446 403
446 412
446 418
446 422
446 433
446 438
447 405
447 415
447 423
447 426
447 442
447 448
448 415
448 423
448 424
448 426
448 447
449 409
449 413
449 421
449 430
449 435
449 437
449 450
450 396
450 420
450 421
450 430
450 431
450 435
450 444
450 449
450 451
451 404
451 420
451 431
451 440
451 444
451 450
