1 2
1 4
1 27
1 28
1 29
1 31
1 40
1 48
1 53
1 54
1 59
1 66
2 1
2 4
2 8
2 23
2 27
2 31
2 36
2 40
2 51
2 52
3 13
3 17
3 24
3 25
3 28
3 47
3 48
3 49
3 50
4 1
4 2
4 8
4 23
4 27
4 29
4 31
4 40
4 53
4 54
4 59
5 13
5 18
5 19
5 20
5 21
5 34
5 37
5 41
5 44
5 55
5 60
6 11
6 12
6 14
6 15
6 16
6 32
6 33
6 39
6 43
6 57
6 68
7 8
7 14
7 16
7 22
7 23
7 33
7 36
7 46
7 51
8 2
8 4
8 7
8 22
8 23
8 27
8 36
8 40
8 51
8 52
9 10
9 18
9 30
9 35
9 38
9 42
9 56
9 58
10 9
10 30
10 35
10 42
10 56
10 58
10 67
11 6
11 12
11 15
11 26
11 32
11 43
11 61
11 65
11 70
12 6
12 11
12 15
12 16
12 32
12 39
12 43
12 61
12 68
12 73
13 3
13 5
13 17
13 19
13 20
13 25
13 44
13 45
13 47
13 63
14 6
14 7
14 16
14 22
14 32
14 33
14 36
14 39
14 46
14 51
14 57
14 72
14 78
15 6
15 11
15 12
15 26
15 32
15 39
15 43
15 61
15 65
15 70
15 73
16 6
16 7
16 12
16 14
16 22
16 32
16 33
16 39
16 43
16 46
16 57
16 68
16 77
17 3
17 13
17 19
17 24
17 25
17 44
17 45
17 47
17 49
17 50
17 63
17 80
18 5
18 9
18 21
18 30
18 34
18 35
18 37
18 38
18 41
18 55
18 58
18 62
18 64
19 5
19 13
19 17
19 20
19 34
19 44
19 45
19 47
19 60
19 63
19 84
20 5
20 13
20 19
20 21
20 34
20 41
20 44
20 45
20 55
20 60
20 63
20 81
20 84
21 5
21 18
21 20
21 34
21 37
21 38
21 41
21 55
21 60
21 62
21 76
21 85
22 7
22 8
22 14
22 16
22 23
22 33
22 36
22 46
22 51
22 52
22 57
22 72
22 74
22 78
23 2
23 4
23 7
23 8
23 22
23 27
23 31
23 36
23 40
23 51
23 52
23 59
23 69
23 71
23 74
24 3
24 17
24 25
24 28
24 29
24 47
24 48
24 49
24 50
24 53
24 75
25 3
25 13
25 17
25 24
25 28
25 45
25 47
25 48
25 49
25 50
25 75
25 80
26 11
26 15
26 43
26 61
26 65
26 70
27 1
27 2
27 4
27 8
27 23
27 29
27 31
27 40
27 52
27 53
27 54
27 59
27 66
27 69
27 71
27 82
27 89
28 1
28 3
28 24
28 25
28 29
28 31
28 48
28 49
28 50
28 53
28 54
28 66
28 75
29 1
29 4
29 24
29 27
29 28
29 31
29 40
29 48
29 49
29 53
29 54
29 59
29 66
29 79
29 82
30 9
30 10
30 18
30 35
30 37
30 38
30 42
30 56
30 58
30 62
30 64
30 67
30 86
30 87
30 90
31 1
31 2
31 4
31 23
31 27
31 28
31 29
31 40
31 48
31 52
31 53
31 54
31 59
31 66
31 69
31 79
31 82
32 6
32 11
32 12
32 14
32 15
32 16
32 33
32 39
32 43
32 57
32 61
32 68
32 73
32 77
33 6
33 7
33 14
33 16
33 22
33 32
33 39
33 46
33 51
33 57
33 68
33 72
33 77
33 78
33 91
34 5
34 18
34 19
34 20
34 21
34 37
34 41
34 44
34 55
34 60
34 62
34 63
34 76
34 81
34 92
34 93
35 9
35 10
35 18
35 30
35 37
35 38
35 42
35 56
35 58
35 62
35 64
35 67
35 86
35 90
36 2
36 7
36 8
36 14
36 22
36 23
36 40
36 46
36 51
36 52
36 69
36 71
36 72
36 74
37 5
37 18
37 21
37 30
37 34
37 35
37 38
37 41
37 55
37 58
37 60
37 62
37 64
37 76
37 85
37 87
38 9
38 18
38 21
38 30
38 35
38 37
38 41
38 55
38 56
38 58
38 62
38 64
38 76
38 85
38 87
38 90
39 6
39 12
39 14
39 15
39 16
39 32
39 33
39 43
39 46
39 57
39 61
39 68
39 73
39 77
39 78
39 91
40 1
40 2
40 4
40 8
40 23
40 27
40 29
40 31
40 36
40 51
40 52
40 54
40 59
40 66
40 69
40 71
40 82
40 89
40 97
41 5
41 18
41 20
41 21
41 34
41 37
41 38
41 55
41 60
41 62
41 64
41 76
41 81
41 85
41 87
41 92
41 93
42 9
42 10
42 30
42 35
42 56
42 58
42 67
42 86
42 101
43 6
43 11
43 12
43 15
43 16
43 26
43 32
43 39
43 57
43 61
43 65
43 68
43 70
43 73
43 77
43 88
43 95
44 5
44 13
44 17
44 19
44 20
44 34
44 45
44 47
44 55
44 60
44 63
44 80
44 81
44 83
44 84
44 93
44 98
44 99
45 13
45 17
45 19
45 20
45 25
45 44
45 47
45 50
45 60
45 63
45 80
45 81
45 83
45 84
45 94
45 98
45 99
46 7
46 14
46 16
46 22
46 33
46 36
46 39
46 51
46 57
46 72
46 74
46 78
46 91
47 3
47 13
47 17
47 19
47 24
47 25
47 44
47 45
47 49
47 50
47 63
47 75
47 80
47 83
47 84
47 94
47 98
47 105
48 1
48 3
48 24
48 25
48 28
48 29
48 31
48 49
48 50
48 53
48 54
48 66
48 75
48 79
48 100
48 102
49 3
49 17
49 24
49 25
49 28
49 29
49 47
49 48
49 50
49 53
49 54
49 66
49 75
49 79
49 100
49 102
49 105
50 3
50 17
50 24
50 25
50 28
50 45
50 47
50 48
50 49
50 63
50 75
50 80
50 83
50 94
50 100
50 105
51 2
51 7
51 8
51 14
51 22
51 23
51 33
51 36
51 40
51 46
51 52
51 69
51 71
51 72
51 74
51 78
51 97
51 111
52 2
52 8
52 22
52 23
52 27
52 31
52 36
52 40
52 51
52 59
52 69
52 71
52 72
52 74
52 89
52 97
52 111
52 112
53 1
53 4
53 24
53 27
53 28
53 29
53 31
53 48
53 49
53 54
53 59
53 66
53 75
53 79
53 82
53 100
53 102
53 107
54 1
54 4
54 27
54 28
54 29
54 31
54 40
54 48
54 49
54 53
54 59
54 66
54 69
54 75
54 79
54 82
54 89
54 102
54 107
54 110
55 5
55 18
55 20
55 21
55 34
55 37
55 38
55 41
55 44
55 60
55 62
55 64
55 76
55 81
55 84
55 85
55 87
55 92
55 93
55 104
56 9
56 10
56 30
56 35
56 38
56 42
56 58
56 64
56 67
56 86
56 87
56 90
56 101
56 106
56 108
57 6
57 14
57 16
57 22
57 32
57 33
57 39
57 43
57 46
57 68
57 72
57 73
57 77
57 78
57 91
57 95
57 115
58 9
58 10
58 18
58 30
58 35
58 37
58 38
58 42
58 56
58 62
58 64
58 67
58 86
58 87
58 90
58 101
58 103
58 106
58 108
59 1
59 4
59 23
59 27
59 29
59 31
59 40
59 52
59 53
59 54
59 66
59 69
59 71
59 79
59 82
59 89
59 97
59 107
59 110
60 5
60 19
60 20
60 21
60 34
60 37
60 41
60 44
60 45
60 55
60 63
60 76
60 81
60 83
60 84
60 85
60 92
60 93
60 99
60 114
61 11
61 12
61 15
61 26
61 32
61 39
61 43
61 65
61 68
61 70
61 73
61 77
61 88
61 95
61 96
61 109
61 113
62 18
62 21
62 30
62 34
62 35
62 37
62 38
62 41
62 55
62 58
62 64
62 76
62 85
62 87
62 90
62 92
62 103
62 104
62 106
62 125
63 13
63 17
63 19
63 20
63 34
63 44
63 45
63 47
63 50
63 60
63 80
63 81
63 83
63 84
63 93
63 94
63 98
63 99
63 114
63 122
64 18
64 30
64 35
64 37
64 38
64 41
64 55
64 56
64 58
64 62
64 67
64 76
64 85
64 86
64 87
64 90
64 103
64 104
64 106
64 108
64 126
65 11
65 15
65 26
65 43
65 61
65 70
65 88
65 96
65 109
65 113
66 1
66 27
66 28
66 29
66 31
66 40
66 48
66 49
66 53
66 54
66 59
66 69
66 75
66 79
66 82
66 89
66 102
66 107
66 110
66 130
67 10
67 30
67 35
67 42
67 56
67 58
67 64
67 86
67 90
67 101
67 106
67 108
67 118
68 6
68 12
68 16
68 32
68 33
68 39
68 43
68 57
68 61
68 73
68 77
68 78
68 88
68 91
68 95
68 115
69 23
69 27
69 31
69 36
69 40
69 51
69 52
69 54
69 59
69 66
69 71
69 74
69 79
69 82
69 89
69 97
69 110
69 111
69 112
70 11
70 15
70 26
70 43
70 61
70 65
70 73
70 88
70 95
70 96
70 109
70 113
71 23
71 27
71 36
71 40
71 51
71 52
71 59
71 69
71 72
71 74
71 82
71 89
71 97
71 110
71 111
71 112
71 116
71 136
72 14
72 22
72 33
72 36
72 46
72 51
72 52
72 57
72 71
72 74
72 78
72 91
72 111
72 116
72 117
72 119
73 12
73 15
73 32
73 39
73 43
73 57
73 61
73 68
73 70
73 77
73 88
73 91
73 95
73 96
73 109
73 115
74 22
74 23
74 36
74 46
74 51
74 52
74 69
74 71
74 72
74 78
74 89
74 97
74 111
74 112
74 116
74 117
75 24
75 25
75 28
75 47
75 48
75 49
75 50
75 53
75 54
75 66
75 79
75 80
75 94
75 100
75 102
75 105
75 107
75 120
75 121
75 124
75 139
76 21
76 34
76 37
76 38
76 41
76 55
76 60
76 62
76 64
76 81
76 85
76 87
76 92
76 93
76 103
76 104
76 123
76 125
76 126
76 127
76 135
77 16
77 32
77 33
77 39
77 43
77 57
77 61
77 68
77 73
77 78
77 88
77 91
77 95
77 115
77 119
77 133
77 138
77 140
78 14
78 22
78 33
78 39
78 46
78 51
78 57
78 68
78 72
78 74
78 77
78 91
78 115
78 116
78 117
78 119
78 133
79 29
79 31
79 48
79 49
79 53
79 54
79 59
79 66
79 69
79 75
79 82
79 89
79 100
79 102
79 107
79 110
79 120
79 124
79 130
79 144
80 17
80 25
80 44
80 45
80 47
80 50
80 63
80 75
80 81
80 83
80 84
80 94
80 98
80 99
80 105
80 121
80 122
80 128
80 141
81 20
81 34
81 41
81 44
81 45
81 55
81 60
81 63
81 76
81 80
81 83
81 84
81 92
81 93
81 98
81 99
81 104
81 114
81 122
81 127
81 134
81 135
82 27
82 29
82 31
82 40
82 53
82 54
82 59
82 66
82 69
82 71
82 79
82 89
82 97
82 102
82 107
82 110
82 112
82 124
82 130
82 132
82 145
83 44
83 45
83 47
83 50
83 60
83 63
83 80
83 81
83 84
83 93
83 94
83 98
83 99
83 105
83 114
83 121
83 122
83 128
83 134
83 141
84 19
84 20
84 44
84 45
84 47
84 55
84 60
84 63
84 80
84 81
84 83
84 92
84 93
84 94
84 98
84 99
84 114
84 122
84 134
85 21
85 37
85 38
85 41
85 55
85 60
85 62
85 64
85 76
85 87
85 90
85 92
85 93
85 103
85 104
85 106
85 123
85 125
85 126
85 127
85 129
85 135
85 142
85 148
86 30
86 35
86 42
86 56
86 58
86 64
86 67
86 87
86 90
86 101
86 106
86 108
86 118
86 129
86 131
86 137
87 30
87 37
87 38
87 41
87 55
87 56
87 58
87 62
87 64
87 76
87 85
87 86
87 90
87 92
87 101
87 103
87 104
87 106
87 108
87 123
87 125
87 126
87 129
87 142
88 43
88 61
88 65
88 68
88 70
88 73
88 77
88 95
88 96
88 109
88 113
88 138
88 143
89 27
89 40
89 52
89 54
89 59
89 66
89 69
89 71
89 74
89 79
89 82
89 97
89 107
89 110
89 111
89 112
89 132
89 136
89 151
90 30
90 35
90 38
90 56
90 58
90 62
90 64
90 67
90 85
90 86
90 87
90 101
90 103
90 104
90 106
90 108
90 118
90 125
90 126
90 129
90 137
90 142
90 153
91 33
91 39
91 46
91 57
91 68
91 72
91 73
91 77
91 78
91 95
91 115
91 117
91 119
91 133
91 138
91 140
92 34
92 41
92 55
92 60
92 62
92 76
92 81
92 84
92 85
92 87
92 93
92 99
92 103
92 104
92 114
92 123
92 125
92 126
92 127
92 135
92 148
92 150
93 34
93 41
93 44
93 55
93 60
93 63
93 76
93 81
93 83
93 84
93 85
93 92
93 98
93 99
93 104
93 114
93 123
93 127
93 134
93 135
93 150
94 45
94 47
94 50
94 63
94 75
94 80
94 83
94 84
94 98
94 99
94 100
94 105
94 121
94 122
94 128
94 141
94 155
95 43
95 57
95 61
95 68
95 70
95 73
95 77
95 88
95 91
95 96
95 109
95 113
95 115
95 133
95 138
95 140
95 143
96 61
96 65
96 70
96 73
96 88
96 95
96 109
96 113
96 154
97 40
97 51
97 52
97 59
97 69
97 71
97 74
97 82
97 89
97 110
97 111
97 112
97 116
97 132
97 136
97 149
97 151
97 152
97 156
98 44
98 45
98 47
98 63
98 80
98 81
98 83
98 84
98 93
98 94
98 99
98 105
98 114
98 121
98 122
98 128
98 134
98 141
98 160
99 44
99 45
99 60
99 63
99 80
99 81
99 83
99 84
99 92
99 93
99 94
99 98
99 114
99 122
99 128
99 134
99 141
99 157
100 48
100 49
100 50
100 53
100 75
100 79
100 94
100 102
100 105
100 107
100 120
100 121
100 124
100 128
100 130
100 139
100 144
100 167
101 42
101 56
101 58
101 67
101 86
101 87
101 90
101 106
101 108
101 118
101 129
101 131
101 137
101 146
101 158
102 48
102 49
102 53
102 54
102 66
102 75
102 79
102 82
102 100
102 105
102 107
102 110
102 120
102 124
102 130
102 139
102 144
102 145
103 58
103 62
103 64
103 76
103 85
103 87
103 90
103 92
103 104
103 106
103 108
103 118
103 123
103 125
103 126
103 127
103 129
103 142
103 148
103 153
104 55
104 62
104 64
104 76
104 81
104 85
104 87
104 90
104 92
104 93
104 103
104 106
104 123
104 125
104 126
104 127
104 129
104 135
104 142
104 148
104 150
105 47
105 49
105 50
105 75
105 80
105 83
105 94
105 98
105 100
105 102
105 120
105 121
105 122
105 128
105 139
105 141
105 155
105 163
106 56
106 58
106 62
106 64
106 67
106 85
106 86
106 87
106 90
106 101
106 103
106 104
106 108
106 118
106 123
106 125
106 126
106 129
106 131
106 137
106 142
106 153
106 158
106 170
107 53
107 54
107 59
107 66
107 75
107 79
107 82
107 89
107 100
107 102
107 110
107 120
107 124
107 130
107 132
107 139
107 144
107 145
108 56
108 58
108 64
108 67
108 86
108 87
108 90
108 101
108 103
108 106
108 118
108 125
108 126
108 129
108 131
108 137
108 142
108 146
108 153
108 158
108 170
109 61
109 65
109 70
109 73
109 88
109 95
109 96
109 113
109 138
109 143
109 154
109 159
110 54
110 59
110 66
110 69
110 71
110 79
110 82
110 89
110 97
110 102
110 107
110 112
110 124
110 130
110 132
110 136
110 144
110 145
110 151
110 152
111 51
111 52
111 69
111 71
111 72
111 74
111 89
111 97
111 112
111 116
111 117
111 119
111 132
111 136
111 149
111 152
111 156
111 162
112 52
112 69
112 71
112 74
112 82
112 89
112 97
112 110
112 111
112 116
112 132
112 136
112 145
112 149
112 151
112 152
112 156
112 178
113 61
113 65
113 70
113 88
113 95
113 96
113 109
113 143
113 154
113 159
114 60
114 63
114 81
114 83
114 84
114 92
114 93
114 98
114 99
114 122
114 127
114 134
114 135
114 141
114 150
114 157
114 166
114 168
115 57
115 68
115 73
115 77
115 78
115 91
115 95
115 119
115 133
115 138
115 140
115 143
115 147
115 161
115 164
115 172
115 180
115 181
116 71
116 72
116 74
116 78
116 97
116 111
116 112
116 117
116 119
116 136
116 147
116 149
116 152
116 156
116 162
116 165
117 72
117 74
117 78
117 91
117 111
117 116
117 119
117 133
117 147
117 149
117 156
117 161
117 162
117 165
118 67
118 86
118 90
118 101
118 103
118 106
118 108
118 126
118 129
118 131
118 137
118 142
118 146
118 153
118 158
118 170
118 182
118 191
119 72
119 77
119 78
119 91
119 111
119 115
119 116
119 117
119 133
119 140
119 147
119 149
119 161
119 162
119 164
119 165
119 181
119 193
120 75
120 79
120 100
120 102
120 105
120 107
120 121
120 124
120 128
120 130
120 139
120 144
120 145
120 155
120 163
120 167
120 175
120 176
121 75
121 80
121 83
121 94
121 98
121 100
121 105
121 120
121 122
121 124
121 128
121 139
121 141
121 155
121 160
121 163
121 167
121 174
122 63
122 80
122 81
122 83
122 84
122 94
122 98
122 99
122 105
122 114
122 121
122 128
122 134
122 141
122 155
122 157
122 160
122 168
122 174
122 185
123 76
123 85
123 87
123 92
123 93
123 103
123 104
123 106
123 125
123 126
123 127
123 129
123 135
123 142
123 148
123 150
123 153
123 166
123 169
123 171
123 173
123 184
124 75
124 79
124 82
124 100
124 102
124 107
124 110
124 120
124 121
124 130
124 139
124 144
124 145
124 163
124 167
124 175
124 176
124 177
125 62
125 76
125 85
125 87
125 90
125 92
125 103
125 104
125 106
125 108
125 123
125 126
125 127
125 129
125 135
125 142
125 148
125 150
125 153
125 169
125 171
125 173
125 184
126 64
126 76
126 85
126 87
126 90
126 92
126 103
126 104
126 106
126 108
126 118
126 123
126 125
126 127
126 129
126 135
126 137
126 142
126 148
126 150
126 153
126 169
126 170
126 171
126 173
126 184
126 190
127 76
127 81
127 85
127 92
127 93
127 103
127 104
127 114
127 123
127 125
127 126
127 134
127 135
127 142
127 148
127 150
127 157
127 166
127 169
127 171
127 173
127 184
127 187
128 80
128 83
128 94
128 98
128 99
128 100
128 105
128 120
128 121
128 122
128 134
128 139
128 141
128 155
128 160
128 163
128 168
128 174
129 85
129 86
129 87
129 90
129 101
129 103
129 104
129 106
129 108
129 118
129 123
129 125
129 126
129 131
129 137
129 142
129 146
129 148
129 153
129 158
129 169
129 170
129 171
129 182
129 190
130 66
130 79
130 82
130 100
130 102
130 107
130 110
130 120
130 124
130 132
130 139
130 144
130 145
130 151
130 167
130 175
130 176
130 177
130 179
131 86
131 101
131 106
131 108
131 118
131 129
131 137
131 146
131 158
131 170
131 182
131 189
131 191
132 82
132 89
132 97
132 107
132 110
132 111
132 112
132 130
132 136
132 144
132 145
132 151
132 152
132 156
132 177
132 178
132 179
132 194
133 77
133 78
133 91
133 95
133 115
133 117
133 119
133 138
133 140
133 143
133 147
133 161
133 162
133 164
133 165
133 180
133 181
133 193
134 81
134 83
134 84
134 93
134 98
134 99
134 114
134 122
134 127
134 128
134 135
134 141
134 150
134 157
134 160
134 166
134 168
134 174
134 185
134 186
135 76
135 81
135 85
135 92
135 93
135 104
135 114
135 123
135 125
135 126
135 127
135 134
135 142
135 148
135 150
135 157
135 166
135 171
135 173
135 184
135 186
135 187
136 71
136 89
136 97
136 110
136 111
136 112
136 116
136 132
136 145
136 149
136 151
136 152
136 156
136 178
136 179
136 194
136 196
136 197
137 86
137 90
137 101
137 106
137 108
137 118
137 126
137 129
137 131
137 142
137 146
137 153
137 158
137 169
137 170
137 182
137 189
137 190
137 191
138 77
138 88
138 91
138 95
138 109
138 115
138 133
138 140
138 143
138 154
138 159
138 161
138 164
138 172
138 180
138 181
138 188
139 75
139 100
139 102
139 105
139 107
139 120
139 121
139 124
139 128
139 130
139 144
139 155
139 163
139 167
139 174
139 175
139 176
139 177
139 195
139 199
140 77
140 91
140 95
140 115
140 119
140 133
140 138
140 143
140 147
140 159
140 161
140 164
140 165
140 172
140 180
140 181
140 188
141 80
141 83
141 94
141 98
141 99
141 105
141 114
141 121
141 122
141 128
141 134
141 155
141 157
141 160
141 163
141 168
141 174
141 185
141 198
141 207
142 85
142 87
142 90
142 103
142 104
142 106
142 108
142 118
142 123
142 125
142 126
142 127
142 129
142 135
142 137
142 148
142 150
142 153
142 158
142 169
142 170
142 171
142 173
142 182
142 184
142 190
142 203
142 208
142 212
143 88
143 95
143 109
143 113
143 115
143 133
143 138
143 140
143 154
143 159
143 164
143 172
143 180
143 181
143 183
143 188
143 201
144 79
144 100
144 102
144 107
144 110
144 120
144 124
144 130
144 132
144 139
144 145
144 151
144 163
144 167
144 175
144 176
144 177
144 179
144 199
144 200
144 206
145 82
145 102
145 107
145 110
145 112
145 120
145 124
145 130
145 132
145 136
145 144
145 151
145 152
145 175
145 176
145 177
145 178
145 179
145 194
145 200
145 206
146 101
146 108
146 118
146 129
146 131
146 137
146 153
146 158
146 170
146 182
146 189
146 191
146 209
146 216
147 115
147 116
147 117
147 119
147 133
147 140
147 149
147 161
147 162
147 164
147 165
147 181
147 192
147 193
147 202
147 205
147 214
148 85
148 92
148 103
148 104
148 123
148 125
148 126
148 127
148 129
148 135
148 142
148 150
148 153
148 157
148 166
148 169
148 171
148 173
148 184
148 187
148 190
148 203
148 208
149 97
149 111
149 112
149 116
149 117
149 119
149 136
149 147
149 151
149 152
149 156
149 162
149 165
149 178
149 192
149 193
149 196
149 197
149 202
149 205
150 92
150 93
150 104
150 114
150 123
150 125
150 126
150 127
150 134
150 135
150 142
150 148
150 157
150 166
150 169
150 171
150 173
150 184
150 185
150 186
150 187
150 208
150 211
151 89
151 97
151 110
151 112
151 130
151 132
151 136
151 144
151 145
151 149
151 152
151 156
151 175
151 177
151 178
151 179
151 194
151 196
151 197
151 206
152 97
152 110
152 111
152 112
152 116
152 132
152 136
152 145
152 149
152 151
152 156
152 177
152 178
152 179
152 194
152 196
152 197
152 202
153 90
153 103
153 106
153 108
153 118
153 123
153 125
153 126
153 129
153 137
153 142
153 146
153 148
153 158
153 169
153 170
153 171
153 173
153 182
153 184
153 190
153 191
153 203
153 212
153 213
153 217
154 96
154 109
154 113
154 138
154 143
154 159
154 172
154 180
154 183
154 188
154 201
154 210
155 94
155 105
155 120
155 121
155 122
155 128
155 139
155 141
155 160
155 163
155 167
155 168
155 174
155 195
155 198
155 219
155 220
156 97
156 111
156 112
156 116
156 117
156 132
156 136
156 149
156 151
156 152
156 162
156 178
156 179
156 192
156 194
156 196
156 197
156 202
156 205
156 225
157 99
157 114
157 122
157 127
157 134
157 135
157 141
157 148
157 150
157 160
157 166
157 168
157 173
157 185
157 186
157 187
157 204
157 207
157 211
157 221
158 101
158 106
158 108
158 118
158 129
158 131
158 137
158 142
158 146
158 153
158 169
158 170
158 182
158 189
158 190
158 191
158 209
158 212
158 213
158 216
159 109
159 113
159 138
159 140
159 143
159 154
159 172
159 180
159 183
159 188
159 201
159 210
159 222
160 98
160 121
160 122
160 128
160 134
160 141
160 155
160 157
160 163
160 168
160 174
160 185
160 186
160 195
160 198
160 204
160 207
160 219
160 224
161 115
161 117
161 119
161 133
161 138
161 140
161 147
161 162
161 164
161 165
161 172
161 180
161 181
161 192
161 193
161 205
161 214
161 215
161 218
162 111
162 116
162 117
162 119
162 133
162 147
162 149
162 156
162 161
162 165
162 181
162 192
162 193
162 197
162 202
162 205
162 214
163 105
163 120
163 121
163 124
163 128
163 139
163 141
163 144
163 155
163 160
163 167
163 174
163 175
163 176
163 195
163 198
163 199
163 219
163 220
164 115
164 119
164 133
164 138
164 140
164 143
164 147
164 161
164 165
164 172
164 180
164 181
164 188
164 193
164 214
164 215
164 218
164 226
165 116
165 117
165 119
165 133
165 140
165 147
165 149
165 161
165 162
165 164
165 181
165 192
165 193
165 202
165 205
165 214
165 215
166 114
166 123
166 127
166 134
166 135
166 148
166 150
166 157
166 168
166 171
166 173
166 184
166 185
166 186
166 187
166 204
166 207
166 208
166 211
166 221
166 228
166 232
167 100
167 120
167 121
167 124
167 130
167 139
167 144
167 155
167 163
167 174
167 175
167 176
167 177
167 195
167 199
167 200
167 220
168 114
168 122
168 128
168 134
168 141
168 155
168 157
168 160
168 166
168 174
168 185
168 186
168 187
168 198
168 204
168 207
168 211
168 224
168 230
169 123
169 125
169 126
169 127
169 129
169 137
169 142
169 148
169 150
169 153
169 158
169 170
169 171
169 173
169 182
169 184
169 187
169 190
169 191
169 203
169 208
169 212
169 213
169 217
169 228
169 229
169 234
170 106
170 108
170 118
170 126
170 129
170 131
170 137
170 142
170 146
170 153
170 158
170 169
170 171
170 182
170 189
170 190
170 191
170 203
170 209
170 212
170 213
170 216
170 217
170 233
170 234
171 123
171 125
171 126
171 127
171 129
171 135
171 142
171 148
171 150
171 153
171 166
171 169
171 170
171 173
171 184
171 187
171 190
171 203
171 208
171 212
171 217
171 228
171 229
172 115
172 138
172 140
172 143
172 154
172 159
172 161
172 164
172 180
172 181
172 183
172 188
172 201
172 218
172 222
172 226
173 123
173 125
173 126
173 127
173 135
173 142
173 148
173 150
173 153
173 157
173 166
173 169
173 171
173 184
173 186
173 187
173 190
173 203
173 208
173 211
173 217
173 221
173 228
173 229
174 121
174 122
174 128
174 134
174 139
174 141
174 155
174 160
174 163
174 167
174 168
174 185
174 195
174 198
174 207
174 219
174 220
174 224
174 235
175 120
175 124
175 130
175 139
175 144
175 145
175 151
175 163
175 167
175 176
175 177
175 179
175 195
175 199
175 200
175 206
175 223
175 238
175 239
176 120
176 124
176 130
176 139
176 144
176 145
176 163
176 167
176 175
176 177
176 179
176 195
176 199
176 200
176 206
176 220
176 223
176 239
177 124
177 130
177 132
177 139
177 144
177 145
177 151
177 152
177 167
177 175
177 176
177 178
177 179
177 194
177 199
177 200
177 206
177 223
177 227
177 238
178 112
178 132
178 136
178 145
178 149
178 151
178 152
178 156
178 177
178 179
178 194
178 196
178 197
178 202
178 206
178 223
178 225
178 227
178 237
179 130
179 132
179 136
179 144
179 145
179 151
179 152
179 156
179 175
179 176
179 177
179 178
179 194
179 196
179 197
179 199
179 200
179 206
179 223
179 227
179 238
180 115
180 133
180 138
180 140
180 143
180 154
180 159
180 161
180 164
180 172
180 181
180 188
180 201
180 215
180 218
180 222
180 226
180 243
181 115
181 119
181 133
181 138
181 140
181 143
181 147
181 161
181 162
181 164
181 165
181 172
181 180
181 188
181 192
181 193
181 205
181 214
181 215
181 218
181 226
181 243
182 118
182 129
182 131
182 137
182 142
182 146
182 153
182 158
182 169
182 170
182 189
182 190
182 191
182 203
182 209
182 212
182 213
182 216
182 217
182 233
182 234
182 241
183 143
183 154
183 159
183 172
183 188
183 201
183 210
183 222
183 231
183 245
184 123
184 125
184 126
184 127
184 135
184 142
184 148
184 150
184 153
184 166
184 169
184 171
184 173
184 186
184 187
184 190
184 203
184 208
184 211
184 212
184 217
184 221
184 228
184 229
184 241
184 246
184 248
184 249
185 122
185 134
185 141
185 150
185 157
185 160
185 166
185 168
185 174
185 186
185 187
185 198
185 204
185 207
185 211
185 221
185 224
185 230
185 232
185 244
185 253
186 134
186 135
186 150
186 157
186 160
186 166
186 168
186 173
186 184
186 185
186 187
186 204
186 207
186 208
186 211
186 221
186 224
186 228
186 230
186 232
186 244
186 246
186 253
187 127
187 135
187 148
187 150
187 157
187 166
187 168
187 169
187 171
187 173
187 184
187 185
187 186
187 203
187 204
187 207
187 208
187 211
187 221
187 228
187 229
187 230
187 232
187 244
187 246
187 249
188 138
188 140
188 143
188 154
188 159
188 164
188 172
188 180
188 181
188 183
188 201
188 215
188 218
188 222
188 226
188 231
189 131
189 137
189 146
189 158
189 170
189 182
189 190
189 191
189 209
189 212
189 213
189 216
189 233
190 126
190 129
190 137
190 142
190 148
190 153
190 158
190 169
190 170
190 171
190 173
190 182
190 184
190 189
190 191
190 203
190 208
190 209
190 212
190 213
190 216
190 217
190 229
190 233
190 234
190 241
190 248
191 118
191 131
191 137
191 146
191 153
191 158
191 169
191 170
191 182
191 189
191 190
191 209
191 212
191 213
191 216
191 217
191 233
191 234
191 241
192 147
192 149
192 156
192 161
192 162
192 165
192 181
192 193
192 196
192 197
192 202
192 205
192 214
192 215
192 225
192 236
192 240
192 247
193 119
193 133
193 147
193 149
193 161
193 162
193 164
193 165
193 181
193 192
193 197
193 202
193 205
193 214
193 215
193 218
193 236
193 240
193 243
193 252
194 132
194 136
194 145
194 151
194 152
194 156
194 177
194 178
194 179
194 196
194 197
194 200
194 202
194 206
194 223
194 225
194 227
194 237
194 238
194 250
195 139
195 155
195 160
195 163
195 167
195 174
195 175
195 176
195 198
195 199
195 200
195 219
195 220
195 224
195 235
195 239
195 242
195 251
195 256
196 136
196 149
196 151
196 152
196 156
196 178
196 179
196 192
196 194
196 197
196 202
196 205
196 206
196 223
196 225
196 227
196 236
196 237
196 247
196 250
196 259
197 136
197 149
197 151
197 152
197 156
197 162
197 178
197 179
197 192
197 193
197 194
197 196
197 202
197 205
197 225
197 227
197 236
197 237
197 247
197 259
197 260
198 141
198 155
198 160
198 163
198 168
198 174
198 185
198 195
198 204
198 207
198 219
198 220
198 224
198 230
198 235
198 251
198 254
198 257
199 139
199 144
199 163
199 167
199 175
199 176
199 177
199 179
199 195
199 200
199 206
199 220
199 223
199 238
199 239
199 242
199 255
199 256
200 144
200 145
200 167
200 175
200 176
200 177
200 179
200 194
200 195
200 199
200 206
200 220
200 223
200 227
200 238
200 239
200 242
200 255
201 143
201 154
201 159
201 172
201 180
201 183
201 188
201 210
201 222
201 226
201 231
201 245
202 147
202 149
202 152
202 156
202 162
202 165
202 178
202 192
202 193
202 194
202 196
202 197
202 205
202 214
202 225
202 236
202 237
202 240
202 247
202 259
202 260
203 142
203 148
203 153
203 169
203 170
203 171
203 173
203 182
203 184
203 187
203 190
203 208
203 212
203 213
203 217
203 221
203 228
203 229
203 234
203 241
203 246
203 248
203 249
204 157
204 160
204 166
204 168
204 185
204 186
204 187
204 198
204 207
204 211
204 221
204 224
204 230
204 232
204 244
204 246
204 253
204 254
205 147
205 149
205 156
205 161
205 162
205 165
205 181
205 192
205 193
205 196
205 197
205 202
205 214
205 215
205 225
205 236
205 237
205 240
205 247
205 252
205 260
205 261
206 144
206 145
206 151
206 175
206 176
206 177
206 178
206 179
206 194
206 196
206 199
206 200
206 223
206 227
206 238
206 239
206 250
206 255
207 141
207 157
207 160
207 166
207 168
207 174
207 185
207 186
207 187
207 198
207 204
207 211
207 219
207 221
207 224
207 230
207 232
207 235
207 244
207 253
207 254
207 257
207 264
208 142
208 148
208 150
208 166
208 169
208 171
208 173
208 184
208 186
208 187
208 190
208 203
208 211
208 212
208 217
208 221
208 228
208 229
208 232
208 234
208 241
208 244
208 246
208 248
208 249
208 267
209 146
209 158
209 170
209 182
209 189
209 190
209 191
209 212
209 213
209 216
209 233
209 234
210 154
210 159
210 183
210 201
210 222
210 231
210 245
211 150
211 157
211 166
211 168
211 173
211 184
211 185
211 186
211 187
211 204
211 207
211 208
211 221
211 224
211 228
211 230
211 232
211 244
211 246
211 249
211 253
211 254
212 142
212 153
212 158
212 169
212 170
212 171
212 182
212 184
212 189
212 190
212 191
212 203
212 208
212 209
212 213
212 216
212 217
212 228
212 229
212 233
212 234
212 241
212 248
212 273
213 153
213 158
213 169
213 170
213 182
213 189
213 190
213 191
213 203
213 209
213 212
213 216
213 217
213 229
213 233
213 234
213 241
213 269
213 275
214 147
214 161
214 162
214 164
214 165
214 181
214 192
214 193
214 202
214 205
214 215
214 218
214 236
214 240
214 243
214 252
214 261
214 262
214 265
215 161
215 164
215 165
215 180
215 181
215 188
215 192
215 193
215 205
215 214
215 218
215 226
215 236
215 240
215 243
215 252
215 258
215 262
215 265
215 272
216 146
216 158
216 170
216 182
216 189
216 190
216 191
216 209
216 212
216 213
216 217
216 233
216 234
216 241
216 269
216 275
217 153
217 169
217 170
217 171
217 173
217 182
217 184
217 190
217 191
217 203
217 208
217 212
217 213
217 216
217 228
217 229
217 233
217 234
217 241
217 248
217 249
217 267
217 273
217 280
218 161
218 164
218 172
218 180
218 181
218 188
218 193
218 214
218 215
218 222
218 226
218 240
218 243
218 252
218 258
218 265
218 272
219 155
219 160
219 163
219 174
219 195
219 198
219 207
219 220
219 224
219 230
219 235
219 242
219 251
219 254
219 256
219 257
219 264
219 266
219 268
220 155
220 163
220 167
220 174
220 176
220 195
220 198
220 199
220 200
220 219
220 224
220 235
220 239
220 242
220 251
220 256
220 257
220 268
220 276
221 157
221 166
221 173
221 184
221 185
221 186
221 187
221 203
221 204
221 207
221 208
221 211
221 228
221 229
221 230
221 232
221 244
221 246
221 248
221 249
221 253
221 278
221 283
222 159
222 172
222 180
222 183
222 188
222 201
222 210
222 218
222 226
222 231
222 243
222 245
222 258
222 263
222 270
223 175
223 176
223 177
223 178
223 179
223 194
223 196
223 199
223 200
223 206
223 227
223 237
223 238
223 239
223 250
223 255
223 271
223 274
223 277
224 160
224 168
224 174
224 185
224 186
224 195
224 198
224 204
224 207
224 211
224 219
224 220
224 230
224 232
224 235
224 244
224 251
224 253
224 254
224 257
224 264
224 266
225 156
225 178
225 192
225 194
225 196
225 197
225 202
225 205
225 227
225 236
225 237
225 240
225 247
225 250
225 259
225 260
225 261
225 279
226 164
226 172
226 180
226 181
226 188
226 201
226 215
226 218
226 222
226 231
226 243
226 252
226 258
226 263
226 270
226 272
227 177
227 178
227 179
227 194
227 196
227 197
227 200
227 206
227 223
227 225
227 237
227 238
227 239
227 250
227 255
227 259
227 274
227 277
228 166
228 169
228 171
228 173
228 184
228 186
228 187
228 203
228 208
228 211
228 212
228 217
228 221
228 229
228 232
228 241
228 244
228 246
228 248
228 249
228 267
228 278
228 281
229 169
229 171
229 173
229 184
229 187
229 190
229 203
229 208
229 212
229 213
229 217
229 221
229 228
229 234
229 241
229 246
229 248
229 249
229 267
229 273
229 278
229 280
229 281
230 168
230 185
230 186
230 187
230 198
230 204
230 207
230 211
230 219
230 221
230 224
230 232
230 235
230 244
230 246
230 253
230 254
230 257
230 264
230 266
230 285
231 183
231 188
231 201
231 210
231 222
231 226
231 245
231 258
231 263
231 270
231 284
231 286
232 166
232 185
232 186
232 187
232 204
232 207
232 208
232 211
232 221
232 224
232 228
232 230
232 244
232 246
232 249
232 253
232 254
232 264
232 278
232 283
232 285
233 170
233 182
233 189
233 190
233 191
233 209
233 212
233 213
233 216
233 217
233 234
233 241
233 269
233 273
233 275
233 288
234 169
234 170
234 182
234 190
234 191
234 203
234 208
234 209
234 212
234 213
234 216
234 217
234 229
234 233
234 241
234 248
234 267
234 269
234 273
234 275
234 280
234 291
235 174
235 195
235 198
235 207
235 219
235 220
235 224
235 230
235 242
235 251
235 254
235 256
235 257
235 264
235 266
235 268
235 287
235 290
236 192
236 193
236 196
236 197
236 202
236 205
236 214
236 215
236 225
236 237
236 240
236 247
236 252
236 259
236 260
236 261
236 262
236 279
236 282
237 178
237 194
237 196
237 197
237 202
237 205
237 223
237 225
237 227
237 236
237 247
237 250
237 259
237 260
237 277
237 279
238 175
238 177
238 179
238 194
238 199
238 200
238 206
238 223
238 227
238 239
238 242
238 250
238 255
238 271
238 274
238 276
238 277
239 175
239 176
239 195
239 199
239 200
239 206
239 220
239 223
239 227
239 238
239 242
239 251
239 255
239 256
239 268
239 271
239 274
239 276
240 192
240 193
240 202
240 205
240 214
240 215
240 218
240 225
240 236
240 243
240 247
240 252
240 260
240 261
240 262
240 265
240 282
240 293
241 182
241 184
241 190
241 191
241 203
241 208
241 212
241 213
241 216
241 217
241 228
241 229
241 233
241 234
241 248
241 249
241 267
241 269
241 273
241 275
241 280
241 281
241 291
241 300
242 195
242 199
242 200
242 219
242 220
242 235
242 238
242 239
242 251
242 255
242 256
242 257
242 266
242 268
242 271
242 276
242 294
242 299
243 180
243 181
243 193
243 214
243 215
243 218
243 222
243 226
243 240
243 252
243 258
243 261
243 262
243 265
243 270
243 272
243 289
243 293
244 185
244 186
244 187
244 204
244 207
244 208
244 211
244 221
244 224
244 228
244 230
244 232
244 246
244 249
244 253
244 254
244 264
244 278
244 283
244 285
244 292
245 183
245 201
245 210
245 222
245 231
245 263
245 270
245 284
245 286
245 301
246 184
246 186
246 187
246 203
246 204
246 208
246 211
246 221
246 228
246 229
246 230
246 232
246 244
246 248
246 249
246 253
246 267
246 278
246 281
246 283
246 285
246 292
246 295
247 192
247 196
247 197
247 202
247 205
247 225
247 236
247 237
247 240
247 250
247 259
247 260
247 261
247 262
247 277
247 279
247 282
248 184
248 190
248 203
248 208
248 212
248 217
248 221
248 228
248 229
248 234
248 241
248 246
248 249
248 267
248 273
248 278
248 280
248 281
248 291
248 295
248 296
248 300
249 184
249 187
249 203
249 208
249 211
249 217
249 221
249 228
249 229
249 232
249 241
249 244
249 246
249 248
249 253
249 267
249 278
249 280
249 281
249 283
249 292
249 295
249 296
250 194
250 196
250 206
250 223
250 225
250 227
250 237
250 238
250 247
250 255
250 259
250 271
250 274
250 277
250 279
251 195
251 198
251 219
251 220
251 224
251 235
251 239
251 242
251 254
251 256
251 257
251 264
251 266
251 268
251 276
251 287
251 290
251 294
252 193
252 205
252 214
252 215
252 218
252 226
252 236
252 240
252 243
252 258
252 260
252 261
252 262
252 265
252 272
252 282
252 289
252 293
253 185
253 186
253 204
253 207
253 211
253 221
253 224
253 230
253 232
253 244
253 246
253 249
253 254
253 257
253 264
253 266
253 278
253 283
253 285
253 287
253 292
253 303
253 304
254 198
254 204
254 207
254 211
254 219
254 224
254 230
254 232
254 235
254 244
254 251
254 253
254 257
254 264
254 266
254 283
254 285
254 287
254 290
254 303
254 304
254 305
255 199
255 200
255 206
255 223
255 227
255 238
255 239
255 242
255 250
255 271
255 274
255 276
255 277
255 302
256 195
256 199
256 219
256 220
256 235
256 239
256 242
256 251
256 257
256 266
256 268
256 271
256 276
256 290
256 294
256 299
257 198
257 207
257 219
257 220
257 224
257 230
257 235
257 242
257 251
257 253
257 254
257 256
257 264
257 266
257 268
257 285
257 287
257 290
257 294
257 305
258 215
258 218
258 222
258 226
258 231
258 243
258 252
258 263
258 265
258 270
258 272
258 286
258 289
258 297
259 196
259 197
259 202
259 225
259 227
259 236
259 237
259 247
259 250
259 260
259 261
259 274
259 277
259 279
259 282
259 310
259 311
260 197
260 202
260 205
260 225
260 236
260 237
260 240
260 247
260 252
260 259
260 261
260 262
260 279
260 282
260 311
261 205
261 214
261 225
261 236
261 240
261 243
261 247
261 252
261 259
261 260
261 262
261 265
261 279
261 282
261 293
261 315
262 214
262 215
262 236
262 240
262 243
262 247
262 252
262 260
262 261
262 265
262 272
262 282
262 289
262 293
263 222
263 226
263 231
263 245
263 258
263 270
263 284
263 286
263 297
263 301
264 207
264 219
264 224
264 230
264 232
264 235
264 244
264 251
264 253
264 254
264 257
264 266
264 268
264 283
264 285
264 287
264 290
264 303
264 304
264 305
264 314
264 317
265 214
265 215
265 218
265 240
265 243
265 252
265 258
265 261
265 262
265 272
265 282
265 289
265 293
265 297
266 219
266 224
266 230
266 235
266 242
266 251
266 253
266 254
266 256
266 257
266 264
266 268
266 285
266 287
266 290
266 294
266 304
266 305
266 314
267 208
267 217
267 228
267 229
267 234
267 241
267 246
267 248
267 249
267 273
267 275
267 278
267 280
267 281
267 283
267 291
267 292
267 295
267 296
267 300
267 307
267 308
267 318
267 319
268 219
268 220
268 235
268 239
268 242
268 251
268 256
268 257
268 264
268 266
268 271
268 276
268 287
268 290
268 294
268 299
268 314
269 213
269 216
269 233
269 234
269 241
269 273
269 275
269 280
269 288
269 291
269 298
269 300
269 309
269 312
270 222
270 226
270 231
270 243
270 245
270 258
270 263
270 272
270 284
270 286
270 289
270 297
270 301
271 223
271 238
271 239
271 242
271 250
271 255
271 256
271 268
271 274
271 276
271 277
271 299
271 302
271 306
272 215
272 218
272 226
272 243
272 252
272 258
272 262
272 265
272 270
272 289
272 293
272 297
273 212
273 217
273 229
273 233
273 234
273 241
273 248
273 267
273 269
273 275
273 280
273 281
273 288
273 291
273 295
273 296
273 298
273 300
273 307
273 309
273 312
273 318
274 223
274 227
274 238
274 239
274 250
274 255
274 259
274 271
274 276
274 277
274 279
274 302
274 306
275 213
275 216
275 233
275 234
275 241
275 267
275 269
275 273
275 280
275 288
275 291
275 296
275 298
275 300
275 309
275 312
276 220
276 238
276 239
276 242
276 251
276 255
276 256
276 268
276 271
276 274
276 290
276 294
276 299
276 302
277 223
277 227
277 237
277 238
277 247
277 250
277 255
277 259
277 271
277 274
277 279
277 306
277 310
277 311
278 221
278 228
278 229
278 232
278 244
278 246
278 248
278 249
278 253
278 267
278 280
278 281
278 283
278 285
278 292
278 295
278 296
278 303
278 307
278 308
278 313
278 316
278 319
279 225
279 236
279 237
279 247
279 250
279 259
279 260
279 261
279 274
279 277
279 282
279 306
279 310
279 311
279 315
279 324
280 217
280 229
280 234
280 241
280 248
280 249
280 267
280 269
280 273
280 275
280 278
280 281
280 288
280 291
280 295
280 296
280 300
280 307
280 308
280 309
280 312
280 318
280 319
281 228
281 229
281 241
281 246
281 248
281 249
281 267
281 273
281 278
281 280
281 283
281 291
281 292
281 295
281 296
281 300
281 307
281 308
281 312
281 316
281 318
281 319
282 236
282 240
282 247
282 252
282 259
282 260
282 261
282 262
282 265
282 279
282 293
282 310
282 311
282 315
282 324
282 325
283 221
283 232
283 244
283 246
283 249
283 253
283 254
283 264
283 267
283 278
283 281
283 285
283 292
283 295
283 303
283 304
283 308
283 313
283 316
283 317
283 319
283 321
284 231
284 245
284 263
284 270
284 286
284 301
284 322
285 230
285 232
285 244
285 246
285 253
285 254
285 257
285 264
285 266
285 278
285 283
285 287
285 292
285 303
285 304
285 305
285 308
285 313
285 316
285 317
285 321
285 326
286 231
286 245
286 258
286 263
286 270
286 284
286 297
286 301
286 322
286 336
287 235
287 251
287 253
287 254
287 257
287 264
287 266
287 268
287 285
287 290
287 294
287 303
287 304
287 305
287 313
287 314
287 317
287 320
287 326
287 330
288 233
288 269
288 273
288 275
288 280
288 291
288 298
288 300
288 309
288 312
288 318
288 327
288 329
288 331
288 332
289 243
289 252
289 258
289 262
289 265
289 270
289 272
289 293
289 297
289 328
289 339
290 235
290 251
290 254
290 256
290 257
290 264
290 266
290 268
290 276
290 287
290 294
290 299
290 304
290 305
290 314
290 317
290 320
290 323
290 330
291 234
291 241
291 248
291 267
291 269
291 273
291 275
291 280
291 281
291 288
291 295
291 296
291 298
291 300
291 307
291 309
291 312
291 318
291 327
291 331
291 332
291 342
292 244
292 246
292 249
292 253
292 267
292 278
292 281
292 283
292 285
292 295
292 296
292 303
292 304
292 307
292 308
292 313
292 316
292 317
292 319
292 321
292 326
292 341
292 344
293 240
293 243
293 252
293 261
293 262
293 265
293 272
293 282
293 289
293 297
293 315
293 325
293 328
293 339
294 242
294 251
294 256
294 257
294 266
294 268
294 276
294 287
294 290
294 299
294 302
294 305
294 314
294 320
294 323
294 333
295 246
295 248
295 249
295 267
295 273
295 278
295 280
295 281
295 283
295 291
295 292
295 296
295 300
295 303
295 307
295 308
295 312
295 316
295 318
295 319
295 335
295 341
296 248
296 249
296 267
296 273
296 275
296 278
296 280
296 281
296 291
296 292
296 295
296 300
296 307
296 308
296 312
296 316
296 318
296 319
296 331
296 335
296 342
297 258
297 263
297 265
297 270
297 272
297 286
297 289
297 293
297 322
297 328
297 337
297 339
297 345
298 269
298 273
298 275
298 288
298 291
298 300
298 309
298 312
298 327
298 329
298 332
298 343
299 242
299 256
299 268
299 271
299 276
299 290
299 294
299 302
299 314
299 320
299 323
299 333
300 241
300 248
300 267
300 269
300 273
300 275
300 280
300 281
300 288
300 291
300 295
300 296
300 298
300 307
300 308
300 309
300 312
300 318
300 319
300 327
300 331
300 335
300 342
301 245
301 263
301 270
301 284
301 286
301 322
301 336
301 337
301 352
302 255
302 271
302 274
302 276
302 294
302 299
302 306
302 323
302 333
302 340
302 361
303 253
303 254
303 264
303 278
303 283
303 285
303 287
303 292
303 295
303 304
303 305
303 308
303 313
303 316
303 317
303 319
303 321
303 326
303 330
303 341
303 344
303 347
304 253
304 254
304 264
304 266
304 283
304 285
304 287
304 290
304 292
304 303
304 305
304 313
304 314
304 316
304 317
304 320
304 321
304 326
304 330
304 344
304 347
304 349
304 362
305 254
305 257
305 264
305 266
305 285
305 287
305 290
305 294
305 303
305 304
305 313
305 314
305 317
305 320
305 321
305 323
305 326
305 330
305 347
305 349
305 357
305 362
306 271
306 274
306 277
306 279
306 302
306 310
306 311
306 340
306 351
307 267
307 273
307 278
307 280
307 281
307 291
307 292
307 295
307 296
307 300
307 308
307 312
307 316
307 318
307 319
307 327
307 331
307 335
307 341
307 342
307 359
307 363
308 267
308 278
308 280
308 281
308 283
308 285
308 292
308 295
308 296
308 300
308 303
308 307
308 313
308 316
308 318
308 319
308 321
308 335
308 341
308 342
308 344
308 363
308 364
309 269
309 273
309 275
309 280
309 288
309 291
309 298
309 300
309 312
309 318
309 327
309 329
309 331
309 332
309 342
309 343
309 348
309 360
309 365
310 259
310 277
310 279
310 282
310 306
310 311
310 315
310 324
310 334
310 338
310 340
310 350
310 351
311 259
311 260
311 277
311 279
311 282
311 306
311 310
311 315
311 324
311 325
311 334
311 338
311 350
311 355
312 269
312 273
312 275
312 280
312 281
312 288
312 291
312 295
312 296
312 298
312 300
312 307
312 309
312 318
312 319
312 327
312 329
312 331
312 332
312 335
312 342
312 348
312 359
312 360
313 278
313 283
313 285
313 287
313 292
313 303
313 304
313 305
313 308
313 314
313 316
313 317
313 319
313 321
313 326
313 330
313 341
313 344
313 347
313 349
313 370
314 264
314 266
314 268
314 287
314 290
314 294
314 299
314 304
314 305
314 313
314 317
314 320
314 323
314 326
314 330
314 349
314 357
314 358
314 362
314 372
315 261
315 279
315 282
315 293
315 310
315 311
315 324
315 325
315 328
315 334
315 338
315 346
315 350
315 355
316 278
316 281
316 283
316 285
316 292
316 295
316 296
316 303
316 304
316 307
316 308
316 313
316 317
316 319
316 321
316 326
316 335
316 341
316 344
316 347
316 363
316 364
316 370
317 264
317 283
317 285
317 287
317 290
317 292
317 303
317 304
317 305
317 313
317 314
317 316
317 320
317 321
317 326
317 330
317 344
317 347
317 349
317 357
317 362
317 376
318 267
318 273
318 280
318 281
318 288
318 291
318 295
318 296
318 300
318 307
318 308
318 309
318 312
318 319
318 327
318 331
318 335
318 341
318 342
318 348
318 359
318 360
318 363
318 368
318 382
319 267
319 278
319 280
319 281
319 283
319 292
319 295
319 296
319 300
319 303
319 307
319 308
319 312
319 313
319 316
319 318
319 321
319 331
319 335
319 341
319 342
319 344
319 359
319 363
319 364
319 382
319 386
320 287
320 290
320 294
320 299
320 304
320 305
320 314
320 317
320 323
320 326
320 330
320 333
320 349
320 357
320 358
320 362
320 372
320 385
321 283
321 285
321 292
321 303
321 304
321 305
321 308
321 313
321 316
321 317
321 319
321 326
321 330
321 341
321 344
321 347
321 349
321 362
321 364
321 370
321 376
322 284
322 286
322 297
322 301
322 336
322 337
322 345
322 352
322 353
322 373
322 374
322 375
323 290
323 294
323 299
323 302
323 305
323 314
323 320
323 330
323 333
323 357
323 358
323 361
323 362
323 366
323 385
323 387
324 279
324 282
324 310
324 311
324 315
324 325
324 334
324 338
324 346
324 350
324 355
324 379
324 383
324 384
325 282
325 293
325 311
325 315
325 324
325 328
325 334
325 338
325 339
325 346
325 354
325 355
325 356
325 381
325 384
326 285
326 287
326 292
326 303
326 304
326 305
326 313
326 314
326 316
326 317
326 320
326 321
326 330
326 341
326 344
326 347
326 349
326 357
326 362
326 370
326 372
326 376
326 393
327 288
327 291
327 298
327 300
327 307
327 309
327 312
327 318
327 329
327 331
327 332
327 342
327 343
327 348
327 359
327 360
327 365
327 368
327 371
327 377
327 389
328 289
328 293
328 297
328 315
328 325
328 339
328 345
328 346
328 354
328 356
328 378
328 381
328 390
329 288
329 298
329 309
329 312
329 327
329 332
329 343
329 348
329 360
329 365
329 377
330 287
330 290
330 303
330 304
330 305
330 313
330 314
330 317
330 320
330 321
330 323
330 326
330 347
330 349
330 357
330 358
330 362
330 372
330 376
330 385
331 288
331 291
331 296
331 300
331 307
331 309
331 312
331 318
331 319
331 327
331 332
331 335
331 342
331 348
331 359
331 360
331 363
331 365
331 368
331 371
331 382
331 389
332 288
332 291
332 298
332 309
332 312
332 327
332 329
332 331
332 342
332 343
332 348
332 360
332 365
332 371
332 377
333 294
333 299
333 302
333 320
333 323
333 357
333 358
333 361
333 366
333 367
333 385
333 387
333 388
334 310
334 311
334 315
334 324
334 325
334 338
334 340
334 346
334 350
334 351
334 355
334 379
334 380
334 383
334 384
335 295
335 296
335 300
335 307
335 308
335 312
335 316
335 318
335 319
335 331
335 341
335 342
335 344
335 359
335 360
335 363
335 364
335 368
335 382
335 386
335 389
335 392
336 286
336 301
336 322
336 337
336 345
336 352
336 353
336 373
336 374
336 375
336 400
337 297
337 301
337 322
337 336
337 339
337 345
337 352
337 353
337 354
337 374
337 375
337 378
338 310
338 311
338 315
338 324
338 325
338 334
338 346
338 350
338 351
338 355
338 379
338 383
338 384
338 391
339 289
339 293
339 297
339 325
339 328
339 337
339 345
339 346
339 353
339 354
339 356
339 375
339 378
339 381
339 390
340 302
340 306
340 310
340 334
340 350
340 351
340 361
340 367
340 369
340 380
340 388
341 292
341 295
341 303
341 307
341 308
341 313
341 316
341 318
341 319
341 321
341 326
341 335
341 342
341 344
341 347
341 359
341 363
341 364
341 370
341 382
341 386
341 392
341 399
342 291
342 296
342 300
342 307
342 308
342 309
342 312
342 318
342 319
342 327
342 331
342 332
342 335
342 341
342 348
342 359
342 360
342 363
342 364
342 365
342 368
342 371
342 382
342 386
342 389
342 392
343 298
343 309
343 327
343 329
343 332
343 348
343 360
343 365
343 371
343 377
343 397
344 292
344 303
344 304
344 308
344 313
344 316
344 317
344 319
344 321
344 326
344 335
344 341
344 347
344 349
344 363
344 364
344 370
344 376
344 382
344 386
344 393
344 399
345 297
345 322
345 328
345 336
345 337
345 339
345 353
345 354
345 356
345 374
345 375
345 378
345 402
346 315
346 324
346 325
346 328
346 334
346 338
346 339
346 354
346 355
346 356
346 381
346 383
346 384
346 390
346 391
347 303
347 304
347 305
347 313
347 316
347 317
347 321
347 326
347 330
347 341
347 344
347 349
347 357
347 362
347 364
347 370
347 372
347 376
347 393
347 394
347 395
347 407
347 414
348 309
348 312
348 318
348 327
348 329
348 331
348 332
348 342
348 343
348 359
348 360
348 365
348 368
348 371
348 377
348 389
348 396
348 397
349 304
349 305
349 313
349 314
349 317
349 320
349 321
349 326
349 330
349 344
349 347
349 357
349 358
349 362
349 370
349 372
349 376
349 385
349 393
349 394
349 395
350 310
350 311
350 315
350 324
350 334
350 338
350 340
350 351
350 355
350 369
350 379
350 380
350 383
350 384
351 306
351 310
351 334
351 338
351 340
351 350
351 355
351 367
351 369
351 379
351 380
351 383
351 411
352 301
352 322
352 336
352 337
352 353
352 373
352 374
352 375
352 400
352 412
353 322
353 336
353 337
353 339
353 345
353 352
353 354
353 373
353 374
353 375
353 378
353 400
353 402
354 325
354 328
354 337
354 339
354 345
354 346
354 353
354 356
354 375
354 378
354 381
354 390
354 406
354 409
355 311
355 315
355 324
355 325
355 334
355 338
355 346
355 350
355 351
355 379
355 381
355 383
355 384
355 391
355 413
356 325
356 328
356 339
356 345
356 346
356 354
356 378
356 381
356 384
356 390
356 391
356 409
357 305
357 314
357 317
357 320
357 323
357 326
357 330
357 333
357 347
357 349
357 358
357 362
357 366
357 372
357 376
357 385
357 394
357 395
357 398
357 404
358 314
358 320
358 323
358 330
358 333
358 349
358 357
358 361
358 362
358 366
358 372
358 385
358 387
358 395
358 398
358 404
359 307
359 312
359 318
359 319
359 327
359 331
359 335
359 341
359 342
359 348
359 360
359 363
359 364
359 365
359 368
359 371
359 382
359 386
359 389
359 392
359 396
359 410
360 309
360 312
360 318
360 327
360 329
360 331
360 332
360 335
360 342
360 343
360 348
360 359
360 365
360 368
360 371
360 377
360 382
360 389
360 392
360 396
360 397
360 410
361 302
361 323
361 333
361 340
361 358
361 366
361 367
361 369
361 385
361 387
361 388
361 398
361 403
361 405
362 304
362 305
362 314
362 317
362 320
362 321
362 323
362 326
362 330
362 347
362 349
362 357
362 358
362 370
362 372
362 376
362 385
362 393
362 394
362 395
362 404
362 416
362 419
363 307
363 308
363 316
363 318
363 319
363 331
363 335
363 341
363 342
363 344
363 359
363 364
363 368
363 370
363 382
363 386
363 389
363 392
363 399
363 401
363 423
364 308
364 316
364 319
364 321
364 335
364 341
364 342
364 344
364 347
364 359
364 363
364 368
364 370
364 376
364 382
364 386
364 392
364 393
364 399
364 401
364 407
364 427
365 309
365 327
365 329
365 331
365 332
365 342
365 343
365 348
365 359
365 360
365 368
365 371
365 377
365 389
365 396
365 397
365 417
366 323
366 333
366 357
366 358
366 361
366 367
366 385
366 387
366 388
366 398
366 403
366 405
366 420
367 333
367 340
367 351
367 361
367 366
367 369
367 380
367 387
367 388
367 403
367 405
367 408
367 411
367 431
368 318
368 327
368 331
368 335
368 342
368 348
368 359
368 360
368 363
368 364
368 365
368 371
368 382
368 386
368 389
368 392
368 396
368 401
368 410
368 423
369 340
369 350
369 351
369 361
369 367
369 379
369 380
369 387
369 388
369 403
369 405
369 408
369 411
369 428
370 313
370 316
370 321
370 326
370 341
370 344
370 347
370 349
370 362
370 363
370 364
370 376
370 386
370 393
370 394
370 399
370 401
370 407
370 414
370 416
370 430
370 434
371 327
371 331
371 332
371 342
371 343
371 348
371 359
371 360
371 365
371 368
371 377
371 382
371 389
371 392
371 396
371 397
371 410
371 417
371 429
372 314
372 320
372 326
372 330
372 347
372 349
372 357
372 358
372 362
372 376
372 385
372 393
372 394
372 395
372 398
372 404
372 416
372 419
372 422
372 424
373 322
373 336
373 352
373 353
373 374
373 375
373 400
373 412
373 418
374 322
374 336
374 337
374 345
374 352
374 353
374 373
374 375
374 378
374 400
374 402
374 412
374 418
375 322
375 336
375 337
375 339
375 345
375 352
375 353
375 354
375 373
375 374
375 378
375 400
375 402
375 406
375 415
375 418
376 317
376 321
376 326
376 330
376 344
376 347
376 349
376 357
376 362
376 364
376 370
376 372
376 393
376 394
376 395
376 399
376 404
376 407
376 414
376 416
376 419
377 327
377 329
377 332
377 343
377 348
377 360
377 365
377 371
377 396
377 397
377 417
377 426
378 328
378 337
378 339
378 345
378 353
378 354
378 356
378 374
378 375
378 381
378 390
378 400
378 402
378 406
378 409
378 415
378 425
378 432
379 324
379 334
379 338
379 350
379 351
379 355
379 369
379 380
379 383
379 384
379 391
379 411
379 413
380 334
380 340
380 350
380 351
380 367
380 369
380 379
380 383
380 388
380 405
380 408
380 411
380 428
381 325
381 328
381 339
381 346
381 354
381 355
381 356
381 378
381 383
381 384
381 390
381 391
381 406
381 409
381 421
381 425
382 318
382 319
382 331
382 335
382 341
382 342
382 344
382 359
382 360
382 363
382 364
382 368
382 371
382 386
382 389
382 392
382 399
382 401
382 410
382 423
382 427
383 324
383 334
383 338
383 346
383 350
383 351
383 355
383 379
383 380
383 381
383 384
383 391
383 413
383 421
383 433
384 324
384 325
384 334
384 338
384 346
384 350
384 355
384 356
384 379
384 381
384 383
384 390
384 391
384 413
384 421
384 433
385 320
385 323
385 330
385 333
385 349
385 357
385 358
385 361
385 362
385 366
385 372
385 387
385 394
385 395
385 398
385 404
385 419
385 420
385 422
385 424
386 319
386 335
386 341
386 342
386 344
386 359
386 363
386 364
386 368
386 370
386 382
386 389
386 392
386 399
386 401
386 407
386 423
386 427
386 430
387 323
387 333
387 358
387 361
387 366
387 367
387 369
387 385
387 388
387 398
387 403
387 404
387 405
387 408
387 420
387 424
387 431
388 333
388 340
388 361
388 366
388 367
388 369
388 380
388 387
388 398
388 403
388 405
388 408
388 411
388 420
388 431
389 327
389 331
389 335
389 342
389 348
389 359
389 360
389 363
389 365
389 368
389 371
389 382
389 386
389 392
389 396
389 401
389 410
389 417
389 423
389 429
389 438
390 328
390 339
390 346
390 354
390 356
390 378
390 381
390 384
390 391
390 406
390 409
390 415
390 421
390 425
390 432
390 443
390 446
391 338
391 346
391 355
391 356
391 379
391 381
391 383
391 384
391 390
391 409
391 413
391 421
391 425
391 433
391 443
392 335
392 341
392 342
392 359
392 360
392 363
392 364
392 368
392 371
392 382
392 386
392 389
392 396
392 399
392 401
392 410
392 423
392 427
392 429
392 430
392 438
392 441
392 442
393 326
393 344
393 347
393 349
393 362
393 364
393 370
393 372
393 376
393 394
393 395
393 399
393 404
393 407
393 414
393 416
393 419
393 430
393 434
393 440
394 347
394 349
394 357
394 362
394 370
394 372
394 376
394 385
394 393
394 395
394 399
394 404
394 407
394 414
394 416
394 419
394 422
394 434
394 440
395 347
395 349
395 357
395 358
395 362
395 372
395 376
395 385
395 393
395 394
395 398
395 404
395 414
395 416
395 419
395 422
395 424
395 440
396 348
396 359
396 360
396 365
396 368
396 371
396 377
396 389
396 392
396 397
396 410
396 417
396 426
396 429
396 437
396 447
397 343
397 348
397 360
397 365
397 371
397 377
397 396
397 410
397 417
397 426
397 429
397 437
398 357
398 358
398 361
398 366
398 372
398 385
398 387
398 388
398 395
398 403
398 404
398 405
398 420
398 422
398 424
398 444
398 445
398 454
399 341
399 344
399 363
399 364
399 370
399 376
399 382
399 386
399 392
399 393
399 394
399 401
399 407
399 414
399 416
399 423
399 427
399 430
399 434
399 439
399 441
399 442
400 336
400 352
400 353
400 373
400 374
400 375
400 378
400 402
400 406
400 412
400 415
400 418
400 432
400 435
400 449
401 363
401 364
401 368
401 370
401 382
401 386
401 389
401 392
401 399
401 407
401 410
401 414
401 423
401 427
401 430
401 434
401 438
401 439
401 441
401 442
402 345
402 353
402 374
402 375
402 378
402 400
402 406
402 409
402 412
402 415
402 418
402 425
402 432
402 435
402 449
402 452
403 361
403 366
403 367
403 369
403 387
403 388
403 398
403 405
403 408
403 411
403 420
403 424
403 428
403 431
403 444
403 445
403 457
404 357
404 358
404 362
404 372
404 376
404 385
404 387
404 393
404 394
404 395
404 398
404 416
404 419
404 420
404 422
404 424
404 440
404 444
404 445
404 453
404 454
405 361
405 366
405 367
405 369
405 380
405 387
405 388
405 398
405 403
405 408
405 411
405 420
405 428
405 431
405 445
405 462
406 354
406 375
406 378
406 381
406 390
406 400
406 402
406 409
406 415
406 421
406 425
406 432
406 446
406 452
407 347
407 364
407 370
407 376
407 386
407 393
407 394
407 399
407 401
407 414
407 416
407 419
407 423
407 427
407 430
407 434
407 439
407 440
407 442
407 455
408 367
408 369
408 380
408 387
408 388
408 403
408 405
408 411
408 420
408 428
408 431
408 451
408 462
409 354
409 356
409 378
409 381
409 390
409 391
409 402
409 406
409 415
409 421
409 425
409 432
409 443
409 446
409 452
409 463
410 359
410 360
410 368
410 371
410 382
410 389
410 392
410 396
410 397
410 401
410 417
410 423
410 426
410 427
410 429
410 437
410 438
410 441
410 442
410 447
410 450
410 456
410 464
411 351
411 367
411 369
411 379
411 380
411 388
411 403
411 405
411 408
411 428
411 431
411 436
411 451
411 459
412 352
412 373
412 374
412 400
412 402
412 418
412 435
412 449
412 460
413 355
413 379
413 383
413 384
413 391
413 421
413 433
413 436
413 443
413 448
413 465
414 347
414 370
414 376
414 393
414 394
414 395
414 399
414 401
414 407
414 416
414 419
414 427
414 430
414 434
414 439
414 440
414 455
414 467
415 375
415 378
415 390
415 400
415 402
415 406
415 409
415 418
415 425
415 432
415 435
415 446
415 449
415 452
416 362
416 370
416 372
416 376
416 393
416 394
416 395
416 399
416 404
416 407
416 414
416 419
416 422
416 430
416 434
416 440
416 453
416 455
416 467
417 365
417 371
417 377
417 389
417 396
417 397
417 410
417 426
417 429
417 437
417 438
417 447
417 450
417 458
417 464
418 373
418 374
418 375
418 400
418 402
418 412
418 415
418 432
418 435
418 449
418 460
419 362
419 372
419 376
419 385
419 393
419 394
419 395
419 404
419 407
419 414
419 416
419 422
419 424
419 434
419 440
419 444
419 453
419 467
420 366
420 385
420 387
420 388
420 398
420 403
420 404
420 405
420 408
420 422
420 424
420 431
420 444
420 445
420 454
420 457
421 381
421 383
421 384
421 390
421 391
421 406
421 409
421 413
421 425
421 433
421 443
421 446
421 448
421 463
421 465
421 469
422 372
422 385
422 394
422 395
422 398
422 404
422 416
422 419
422 420
422 424
422 440
422 444
422 445
422 453
422 454
423 363
423 368
423 382
423 386
423 389
423 392
423 399
423 401
423 407
423 410
423 427
423 429
423 430
423 434
423 438
423 439
423 441
423 442
423 450
423 456
423 461
423 466
424 372
424 385
424 387
424 395
424 398
424 403
424 404
424 419
424 420
424 422
424 444
424 445
424 453
424 454
424 457
424 477
425 378
425 381
425 390
425 391
425 402
425 406
425 409
425 415
425 421
425 432
425 443
425 446
425 452
425 463
426 377
426 396
426 397
426 410
426 417
426 429
426 437
426 447
426 458
426 472
427 364
427 382
427 386
427 392
427 399
427 401
427 407
427 410
427 414
427 423
427 430
427 434
427 438
427 439
427 441
427 442
427 455
427 456
427 461
427 466
428 369
428 380
428 403
428 405
428 408
428 411
428 431
428 436
428 451
428 459
428 462
428 473
428 475
429 371
429 389
429 392
429 396
429 397
429 410
429 417
429 423
429 426
429 437
429 438
429 441
429 447
429 450
429 456
429 458
429 464
429 476
429 479
430 370
430 386
430 392
430 393
430 399
430 401
430 407
430 414
430 416
430 423
430 427
430 434
430 438
430 439
430 441
430 442
430 455
430 461
430 466
430 467
430 471
431 367
431 387
431 388
431 403
431 405
431 408
431 411
431 420
431 428
431 445
431 451
431 457
431 462
431 468
431 475
432 378
432 390
432 400
432 402
432 406
432 409
432 415
432 418
432 425
432 435
432 443
432 446
432 449
432 452
432 463
432 474
432 480
433 383
433 384
433 391
433 413
433 421
433 436
433 443
433 448
433 465
433 469
433 470
434 370
434 393
434 394
434 399
434 401
434 407
434 414
434 416
434 419
434 423
434 427
434 430
434 439
434 440
434 441
434 442
434 455
434 466
434 467
434 471
435 400
435 402
435 412
435 415
435 418
435 432
435 449
435 452
435 460
435 474
436 411
436 413
436 428
436 433
436 448
436 451
436 459
436 465
436 470
436 473
437 396
437 397
437 410
437 417
437 426
437 429
437 438
437 447
437 450
437 458
437 464
437 472
437 479
438 389
438 392
438 401
438 410
438 417
438 423
438 427
438 429
438 430
438 437
438 439
438 441
438 442
438 447
438 450
438 456
438 458
438 461
438 464
438 476
438 479
439 399
439 401
439 407
439 414
439 423
439 427
439 430
439 434
439 438
439 441
439 442
439 455
439 456
439 461
439 466
439 467
439 471
440 393
440 394
440 395
440 404
440 407
440 414
440 416
440 419
440 422
440 434
440 444
440 453
440 455
440 467
440 471
441 392
441 399
441 401
441 410
441 423
441 427
441 429
441 430
441 434
441 438
441 439
441 442
441 447
441 450
441 455
441 456
441 461
441 464
441 466
441 476
442 392
442 399
442 401
442 407
442 410
442 423
442 427
442 430
442 434
442 438
442 439
442 441
442 450
442 455
442 456
442 461
442 466
442 471
442 476
443 390
443 391
443 409
443 413
443 421
443 425
443 432
443 433
443 446
443 448
443 463
443 465
443 469
444 398
444 403
444 404
444 419
444 420
444 422
444 424
444 440
444 445
444 453
444 454
444 457
444 477
444 478
445 398
445 403
445 404
445 405
445 420
445 422
445 424
445 431
445 444
445 453
445 454
445 457
445 462
445 468
445 477
445 478
446 390
446 406
446 409
446 415
446 421
446 425
446 432
446 443
446 452
446 463
446 469
446 474
446 480
447 396
447 410
447 417
447 426
447 429
447 437
447 438
447 441
447 450
447 456
447 458
447 461
447 464
447 472
447 476
447 479
448 413
448 421
448 433
448 436
448 443
448 459
448 465
448 469
448 470
449 400
449 402
449 412
449 415
449 418
449 432
449 435
449 452
449 460
449 474
450 410
450 417
450 423
450 429
450 437
450 438
450 441
450 442
450 447
450 456
450 458
450 461
450 464
450 472
450 476
450 479
451 408
451 411
451 428
451 431
451 436
451 459
451 462
451 468
451 470
451 473
451 475
452 402
452 406
452 409
452 415
452 425
452 432
452 435
452 446
452 449
452 463
452 474
452 480
453 404
453 416
453 419
453 422
453 424
453 440
453 444
453 445
453 454
453 457
453 467
453 477
453 478
454 398
454 404
454 420
454 422
454 424
454 444
454 445
454 453
454 457
454 468
454 477
454 478
455 407
455 414
455 416
455 427
455 430
455 434
455 439
455 440
455 441
455 442
455 461
455 466
455 467
455 471
456 410
456 423
456 427
456 429
456 438
456 439
456 441
456 442
456 447
456 450
456 461
456 464
456 466
456 476
456 479
457 403
457 420
457 424
457 431
457 444
457 445
457 453
457 454
457 462
457 468
457 477
457 478
458 417
458 426
458 429
458 437
458 438
458 447
458 450
458 464
458 472
458 476
458 479
459 411
459 428
459 436
459 448
459 451
459 465
459 470
459 473
459 475
460 412
460 418
460 435
460 449
460 474
461 423
461 427
461 430
461 438
461 439
461 441
461 442
461 447
461 450
461 455
461 456
461 464
461 466
461 476
461 479
462 405
462 408
462 428
462 431
462 445
462 451
462 457
462 468
462 473
462 475
462 478
463 409
463 421
463 425
463 432
463 443
463 446
463 452
463 465
463 469
463 480
464 410
464 417
464 429
464 437
464 438
464 441
464 447
464 450
464 456
464 458
464 461
464 472
464 476
464 479
465 413
465 421
465 433
465 436
465 443
465 448
465 459
465 463
465 469
465 470
466 423
466 427
466 430
466 434
466 439
466 441
466 442
466 455
466 456
466 461
466 467
466 471
466 476
467 414
467 416
467 419
467 430
467 434
467 439
467 440
467 453
467 455
467 466
467 471
468 431
468 445
468 451
468 454
468 457
468 462
468 473
468 475
468 477
468 478
469 421
469 433
469 443
469 446
469 448
469 463
469 465
469 470
470 433
470 436
470 448
470 451
470 459
470 465
470 469
470 473
470 475
471 430
471 434
471 439
471 440
471 442
471 455
471 466
471 467
472 426
472 437
472 447
472 450
472 458
472 464
472 479
473 428
473 436
473 451
473 459
473 462
473 468
473 470
473 475
474 432
474 435
474 446
474 449
474 452
474 460
474 480
475 428
475 431
475 451
475 459
475 462
475 468
475 470
475 473
476 429
476 438
476 441
476 442
476 447
476 450
476 456
476 458
476 461
476 464
476 466
476 479
477 424
477 444
477 445
477 453
477 454
477 457
477 468
477 478
478 444
478 445
478 453
478 454
478 457
478 462
478 468
478 477
479 429
479 437
479 438
479 447
479 450
479 456
479 458
479 461
479 464
479 472
479 476
480 432
480 446
480 452
480 463
480 474
