1 4
1 19
1 22
1 24
1 25
1 33
1 45
1 46
1 50
2 14
2 20
2 23
2 60
3 5
3 32
3 35
3 36
3 39
3 51
3 53
4 1
4 19
4 24
4 25
4 32
4 33
4 45
4 49
4 50
5 3
5 19
5 32
5 35
5 36
5 49
5 51
5 53
6 9
6 26
6 27
6 28
6 29
6 30
6 52
6 57
7 13
7 16
7 39
7 44
7 56
7 61
7 62
8 14
8 15
8 18
8 31
8 42
8 47
8 55
8 63
9 6
9 10
9 28
9 29
9 30
9 34
9 37
9 52
9 54
9 58
9 59
10 9
10 29
10 30
10 34
10 37
10 54
10 58
10 59
11 22
11 24
11 26
11 27
11 28
11 40
11 48
11 65
12 20
12 21
12 38
12 41
12 64
13 7
13 16
13 17
13 43
13 44
13 62
13 68
14 2
14 8
14 20
14 23
14 31
14 42
14 47
14 66
15 8
15 18
15 42
15 55
15 63
16 7
16 13
16 36
16 39
16 44
16 56
16 61
16 62
17 13
17 21
17 41
17 43
17 44
17 67
17 68
17 70
18 8
18 15
18 31
18 42
18 55
18 63
19 1
19 4
19 5
19 25
19 32
19 33
19 35
19 45
19 49
19 50
19 51
19 73
20 2
20 12
20 14
20 23
20 38
20 41
20 60
20 69
20 75
21 12
21 17
21 38
21 41
21 43
21 64
21 67
21 70
22 1
22 11
22 24
22 25
22 27
22 40
22 45
22 46
22 48
22 65
22 81
22 82
23 2
23 14
23 20
23 31
23 47
23 60
23 66
24 1
24 4
24 11
24 22
24 25
24 33
24 40
24 45
24 46
24 50
24 72
24 82
24 84
25 1
25 4
25 19
25 22
25 24
25 33
25 40
25 45
25 46
25 49
25 50
25 72
25 84
26 6
26 11
26 27
26 28
26 29
26 40
26 48
26 52
26 57
26 65
26 71
26 79
26 83
27 6
27 11
27 22
27 26
27 28
27 40
27 48
27 57
27 65
27 79
27 81
27 83
28 6
28 9
28 11
28 26
28 27
28 29
28 30
28 48
28 52
28 57
28 58
28 65
28 71
28 83
28 87
29 6
29 9
29 10
29 26
29 28
29 30
29 37
29 52
29 57
29 58
29 59
29 71
29 74
30 6
30 9
30 10
30 28
30 29
30 34
30 37
30 52
30 54
30 57
30 58
30 59
30 71
30 74
30 85
31 8
31 14
31 18
31 23
31 42
31 47
31 55
31 63
31 66
31 78
32 3
32 4
32 5
32 19
32 33
32 35
32 49
32 50
32 51
32 53
32 73
32 76
33 1
33 4
33 19
33 24
33 25
33 32
33 45
33 46
33 49
33 50
33 72
33 73
33 90
34 9
34 10
34 30
34 37
34 54
34 58
34 59
34 85
35 3
35 5
35 19
35 32
35 36
35 39
35 49
35 51
35 53
35 56
35 76
35 77
36 3
36 5
36 16
36 35
36 39
36 51
36 53
36 56
36 61
36 76
36 77
36 80
37 9
37 10
37 29
37 30
37 34
37 52
37 54
37 58
37 59
37 74
37 85
38 12
38 20
38 21
38 41
38 60
38 64
38 69
38 75
38 86
39 3
39 7
39 16
39 35
39 36
39 44
39 51
39 53
39 56
39 61
39 62
39 77
39 80
40 11
40 22
40 24
40 25
40 26
40 27
40 45
40 46
40 48
40 65
40 79
40 81
40 82
41 12
41 17
41 20
41 21
41 38
41 60
41 64
41 67
41 69
41 86
42 8
42 14
42 15
42 18
42 31
42 47
42 55
42 63
42 66
42 78
43 13
43 17
43 21
43 44
43 62
43 67
43 68
43 70
43 96
44 7
44 13
44 16
44 17
44 39
44 43
44 56
44 61
44 62
44 68
44 70
44 88
44 91
45 1
45 4
45 19
45 22
45 24
45 25
45 33
45 40
45 46
45 49
45 50
45 72
45 82
45 84
45 90
45 97
45 99
46 1
46 22
46 24
46 25
46 33
46 40
46 45
46 50
46 65
46 72
46 81
46 82
46 84
46 97
46 99
46 100
47 8
47 14
47 23
47 31
47 42
47 63
47 66
47 78
47 102
48 11
48 22
48 26
48 27
48 28
48 40
48 57
48 65
48 79
48 81
48 83
48 87
48 94
49 4
49 5
49 19
49 25
49 32
49 33
49 35
49 45
49 50
49 51
49 72
49 73
49 76
49 89
49 90
50 1
50 4
50 19
50 24
50 25
50 32
50 33
50 45
50 46
50 49
50 72
50 73
50 84
50 89
50 90
51 3
51 5
51 19
51 32
51 35
51 36
51 39
51 49
51 53
51 56
51 73
51 76
51 77
51 80
51 89
51 103
52 6
52 9
52 26
52 28
52 29
52 30
52 37
52 57
52 58
52 59
52 71
52 74
52 83
52 85
52 87
52 92
53 3
53 5
53 32
53 35
53 36
53 39
53 51
53 56
53 61
53 76
53 77
53 80
53 103
53 104
54 9
54 10
54 30
54 34
54 37
54 58
54 59
54 74
54 85
54 93
54 108
55 8
55 15
55 18
55 31
55 42
55 63
55 78
56 7
56 16
56 35
56 36
56 39
56 44
56 51
56 53
56 61
56 62
56 76
56 77
56 80
56 88
56 104
56 106
57 6
57 26
57 27
57 28
57 29
57 30
57 48
57 52
57 58
57 65
57 71
57 74
57 79
57 83
57 87
57 92
57 94
58 9
58 10
58 28
58 29
58 30
58 34
58 37
58 52
58 54
58 57
58 59
58 71
58 74
58 85
58 92
59 9
59 10
59 29
59 30
59 34
59 37
59 52
59 54
59 58
59 74
59 85
59 92
59 93
59 108
60 2
60 20
60 23
60 38
60 41
60 64
60 66
60 69
60 75
60 86
60 95
60 98
61 7
61 16
61 36
61 39
61 44
61 53
61 56
61 62
61 68
61 77
61 80
61 88
61 91
61 106
62 7
62 13
62 16
62 39
62 43
62 44
62 56
62 61
62 68
62 70
62 80
62 88
62 91
62 96
62 106
62 110
62 111
63 8
63 15
63 18
63 31
63 42
63 47
63 55
63 78
63 107
63 114
64 12
64 21
64 38
64 41
64 60
64 67
64 69
64 75
64 86
64 101
64 105
65 11
65 22
65 26
65 27
65 28
65 40
65 46
65 48
65 57
65 79
65 81
65 82
65 83
65 87
65 94
65 100
65 109
66 14
66 23
66 31
66 42
66 47
66 60
66 78
66 95
66 98
66 102
66 107
67 17
67 21
67 41
67 43
67 64
67 68
67 70
67 86
67 96
67 101
67 105
67 120
68 13
68 17
68 43
68 44
68 61
68 62
68 67
68 70
68 88
68 91
68 96
68 101
68 110
68 111
69 20
69 38
69 41
69 60
69 64
69 75
69 86
69 95
69 105
69 117
70 17
70 21
70 43
70 44
70 62
70 67
70 68
70 91
70 96
70 101
70 110
70 111
71 26
71 28
71 29
71 30
71 52
71 57
71 58
71 74
71 83
71 85
71 87
71 92
71 94
71 112
71 113
72 24
72 25
72 33
72 45
72 46
72 49
72 50
72 73
72 82
72 84
72 89
72 90
72 97
72 99
73 19
73 32
73 33
73 49
73 50
73 51
73 72
73 76
73 89
73 90
73 99
73 103
73 123
74 29
74 30
74 37
74 52
74 54
74 57
74 58
74 59
74 71
74 83
74 85
74 87
74 92
74 108
74 112
74 113
74 115
74 132
75 20
75 38
75 60
75 64
75 69
75 86
75 95
75 98
75 116
75 117
76 32
76 35
76 36
76 49
76 51
76 53
76 56
76 73
76 77
76 80
76 89
76 103
76 104
76 118
77 35
77 36
77 39
77 51
77 53
77 56
77 61
77 76
77 80
77 88
77 89
77 103
77 104
77 106
77 118
77 121
78 31
78 42
78 47
78 55
78 63
78 66
78 98
78 102
78 107
78 114
78 129
79 26
79 27
79 40
79 48
79 57
79 65
79 81
79 82
79 83
79 87
79 94
79 97
79 100
79 109
79 126
79 127
79 128
80 36
80 39
80 51
80 53
80 56
80 61
80 62
80 76
80 77
80 88
80 91
80 103
80 104
80 106
80 118
80 121
81 22
81 27
81 40
81 46
81 48
81 65
81 79
81 82
81 83
81 84
81 94
81 97
81 99
81 100
81 109
81 119
81 127
82 22
82 24
82 40
82 45
82 46
82 65
82 72
82 79
82 81
82 84
82 97
82 99
82 100
82 109
82 119
82 127
82 136
83 26
83 27
83 28
83 48
83 52
83 57
83 65
83 71
83 74
83 79
83 81
83 87
83 92
83 94
83 109
83 113
83 126
83 128
83 134
84 24
84 25
84 45
84 46
84 50
84 72
84 81
84 82
84 90
84 97
84 99
84 100
84 119
84 130
84 136
85 30
85 34
85 37
85 52
85 54
85 58
85 59
85 71
85 74
85 92
85 93
85 108
85 112
85 115
85 125
86 38
86 41
86 60
86 64
86 67
86 69
86 75
86 95
86 101
86 105
86 117
86 120
86 124
87 28
87 48
87 52
87 57
87 65
87 71
87 74
87 79
87 83
87 92
87 94
87 109
87 112
87 113
87 126
87 128
87 134
88 44
88 56
88 61
88 62
88 68
88 77
88 80
88 91
88 96
88 104
88 106
88 110
88 111
88 121
88 144
89 49
89 50
89 51
89 72
89 73
89 76
89 77
89 90
89 103
89 123
89 141
89 142
90 33
90 45
90 49
90 50
90 72
90 73
90 84
90 89
90 97
90 99
90 123
90 130
90 131
90 141
91 44
91 61
91 62
91 68
91 70
91 80
91 88
91 96
91 101
91 106
91 110
91 111
91 121
91 133
91 148
92 52
92 57
92 58
92 59
92 71
92 74
92 83
92 85
92 87
92 94
92 108
92 112
92 113
92 115
92 126
92 132
92 134
93 54
93 59
93 85
93 108
93 115
93 125
93 140
94 48
94 57
94 65
94 71
94 79
94 81
94 83
94 87
94 92
94 100
94 109
94 113
94 126
94 127
94 128
94 134
94 149
95 60
95 66
95 69
95 75
95 86
95 98
95 102
95 116
95 117
96 43
96 62
96 67
96 68
96 70
96 88
96 91
96 101
96 105
96 110
96 111
96 120
96 133
96 135
96 153
97 45
97 46
97 72
97 79
97 81
97 82
97 84
97 90
97 99
97 100
97 109
97 119
97 127
97 130
97 136
98 60
98 66
98 75
98 78
98 95
98 102
98 116
98 138
98 146
99 45
99 46
99 72
99 73
99 81
99 82
99 84
99 90
99 97
99 100
99 119
99 123
99 130
99 131
99 136
99 152
100 46
100 65
100 79
100 81
100 82
100 84
100 94
100 97
100 99
100 109
100 119
100 127
100 128
100 130
100 136
100 151
101 64
101 67
101 68
101 70
101 86
101 91
101 96
101 105
101 111
101 120
101 124
101 133
101 135
102 47
102 66
102 78
102 95
102 98
102 107
102 116
102 129
102 138
102 146
103 51
103 53
103 73
103 76
103 77
103 80
103 89
103 104
103 118
103 123
103 137
103 139
103 141
103 142
104 53
104 56
104 76
104 77
104 80
104 88
104 103
104 106
104 118
104 121
104 137
104 139
104 142
104 144
104 157
105 64
105 67
105 69
105 86
105 96
105 101
105 117
105 120
105 124
105 135
105 143
105 156
106 56
106 61
106 62
106 77
106 80
106 88
106 91
106 104
106 110
106 118
106 121
106 137
106 139
106 144
106 148
107 63
107 66
107 78
107 102
107 114
107 129
107 138
107 145
107 155
108 54
108 59
108 74
108 85
108 92
108 93
108 112
108 115
108 125
108 132
108 140
108 147
108 164
109 65
109 79
109 81
109 82
109 83
109 87
109 94
109 97
109 100
109 119
109 126
109 127
109 128
109 136
109 149
109 151
110 62
110 68
110 70
110 88
110 91
110 96
110 106
110 111
110 121
110 133
110 144
110 148
110 153
110 167
111 62
111 68
111 70
111 88
111 91
111 96
111 101
111 110
111 120
111 133
111 135
111 148
111 153
111 170
112 71
112 74
112 85
112 87
112 92
112 108
112 113
112 115
112 125
112 126
112 132
112 134
112 140
112 147
112 150
112 154
113 71
113 74
113 83
113 87
113 92
113 94
113 112
113 115
113 126
113 128
113 132
113 134
113 147
113 149
113 150
113 154
114 63
114 78
114 107
114 122
114 129
114 145
114 155
114 163
115 74
115 85
115 92
115 93
115 108
115 112
115 113
115 125
115 132
115 134
115 140
115 147
115 150
115 164
116 75
116 95
116 98
116 102
116 117
116 146
116 158
116 172
117 69
117 75
117 86
117 95
117 105
117 116
117 120
117 124
117 143
117 156
117 165
117 172
118 76
118 77
118 80
118 103
118 104
118 106
118 121
118 137
118 139
118 142
118 144
118 157
118 166
118 168
119 81
119 82
119 84
119 97
119 99
119 100
119 109
119 127
119 128
119 130
119 131
119 136
119 151
119 152
119 159
119 161
120 67
120 86
120 96
120 101
120 105
120 111
120 117
120 124
120 133
120 135
120 143
120 153
120 156
120 171
121 77
121 80
121 88
121 91
121 104
121 106
121 110
121 118
121 137
121 139
121 144
121 148
121 157
121 167
121 168
122 114
122 129
122 145
122 163
123 73
123 89
123 90
123 99
123 103
123 130
123 131
123 141
123 142
123 152
123 160
123 166
124 86
124 101
124 105
124 117
124 120
124 135
124 143
124 156
124 165
125 85
125 93
125 108
125 112
125 115
125 132
125 140
125 147
125 150
125 164
126 79
126 83
126 87
126 92
126 94
126 109
126 112
126 113
126 127
126 128
126 132
126 134
126 149
126 150
126 151
126 154
126 162
126 173
126 174
127 79
127 81
127 82
127 94
127 97
127 100
127 109
127 119
127 126
127 128
127 130
127 136
127 149
127 151
127 159
127 161
127 162
128 79
128 83
128 87
128 94
128 100
128 109
128 113
128 119
128 126
128 127
128 134
128 136
128 149
128 151
128 154
128 159
128 162
128 174
129 78
129 102
129 107
129 114
129 122
129 138
129 145
129 155
129 163
130 84
130 90
130 97
130 99
130 100
130 119
130 123
130 127
130 131
130 136
130 152
130 159
130 161
130 169
130 179
131 90
131 99
131 119
131 123
131 130
131 136
131 141
131 152
131 160
131 161
131 169
131 180
132 74
132 92
132 108
132 112
132 113
132 115
132 125
132 126
132 134
132 140
132 147
132 150
132 154
132 173
133 91
133 96
133 101
133 110
133 111
133 120
133 135
133 148
133 153
133 167
133 170
133 171
133 176
134 83
134 87
134 92
134 94
134 112
134 113
134 115
134 126
134 128
134 132
134 147
134 149
134 150
134 154
134 162
134 173
134 174
135 96
135 101
135 105
135 111
135 120
135 124
135 133
135 143
135 153
135 156
135 170
135 171
135 176
136 82
136 84
136 97
136 99
136 100
136 109
136 119
136 127
136 128
136 130
136 131
136 151
136 152
136 159
136 161
136 169
136 179
136 181
137 103
137 104
137 106
137 118
137 121
137 139
137 141
137 142
137 144
137 157
137 166
137 168
137 186
138 98
138 102
138 107
138 129
138 145
138 146
138 155
138 158
138 177
139 103
139 104
139 106
139 118
139 121
139 137
139 142
139 144
139 148
139 157
139 166
139 167
139 168
139 186
139 190
140 93
140 108
140 112
140 115
140 125
140 132
140 147
140 150
140 164
140 178
141 89
141 90
141 103
141 123
141 131
141 137
141 142
141 152
141 160
141 166
141 169
141 180
141 183
141 185
142 89
142 103
142 104
142 118
142 123
142 137
142 139
142 141
142 157
142 160
142 166
142 185
142 187
143 105
143 117
143 120
143 124
143 135
143 156
143 165
143 171
143 182
143 184
144 88
144 104
144 106
144 110
144 118
144 121
144 137
144 139
144 148
144 157
144 167
144 168
144 170
144 189
144 190
145 107
145 114
145 122
145 129
145 138
145 155
145 163
145 194
146 98
146 102
146 116
146 138
146 158
146 172
146 175
146 192
146 197
147 108
147 112
147 113
147 115
147 125
147 132
147 134
147 140
147 150
147 154
147 164
147 173
147 178
147 191
147 193
148 91
148 106
148 110
148 111
148 121
148 133
148 139
148 144
148 153
148 167
148 168
148 170
148 176
148 189
148 195
148 200
149 94
149 109
149 113
149 126
149 127
149 128
149 134
149 151
149 154
149 162
149 173
149 174
149 199
150 112
150 113
150 115
150 125
150 126
150 132
150 134
150 140
150 147
150 154
150 173
150 174
150 191
150 193
150 196
151 100
151 109
151 119
151 126
151 127
151 128
151 136
151 149
151 159
151 161
151 162
151 174
151 181
151 201
151 202
152 99
152 119
152 123
152 130
152 131
152 136
152 141
152 159
152 160
152 161
152 169
152 179
152 180
152 181
152 183
153 96
153 110
153 111
153 120
153 133
153 135
153 148
153 156
153 167
153 170
153 171
153 176
153 200
153 204
154 112
154 113
154 126
154 128
154 132
154 134
154 147
154 149
154 150
154 162
154 173
154 174
154 191
154 196
154 199
155 107
155 114
155 129
155 138
155 145
155 163
155 177
155 194
155 203
156 105
156 117
156 120
156 124
156 135
156 143
156 153
156 165
156 171
156 182
156 184
156 198
157 104
157 118
157 121
157 137
157 139
157 142
157 144
157 166
157 168
157 185
157 186
157 187
157 189
157 190
158 116
158 138
158 146
158 172
158 175
158 188
158 192
158 197
159 119
159 127
159 128
159 130
159 136
159 151
159 152
159 161
159 162
159 169
159 179
159 181
159 201
159 205
159 207
160 123
160 131
160 141
160 142
160 152
160 166
160 169
160 180
160 183
160 185
160 187
160 208
161 119
161 127
161 130
161 131
161 136
161 151
161 152
161 159
161 169
161 179
161 180
161 181
161 201
161 205
161 207
162 126
162 127
162 128
162 134
162 149
162 151
162 154
162 159
162 173
162 174
162 196
162 199
162 202
163 114
163 122
163 129
163 145
163 155
163 194
163 212
164 108
164 115
164 125
164 140
164 147
164 178
164 193
164 206
164 211
165 117
165 124
165 143
165 156
165 172
165 182
165 184
165 188
165 213
166 118
166 123
166 137
166 139
166 141
166 142
166 157
166 160
166 183
166 185
166 186
166 187
166 209
167 110
167 121
167 133
167 139
167 144
167 148
167 153
167 168
167 170
167 176
167 189
167 195
167 200
167 204
168 118
168 121
168 137
168 139
168 144
168 148
168 157
168 167
168 186
168 189
168 190
168 195
168 214
168 215
169 130
169 131
169 136
169 141
169 152
169 159
169 160
169 161
169 179
169 180
169 181
169 183
169 205
169 207
169 208
170 111
170 133
170 135
170 144
170 148
170 153
170 167
170 171
170 176
170 189
170 195
170 200
170 204
171 120
171 133
171 135
171 143
171 153
171 156
171 170
171 176
171 182
171 198
171 204
172 116
172 117
172 146
172 158
172 165
172 175
172 182
172 184
172 188
172 192
172 197
172 216
172 218
173 126
173 132
173 134
173 147
173 149
173 150
173 154
173 162
173 174
173 191
173 193
173 196
173 199
173 210
173 220
173 221
174 126
174 128
174 134
174 149
174 150
174 151
174 154
174 162
174 173
174 191
174 196
174 199
174 202
174 220
174 221
175 146
175 158
175 172
175 177
175 188
175 192
175 197
175 203
175 216
175 218
176 133
176 135
176 148
176 153
176 167
176 170
176 171
176 195
176 198
176 200
176 204
176 223
177 138
177 155
177 175
177 194
177 197
177 203
177 212
177 217
177 227
178 140
178 147
178 164
178 193
178 206
178 210
178 211
178 219
178 222
179 130
179 136
179 152
179 159
179 161
179 169
179 180
179 181
179 183
179 201
179 205
179 207
179 208
179 225
180 131
180 141
180 152
180 160
180 161
180 169
180 179
180 181
180 183
180 185
180 205
180 207
180 208
180 209
180 229
181 136
181 151
181 152
181 159
181 161
181 169
181 179
181 180
181 201
181 202
181 205
181 207
181 224
181 225
182 143
182 156
182 165
182 171
182 172
182 184
182 188
182 198
182 213
182 216
183 141
183 152
183 160
183 166
183 169
183 179
183 180
183 185
183 187
183 207
183 208
183 209
183 229
184 143
184 156
184 165
184 172
184 182
184 188
184 192
184 198
184 213
184 216
185 141
185 142
185 157
185 160
185 166
185 180
185 183
185 186
185 187
185 208
185 209
185 229
185 230
186 137
186 139
186 157
186 166
186 168
186 185
186 187
186 189
186 190
186 209
186 214
186 215
186 236
186 238
187 142
187 157
187 160
187 166
187 183
187 185
187 186
187 190
187 208
187 209
187 214
187 230
187 236
188 158
188 165
188 172
188 175
188 182
188 184
188 192
188 197
188 213
188 216
188 218
189 144
189 148
189 157
189 167
189 168
189 170
189 186
189 190
189 195
189 200
189 214
189 215
189 237
189 238
190 139
190 144
190 157
190 168
190 186
190 187
190 189
190 195
190 214
190 215
190 236
190 237
190 238
191 147
191 150
191 154
191 173
191 174
191 193
191 196
191 199
191 206
191 210
191 219
191 220
191 221
191 228
191 240
192 146
192 158
192 172
192 175
192 184
192 188
192 197
192 203
192 216
192 218
192 231
193 147
193 150
193 164
193 173
193 178
193 191
193 206
193 210
193 211
193 219
193 222
193 228
193 233
194 145
194 155
194 163
194 177
194 203
194 212
194 217
194 227
194 235
194 241
195 148
195 167
195 168
195 170
195 176
195 189
195 190
195 200
195 204
195 214
195 215
195 223
195 237
196 150
196 154
196 162
196 173
196 174
196 191
196 199
196 202
196 210
196 220
196 221
196 234
196 240
197 146
197 158
197 172
197 175
197 177
197 188
197 192
197 203
197 217
197 218
197 227
197 231
198 156
198 171
198 176
198 182
198 184
198 204
198 213
198 223
198 245
199 149
199 154
199 162
199 173
199 174
199 191
199 196
199 201
199 202
199 220
199 221
199 224
199 226
199 234
199 243
200 148
200 153
200 167
200 170
200 176
200 189
200 195
200 204
200 215
200 223
200 242
200 244
201 151
201 159
201 161
201 179
201 181
201 199
201 202
201 205
201 207
201 224
201 225
201 226
201 232
201 247
202 151
202 162
202 174
202 181
202 196
202 199
202 201
202 205
202 221
202 224
202 226
202 232
202 234
202 243
202 247
203 155
203 175
203 177
203 192
203 194
203 197
203 212
203 217
203 227
203 231
203 241
204 153
204 167
204 170
204 171
204 176
204 195
204 198
204 200
204 223
204 242
204 244
205 159
205 161
205 169
205 179
205 180
205 181
205 201
205 202
205 207
205 224
205 225
205 226
205 232
205 239
205 246
206 164
206 178
206 191
206 193
206 210
206 211
206 219
206 222
206 228
206 233
207 159
207 161
207 169
207 179
207 180
207 181
207 183
207 201
207 205
207 208
207 224
207 225
207 232
207 239
207 246
207 252
208 160
208 169
208 179
208 180
208 183
208 185
208 187
208 207
208 209
208 229
208 230
208 239
208 249
208 252
209 166
209 180
209 183
209 185
209 186
209 187
209 208
209 214
209 229
209 230
209 236
209 249
210 173
210 178
210 191
210 193
210 196
210 206
210 211
210 219
210 220
210 221
210 222
210 228
210 233
210 240
210 253
210 255
211 164
211 178
211 193
211 206
211 210
211 219
211 222
211 228
211 233
211 256
212 163
212 177
212 194
212 203
212 217
212 227
212 235
212 241
213 165
213 182
213 184
213 188
213 198
213 216
213 245
213 254
213 261
214 168
214 186
214 187
214 189
214 190
214 195
214 209
214 215
214 236
214 237
214 238
214 250
214 251
215 168
215 186
215 189
215 190
215 195
215 200
215 214
215 236
215 237
215 238
215 242
215 248
215 250
215 251
216 172
216 175
216 182
216 184
216 188
216 192
216 213
216 218
217 177
217 194
217 197
217 203
217 212
217 218
217 227
217 231
217 241
218 172
218 175
218 188
218 192
218 197
218 216
218 217
218 231
218 267
219 178
219 191
219 193
219 206
219 210
219 211
219 220
219 222
219 228
219 233
219 240
219 253
219 256
219 263
219 270
220 173
220 174
220 191
220 196
220 199
220 210
220 219
220 221
220 226
220 228
220 234
220 240
220 243
220 253
220 255
220 257
221 173
221 174
221 191
221 196
221 199
221 202
221 210
221 220
221 224
221 226
221 234
221 240
221 243
221 247
221 255
221 257
221 269
222 178
222 193
222 206
222 210
222 211
222 219
222 228
222 233
222 256
222 263
223 176
223 195
223 198
223 200
223 204
223 242
223 244
223 245
223 248
223 254
223 258
223 266
224 181
224 199
224 201
224 202
224 205
224 207
224 221
224 225
224 226
224 232
224 234
224 243
224 246
224 247
224 259
224 269
225 179
225 181
225 201
225 205
225 207
225 224
225 226
225 232
225 239
225 246
225 247
225 252
225 259
225 265
225 280
226 199
226 201
226 202
226 205
226 220
226 221
226 224
226 225
226 232
226 234
226 243
226 247
226 257
226 259
226 269
227 177
227 194
227 197
227 203
227 212
227 217
227 231
227 235
227 241
227 275
228 191
228 193
228 206
228 210
228 211
228 219
228 220
228 222
228 233
228 240
228 253
228 255
228 256
228 263
228 270
228 274
229 180
229 183
229 185
229 208
229 209
229 230
229 239
229 246
229 249
229 252
229 260
229 264
230 185
230 187
230 208
230 209
230 229
230 236
230 249
230 251
230 260
230 262
230 264
231 192
231 197
231 203
231 217
231 218
231 227
231 267
231 284
231 285
232 201
232 202
232 205
232 207
232 224
232 225
232 226
232 239
232 243
232 246
232 247
232 252
232 259
232 265
232 269
232 280
233 193
233 206
233 210
233 211
233 219
233 222
233 228
233 240
233 253
233 255
233 256
233 263
233 270
233 274
233 293
234 196
234 199
234 202
234 220
234 221
234 224
234 226
234 240
234 243
234 247
234 253
234 255
234 257
234 269
234 276
234 281
234 282
235 194
235 212
235 227
235 241
235 275
235 283
235 291
236 186
236 187
236 190
236 209
236 214
236 215
236 230
236 237
236 238
236 249
236 250
236 251
236 262
236 264
236 273
237 189
237 190
237 195
237 214
237 215
237 236
237 238
237 242
237 248
237 250
237 251
237 262
237 268
237 272
237 273
238 186
238 189
238 190
238 214
238 215
238 236
238 237
238 248
238 250
238 251
238 262
238 272
238 273
239 205
239 207
239 208
239 225
239 229
239 232
239 246
239 249
239 252
239 259
239 260
239 265
239 280
240 191
240 196
240 210
240 219
240 220
240 221
240 228
240 233
240 234
240 243
240 253
240 255
240 257
240 263
240 270
240 274
240 276
240 281
240 288
241 194
241 203
241 212
241 217
241 227
241 235
241 275
241 287
241 289
241 291
242 200
242 204
242 215
242 223
242 237
242 244
242 248
242 250
242 258
242 266
242 268
242 272
242 277
242 300
243 199
243 202
243 220
243 221
243 224
243 226
243 232
243 234
243 240
243 247
243 255
243 257
243 259
243 269
243 276
243 281
243 282
243 292
243 294
244 200
244 204
244 223
244 242
244 245
244 248
244 254
244 258
244 266
244 268
244 277
244 299
245 198
245 213
245 223
245 244
245 254
245 258
245 261
245 266
245 277
245 279
246 205
246 207
246 224
246 225
246 229
246 232
246 239
246 247
246 252
246 259
246 260
246 265
246 280
246 298
247 201
247 202
247 221
247 224
247 225
247 226
247 232
247 234
247 243
247 246
247 257
247 259
247 269
247 280
247 282
247 292
247 294
248 215
248 223
248 237
248 238
248 242
248 244
248 250
248 251
248 266
248 268
248 272
248 273
248 296
248 300
249 208
249 209
249 229
249 230
249 236
249 239
249 252
249 260
249 262
249 264
249 290
249 295
249 304
250 214
250 215
250 236
250 237
250 238
250 242
250 248
250 251
250 262
250 268
250 272
250 273
250 296
250 303
251 214
251 215
251 230
251 236
251 237
251 238
251 248
251 250
251 262
251 264
251 272
251 273
251 296
251 297
251 303
252 207
252 208
252 225
252 229
252 232
252 239
252 246
252 249
252 259
252 260
252 265
252 280
252 295
252 298
253 210
253 219
253 220
253 228
253 233
253 234
253 240
253 255
253 256
253 257
253 263
253 270
253 274
253 276
253 281
253 288
253 293
253 301
253 310
254 213
254 223
254 244
254 245
254 258
254 261
254 266
254 277
254 278
254 279
254 302
254 306
255 210
255 220
255 221
255 228
255 233
255 234
255 240
255 243
255 253
255 257
255 263
255 270
255 274
255 276
255 281
255 282
255 288
255 301
255 310
256 211
256 219
256 222
256 228
256 233
256 253
256 263
256 270
256 286
256 293
256 307
257 220
257 221
257 226
257 234
257 240
257 243
257 247
257 253
257 255
257 269
257 270
257 274
257 276
257 281
257 282
257 288
257 292
257 294
257 316
258 223
258 242
258 244
258 245
258 254
258 261
258 266
258 268
258 277
258 279
258 299
258 302
258 306
258 314
259 224
259 225
259 226
259 232
259 239
259 243
259 246
259 247
259 252
259 265
259 269
259 280
259 292
259 298
259 309
260 229
260 230
260 239
260 246
260 249
260 252
260 264
260 265
260 290
260 295
260 298
260 304
261 213
261 245
261 254
261 258
261 271
261 277
261 278
261 279
261 302
261 311
261 320
262 230
262 236
262 237
262 238
262 249
262 250
262 251
262 264
262 273
262 290
262 297
262 303
262 304
262 315
262 318
263 219
263 222
263 228
263 233
263 240
263 253
263 255
263 256
263 270
263 274
263 286
263 288
263 293
263 301
263 307
263 310
263 317
264 229
264 230
264 236
264 249
264 251
264 260
264 262
264 290
264 295
264 297
264 304
264 315
265 225
265 232
265 239
265 246
265 252
265 259
265 260
265 280
265 295
265 298
265 309
265 319
266 223
266 242
266 244
266 245
266 248
266 254
266 258
266 268
266 272
266 277
266 299
266 300
266 306
266 314
266 321
267 218
267 231
267 271
267 278
267 284
267 285
267 305
267 311
267 326
268 237
268 242
268 244
268 248
268 250
268 258
268 266
268 272
268 273
268 277
268 296
268 299
268 300
268 321
269 221
269 224
269 226
269 232
269 234
269 243
269 247
269 257
269 259
269 276
269 281
269 282
269 292
269 294
269 309
269 312
269 325
269 327
270 219
270 228
270 233
270 240
270 253
270 255
270 256
270 257
270 263
270 274
270 276
270 286
270 288
270 293
270 301
270 307
270 310
270 317
271 261
271 267
271 278
271 284
271 305
271 311
271 326
272 237
272 238
272 242
272 248
272 250
272 251
272 266
272 268
272 273
272 296
272 300
272 303
272 322
273 236
273 237
273 238
273 248
273 250
273 251
273 262
273 268
273 272
273 296
273 297
273 303
273 318
273 322
274 228
274 233
274 240
274 253
274 255
274 257
274 263
274 270
274 276
274 281
274 288
274 293
274 301
274 310
274 316
274 317
275 227
275 235
275 241
275 283
275 285
275 287
275 289
275 291
275 308
275 328
275 330
276 234
276 240
276 243
276 253
276 255
276 257
276 269
276 270
276 274
276 281
276 282
276 288
276 294
276 301
276 310
276 316
276 317
276 325
276 334
277 242
277 244
277 245
277 254
277 258
277 261
277 266
277 268
277 279
277 299
277 300
277 302
277 306
277 314
277 323
278 254
278 261
278 267
278 271
278 279
278 302
278 305
278 311
278 320
279 245
279 254
279 258
279 261
279 277
279 278
279 302
279 306
279 314
279 320
279 323
280 225
280 232
280 239
280 246
280 247
280 252
280 259
280 265
280 292
280 298
280 309
280 319
280 324
280 336
281 234
281 240
281 243
281 253
281 255
281 257
281 269
281 274
281 276
281 282
281 288
281 292
281 294
281 310
281 312
281 316
281 325
281 327
281 334
282 234
282 243
282 247
282 255
282 257
282 269
282 276
282 281
282 292
282 294
282 312
282 316
282 325
282 327
282 341
283 235
283 275
283 289
283 291
283 313
283 328
284 231
284 267
284 271
284 285
284 287
284 305
284 308
284 311
284 326
284 342
285 231
285 267
285 275
285 284
285 287
285 289
285 305
285 308
285 326
285 330
285 348
286 256
286 263
286 270
286 293
286 301
286 307
286 317
286 332
286 340
287 241
287 275
287 284
287 285
287 289
287 291
287 308
287 328
287 330
287 351
288 240
288 253
288 255
288 257
288 263
288 270
288 274
288 276
288 281
288 293
288 301
288 310
288 316
288 317
288 334
288 353
289 241
289 275
289 283
289 285
289 287
289 291
289 308
289 313
289 328
289 330
289 347
289 351
290 249
290 260
290 262
290 264
290 295
290 297
290 303
290 304
290 315
290 318
290 329
290 344
291 235
291 241
291 275
291 283
291 287
291 289
291 308
291 313
291 328
291 330
291 345
291 347
292 243
292 247
292 257
292 259
292 269
292 280
292 281
292 282
292 294
292 309
292 312
292 325
292 327
292 331
292 336
292 341
292 354
293 233
293 253
293 256
293 263
293 270
293 274
293 286
293 288
293 301
293 307
293 310
293 317
293 332
293 340
294 243
294 247
294 257
294 269
294 276
294 281
294 282
294 292
294 309
294 312
294 316
294 325
294 327
294 331
294 334
294 341
294 354
295 249
295 252
295 260
295 264
295 265
295 290
295 298
295 304
295 315
295 319
295 324
295 329
295 355
296 248
296 250
296 251
296 268
296 272
296 273
296 300
296 303
296 318
296 321
296 322
296 333
296 335
296 337
297 251
297 262
297 264
297 273
297 290
297 303
297 304
297 315
297 318
297 322
297 329
297 333
297 344
298 246
298 252
298 259
298 260
298 265
298 280
298 295
298 309
298 319
298 324
298 336
298 346
298 352
298 355
299 244
299 258
299 266
299 268
299 277
299 300
299 306
299 314
299 321
299 323
299 337
299 338
299 339
299 350
300 242
300 248
300 266
300 268
300 272
300 277
300 296
300 299
300 306
300 314
300 321
300 322
300 335
300 337
300 338
300 339
301 253
301 255
301 263
301 270
301 274
301 276
301 286
301 288
301 293
301 307
301 310
301 316
301 317
301 332
301 340
301 353
302 254
302 258
302 261
302 277
302 278
302 279
302 306
302 311
302 314
302 320
302 323
302 343
302 349
302 350
303 250
303 251
303 262
303 272
303 273
303 290
303 296
303 297
303 315
303 318
303 322
303 333
303 335
303 344
303 357
304 249
304 260
304 262
304 264
304 290
304 295
304 297
304 315
304 324
304 329
304 344
304 355
305 267
305 271
305 278
305 284
305 285
305 308
305 311
305 326
305 342
305 348
306 254
306 258
306 266
306 277
306 279
306 299
306 300
306 302
306 314
306 320
306 321
306 323
306 338
306 339
306 349
306 350
307 256
307 263
307 270
307 286
307 293
307 301
307 317
307 332
307 340
308 275
308 284
308 285
308 287
308 289
308 291
308 305
308 328
308 330
308 347
308 348
308 351
309 259
309 265
309 269
309 280
309 292
309 294
309 298
309 312
309 319
309 327
309 331
309 336
309 346
309 354
309 358
310 253
310 255
310 263
310 270
310 274
310 276
310 281
310 288
310 293
310 301
310 316
310 317
310 325
310 334
310 340
310 353
310 356
311 261
311 267
311 271
311 278
311 284
311 302
311 305
311 320
311 326
311 342
311 343
311 349
311 366
312 269
312 281
312 282
312 292
312 294
312 309
312 325
312 327
312 331
312 336
312 341
312 354
312 358
313 283
313 289
313 291
313 328
313 345
313 347
314 258
314 266
314 277
314 279
314 299
314 300
314 302
314 306
314 320
314 321
314 323
314 337
314 338
314 339
314 349
314 350
315 262
315 264
315 290
315 295
315 297
315 303
315 304
315 318
315 329
315 333
315 344
315 359
315 361
316 257
316 274
316 276
316 281
316 282
316 288
316 294
316 301
316 310
316 317
316 325
316 327
316 334
316 341
316 353
316 356
316 360
316 373
317 263
317 270
317 274
317 276
317 286
317 288
317 293
317 301
317 307
317 310
317 316
317 332
317 334
317 340
317 353
317 356
317 365
317 370
318 262
318 273
318 290
318 296
318 297
318 303
318 315
318 322
318 333
318 335
318 344
318 357
318 361
318 368
318 378
319 265
319 280
319 295
319 298
319 309
319 324
319 331
319 336
319 346
319 352
319 355
319 364
320 261
320 278
320 279
320 302
320 306
320 311
320 314
320 323
320 343
320 349
320 350
320 362
320 366
321 266
321 268
321 296
321 299
321 300
321 306
321 314
321 322
321 335
321 337
321 338
321 339
321 363
321 367
322 272
322 273
322 296
322 297
322 300
322 303
322 318
322 321
322 333
322 335
322 337
322 357
322 367
322 368
323 277
323 279
323 299
323 302
323 306
323 314
323 320
323 338
323 343
323 349
323 350
323 362
323 375
324 280
324 295
324 298
324 304
324 319
324 329
324 346
324 352
324 355
324 364
324 379
325 269
325 276
325 281
325 282
325 292
325 294
325 310
325 312
325 316
325 327
325 331
325 334
325 341
325 354
325 356
325 360
326 267
326 271
326 284
326 285
326 305
326 311
326 342
326 343
326 348
326 372
326 374
327 269
327 281
327 282
327 292
327 294
327 309
327 312
327 316
327 325
327 331
327 334
327 336
327 341
327 354
327 358
327 360
327 381
328 275
328 283
328 287
328 289
328 291
328 308
328 313
328 330
328 345
328 347
328 351
328 369
328 371
329 290
329 295
329 297
329 304
329 315
329 324
329 344
329 355
329 359
329 361
329 377
330 275
330 285
330 287
330 289
330 291
330 308
330 328
330 347
330 348
330 351
330 371
331 292
331 294
331 309
331 312
331 319
331 325
331 327
331 336
331 341
331 346
331 354
331 358
331 364
331 380
331 381
331 385
332 286
332 293
332 301
332 307
332 317
332 340
332 353
332 365
333 296
333 297
333 303
333 315
333 318
333 322
333 335
333 344
333 357
333 361
333 368
333 378
333 394
334 276
334 281
334 288
334 294
334 310
334 316
334 317
334 325
334 327
334 341
334 353
334 354
334 356
334 360
334 370
334 373
334 383
335 296
335 300
335 303
335 318
335 321
335 322
335 333
335 337
335 357
335 363
335 367
335 368
335 378
335 389
336 280
336 292
336 298
336 309
336 312
336 319
336 327
336 331
336 346
336 352
336 354
336 358
336 364
336 380
336 385
336 392
337 296
337 299
337 300
337 314
337 321
337 322
337 335
337 338
337 339
337 363
337 367
337 368
337 376
337 390
337 400
338 299
338 300
338 306
338 314
338 321
338 323
338 337
338 339
338 349
338 350
338 363
338 375
338 376
338 393
338 395
339 299
339 300
339 306
339 314
339 321
339 337
339 338
339 350
339 363
339 367
339 375
339 376
339 393
339 400
340 286
340 293
340 301
340 307
340 310
340 317
340 332
340 353
340 365
340 370
340 398
341 282
341 292
341 294
341 312
341 316
341 325
341 327
341 331
341 334
341 354
341 356
341 358
341 360
341 373
341 381
341 383
342 284
342 305
342 311
342 326
342 343
342 348
342 366
342 372
342 374
342 396
342 397
343 302
343 311
343 320
343 323
343 326
343 342
343 349
343 350
343 362
343 366
343 374
343 384
343 396
344 290
344 297
344 303
344 304
344 315
344 318
344 329
344 333
344 357
344 359
344 361
344 377
344 378
344 386
344 391
344 394
345 291
345 313
345 328
345 347
345 369
345 371
345 387
345 388
346 298
346 309
346 319
346 324
346 331
346 336
346 352
346 355
346 358
346 364
346 379
346 380
346 392
347 289
347 291
347 308
347 313
347 328
347 330
347 345
347 351
347 369
347 371
347 387
347 388
348 285
348 305
348 308
348 326
348 330
348 342
348 351
348 371
348 372
348 374
348 397
348 401
349 302
349 306
349 311
349 314
349 320
349 323
349 338
349 343
349 350
349 362
349 366
349 375
349 384
349 404
350 299
350 302
350 306
350 314
350 320
350 323
350 338
350 339
350 343
350 349
350 362
350 375
350 376
350 384
350 395
350 404
351 287
351 289
351 308
351 328
351 330
351 347
351 348
351 369
351 371
351 388
351 399
351 401
352 298
352 319
352 324
352 336
352 346
352 355
352 358
352 364
352 379
352 380
352 382
353 288
353 301
353 310
353 316
353 317
353 332
353 334
353 340
353 356
353 360
353 365
353 370
353 373
353 403
353 405
354 292
354 294
354 309
354 312
354 325
354 327
354 331
354 334
354 336
354 341
354 356
354 358
354 360
354 381
354 383
354 385
355 295
355 298
355 304
355 319
355 324
355 329
355 346
355 352
355 359
355 364
355 377
355 379
355 380
355 382
356 310
356 316
356 317
356 325
356 334
356 341
356 353
356 354
356 360
356 365
356 370
356 373
356 381
356 383
356 402
356 403
356 405
357 303
357 318
357 322
357 333
357 335
357 344
357 359
357 361
357 367
357 368
357 378
357 386
357 389
357 391
357 394
357 406
358 309
358 312
358 327
358 331
358 336
358 341
358 346
358 352
358 354
358 364
358 380
358 381
358 385
358 392
358 410
358 416
359 315
359 329
359 344
359 355
359 357
359 361
359 377
359 379
359 382
359 386
359 391
359 394
360 316
360 325
360 327
360 334
360 341
360 353
360 354
360 356
360 370
360 373
360 381
360 383
360 402
360 403
360 411
361 315
361 318
361 329
361 333
361 344
361 357
361 359
361 368
361 377
361 378
361 382
361 386
361 391
361 394
361 406
362 320
362 323
362 343
362 349
362 350
362 366
362 375
362 376
362 384
362 395
362 396
362 404
362 423
363 321
363 335
363 337
363 338
363 339
363 367
363 368
363 376
363 389
363 390
363 393
363 395
363 400
363 414
363 418
364 319
364 324
364 331
364 336
364 346
364 352
364 355
364 358
364 379
364 380
364 385
364 392
364 408
364 412
365 317
365 332
365 340
365 353
365 356
365 370
365 373
365 398
365 403
365 405
365 407
365 409
365 413
366 311
366 320
366 342
366 343
366 349
366 362
366 372
366 374
366 384
366 396
366 397
367 321
367 322
367 335
367 337
367 339
367 357
367 363
367 368
367 378
367 389
367 390
367 393
367 400
367 406
367 414
367 427
368 318
368 322
368 333
368 335
368 337
368 357
368 361
368 363
368 367
368 378
368 389
368 390
368 391
368 394
368 406
368 421
368 427
369 328
369 345
369 347
369 351
369 371
369 387
369 388
369 399
369 429
369 430
370 317
370 334
370 340
370 353
370 356
370 360
370 365
370 373
370 383
370 398
370 402
370 403
370 405
370 407
370 409
370 413
370 415
371 328
371 330
371 345
371 347
371 348
371 351
371 369
371 387
371 388
371 399
371 401
371 424
372 326
372 342
372 348
372 366
372 374
372 396
372 397
372 399
372 401
372 428
373 316
373 334
373 341
373 353
373 356
373 360
373 365
373 370
373 381
373 383
373 402
373 403
373 405
373 407
373 409
373 411
373 415
374 326
374 342
374 343
374 348
374 366
374 372
374 396
374 397
374 401
374 431
375 323
375 338
375 339
375 349
375 350
375 362
375 376
375 384
375 393
375 395
375 404
375 419
375 423
376 337
376 338
376 339
376 350
376 362
376 363
376 375
376 390
376 393
376 395
376 400
376 404
376 418
376 419
376 434
377 329
377 344
377 355
377 359
377 361
377 379
377 382
377 386
377 391
377 417
377 420
377 425
378 318
378 333
378 335
378 344
378 357
378 361
378 367
378 368
378 386
378 389
378 390
378 391
378 394
378 406
378 421
378 422
378 427
379 324
379 346
379 352
379 355
379 359
379 364
379 377
379 380
379 382
379 392
379 408
379 412
379 417
379 420
380 331
380 336
380 346
380 352
380 355
380 358
380 364
380 379
380 385
380 392
380 408
380 412
380 416
380 433
381 327
381 331
381 341
381 354
381 356
381 358
381 360
381 373
381 383
381 385
381 392
381 402
381 410
381 411
381 416
381 426
382 352
382 355
382 359
382 361
382 377
382 379
382 386
382 391
382 412
382 417
382 420
382 425
383 334
383 341
383 354
383 356
383 360
383 370
383 373
383 381
383 385
383 402
383 403
383 409
383 410
383 411
383 415
383 426
384 343
384 349
384 350
384 362
384 366
384 375
384 395
384 396
384 404
384 423
384 435
384 444
385 331
385 336
385 354
385 358
385 364
385 380
385 381
385 383
385 392
385 408
385 410
385 416
385 426
385 433
385 451
386 344
386 357
386 359
386 361
386 377
386 378
386 382
386 391
386 394
386 417
386 420
386 422
386 425
386 432
387 345
387 347
387 369
387 371
387 388
387 429
387 430
388 345
388 347
388 351
388 369
388 371
388 387
388 399
388 429
388 430
388 436
389 335
389 357
389 363
389 367
389 368
389 378
389 390
389 394
389 400
389 406
389 414
389 418
389 421
389 427
389 447
390 337
390 363
390 367
390 368
390 376
390 378
390 389
390 393
390 400
390 406
390 414
390 418
390 421
390 427
390 447
390 450
391 344
391 357
391 359
391 361
391 368
391 377
391 378
391 382
391 386
391 394
391 406
391 420
391 421
391 422
391 425
391 432
391 440
392 336
392 346
392 358
392 364
392 379
392 380
392 381
392 385
392 408
392 410
392 412
392 416
392 433
392 451
393 338
393 339
393 363
393 367
393 375
393 376
393 390
393 395
393 400
393 404
393 414
393 418
393 419
393 434
393 443
393 452
393 453
394 333
394 344
394 357
394 359
394 361
394 368
394 378
394 386
394 389
394 391
394 406
394 421
394 422
394 425
394 427
394 432
394 440
395 338
395 350
395 362
395 363
395 375
395 376
395 384
395 393
395 400
395 404
395 418
395 419
395 423
395 434
395 442
395 443
395 452
396 342
396 343
396 362
396 366
396 372
396 374
396 384
396 397
396 431
396 435
396 439
396 446
397 342
397 348
397 366
397 372
397 374
397 396
397 401
397 424
397 428
397 431
397 435
397 439
398 340
398 365
398 370
398 403
398 405
398 407
398 409
398 413
398 437
398 438
398 449
399 351
399 369
399 371
399 372
399 388
399 401
399 424
399 428
399 430
399 436
400 337
400 339
400 363
400 367
400 376
400 389
400 390
400 393
400 395
400 414
400 418
400 419
400 427
400 434
400 450
400 452
400 453
401 348
401 351
401 371
401 372
401 374
401 397
401 399
401 424
401 428
401 436
401 439
402 356
402 360
402 370
402 373
402 381
402 383
402 403
402 405
402 409
402 411
402 415
402 426
402 445
402 455
403 353
403 356
403 360
403 365
403 370
403 373
403 383
403 398
403 402
403 405
403 407
403 409
403 411
403 413
403 415
403 438
403 445
404 349
404 350
404 362
404 375
404 376
404 384
404 393
404 395
404 419
404 423
404 434
404 442
404 443
404 444
405 353
405 356
405 365
405 370
405 373
405 398
405 402
405 403
405 407
405 409
405 413
405 415
405 438
405 445
405 449
405 456
406 357
406 361
406 367
406 368
406 378
406 389
406 390
406 391
406 394
406 414
406 421
406 422
406 427
406 432
406 440
406 447
407 365
407 370
407 373
407 398
407 403
407 405
407 409
407 413
407 437
407 438
407 445
407 449
407 456
408 364
408 379
408 380
408 385
408 392
408 412
408 416
408 417
408 433
408 441
408 448
408 457
408 460
409 365
409 370
409 373
409 383
409 398
409 402
409 403
409 405
409 407
409 411
409 413
409 415
409 438
409 445
409 449
409 455
409 456
409 466
410 358
410 381
410 383
410 385
410 392
410 411
410 416
410 426
410 433
410 451
410 462
410 477
411 360
411 373
411 381
411 383
411 402
411 403
411 409
411 410
411 415
411 426
411 445
411 455
411 462
411 474
412 364
412 379
412 380
412 382
412 392
412 408
412 417
412 420
412 433
412 441
412 448
412 457
412 460
412 461
412 467
413 365
413 370
413 398
413 403
413 405
413 407
413 409
413 437
413 438
413 445
413 449
413 456
413 470
414 363
414 367
414 389
414 390
414 393
414 400
414 406
414 418
414 421
414 427
414 434
414 447
414 450
414 452
414 453
414 472
414 473
415 370
415 373
415 383
415 402
415 403
415 405
415 409
415 411
415 426
415 438
415 445
415 455
415 456
415 462
415 466
415 474
416 358
416 380
416 381
416 385
416 392
416 408
416 410
416 426
416 433
416 451
416 457
416 477
416 479
416 483
417 377
417 379
417 382
417 386
417 408
417 412
417 420
417 425
417 441
417 448
417 458
417 460
417 461
417 467
418 363
418 376
418 389
418 390
418 393
418 395
418 400
418 414
418 419
418 427
418 434
418 443
418 447
418 450
418 452
418 453
418 471
418 473
419 375
419 376
419 393
419 395
419 400
419 404
419 418
419 423
419 434
419 442
419 443
419 444
419 452
419 453
419 471
419 484
420 377
420 379
420 382
420 386
420 391
420 412
420 417
420 422
420 425
420 432
420 448
420 458
420 459
420 461
420 467
420 476
421 368
421 378
421 389
421 390
421 391
421 394
421 406
421 414
421 422
421 425
421 427
421 432
421 440
421 447
421 450
421 459
421 472
421 475
421 481
422 378
422 386
422 391
422 394
422 406
422 420
422 421
422 425
422 427
422 432
422 440
422 447
422 458
422 459
422 475
422 476
423 362
423 375
423 384
423 395
423 404
423 419
423 434
423 435
423 442
423 443
423 444
423 446
423 452
423 469
423 482
424 371
424 397
424 399
424 401
424 428
424 430
424 436
424 439
424 463
424 464
424 480
424 485
425 377
425 382
425 386
425 391
425 394
425 417
425 420
425 421
425 422
425 432
425 440
425 448
425 458
425 459
425 467
425 476
426 381
426 383
426 385
426 402
426 410
426 411
426 415
426 416
426 433
426 451
426 455
426 462
426 474
426 477
427 367
427 368
427 378
427 389
427 390
427 394
427 400
427 406
427 414
427 418
427 421
427 422
427 440
427 447
427 450
427 453
427 472
427 473
427 481
428 372
428 397
428 399
428 401
428 424
428 431
428 436
428 439
428 463
428 464
428 485
429 369
429 387
429 388
429 430
429 436
429 454
429 468
429 478
430 369
430 387
430 388
430 399
430 424
430 429
430 436
430 454
430 468
430 478
430 480
431 374
431 396
431 397
431 428
431 435
431 439
431 444
431 446
431 463
431 464
431 465
431 486
431 488
432 386
432 391
432 394
432 406
432 420
432 421
432 422
432 425
432 440
432 458
432 459
432 475
432 476
432 489
433 380
433 385
433 392
433 408
433 410
433 412
433 416
433 426
433 441
433 451
433 457
433 460
433 479
433 483
434 376
434 393
434 395
434 400
434 404
434 414
434 418
434 419
434 423
434 442
434 443
434 450
434 452
434 453
434 471
434 484
435 384
435 396
435 397
435 423
435 431
435 439
435 442
435 444
435 446
435 463
435 465
435 469
435 488
435 490
436 388
436 399
436 401
436 424
436 428
436 429
436 430
436 454
436 464
436 468
436 478
436 480
436 485
437 398
437 407
437 413
437 438
437 449
437 456
437 470
437 487
438 398
438 403
438 405
438 407
438 409
438 413
438 415
438 437
438 445
438 449
438 455
438 456
438 466
438 470
438 487
438 492
439 396
439 397
439 401
439 424
439 428
439 431
439 435
439 446
439 463
439 464
439 465
439 485
439 486
440 391
440 394
440 406
440 421
440 422
440 425
440 427
440 432
440 447
440 458
440 459
440 472
440 475
440 476
440 481
440 489
441 408
441 412
441 417
441 433
441 448
441 457
441 460
441 461
441 467
441 479
441 491
441 495
441 503
442 395
442 404
442 419
442 423
442 434
442 435
442 443
442 444
442 446
442 452
442 469
442 482
442 484
442 490
442 494
443 393
443 395
443 404
443 418
443 419
443 423
443 434
443 442
443 444
443 452
443 453
443 469
443 471
443 482
443 484
443 494
443 501
444 384
444 404
444 419
444 423
444 431
444 435
444 442
444 443
444 446
444 465
444 469
444 482
444 488
444 490
444 494
445 402
445 403
445 405
445 407
445 409
445 411
445 413
445 415
445 438
445 449
445 455
445 456
445 466
445 474
445 487
445 492
445 504
446 396
446 423
446 431
446 435
446 439
446 442
446 444
446 463
446 465
446 469
446 482
446 486
446 488
446 490
447 389
447 390
447 406
447 414
447 418
447 421
447 422
447 427
447 440
447 450
447 453
447 472
447 473
447 475
447 481
447 493
448 408
448 412
448 417
448 420
448 425
448 441
448 458
448 460
448 461
448 467
448 476
448 491
448 495
448 500
449 398
449 405
449 407
449 409
449 413
449 437
449 438
449 445
449 456
449 466
449 470
449 487
449 492
449 499
449 505
450 390
450 400
450 414
450 418
450 421
450 427
450 434
450 447
450 452
450 453
450 471
450 472
450 473
450 481
450 493
450 496
451 385
451 392
451 410
451 416
451 426
451 433
451 457
451 462
451 477
451 479
451 483
451 497
451 498
451 506
452 393
452 395
452 400
452 414
452 418
452 419
452 423
452 434
452 442
452 443
452 450
452 453
452 469
452 471
452 473
452 482
452 484
452 496
452 501
453 393
453 400
453 414
453 418
453 419
453 427
453 434
453 443
453 447
453 450
453 452
453 471
453 472
453 473
453 484
453 496
453 501
454 429
454 430
454 436
454 468
454 478
454 480
454 502
455 402
455 409
455 411
455 415
455 426
455 438
455 445
455 456
455 462
455 466
455 474
455 477
455 498
455 504
455 512
456 405
456 407
456 409
456 413
456 415
456 437
456 438
456 445
456 449
456 455
456 466
456 470
456 474
456 487
456 492
456 499
456 505
456 508
457 408
457 412
457 416
457 433
457 441
457 451
457 460
457 461
457 477
457 479
457 483
457 491
457 497
457 503
457 510
458 417
458 420
458 422
458 425
458 432
458 440
458 448
458 459
458 461
458 467
458 475
458 476
458 489
458 500
458 509
459 420
459 421
459 422
459 425
459 432
459 440
459 458
459 467
459 475
459 476
459 481
459 489
459 509
459 513
460 408
460 412
460 417
460 433
460 441
460 448
460 457
460 461
460 467
460 479
460 483
460 491
460 495
460 497
460 503
460 515
461 412
461 417
461 420
461 441
461 448
461 457
461 458
461 460
461 467
461 479
461 491
461 495
461 497
461 500
461 503
461 515
462 410
462 411
462 415
462 426
462 451
462 455
462 466
462 474
462 477
462 483
462 498
462 504
462 506
462 512
462 522
463 424
463 428
463 431
463 435
463 439
463 446
463 464
463 465
463 485
463 486
463 488
463 511
463 516
463 519
464 424
464 428
464 431
464 436
464 439
464 463
464 480
464 485
464 486
464 507
464 511
464 516
465 431
465 435
465 439
465 444
465 446
465 463
465 469
465 486
465 488
465 490
465 514
465 519
465 523
466 409
466 415
466 438
466 445
466 449
466 455
466 456
466 462
466 474
466 487
466 492
466 504
466 508
466 512
466 520
467 412
467 417
467 420
467 425
467 441
467 448
467 458
467 459
467 460
467 461
467 476
467 491
467 495
467 500
467 509
467 515
468 429
468 430
468 436
468 454
468 478
468 480
468 502
468 507
468 529
469 423
469 435
469 442
469 443
469 444
469 446
469 452
469 465
469 482
469 484
469 488
469 490
469 494
469 501
469 514
469 518
469 523
470 413
470 437
470 438
470 449
470 456
470 487
470 492
470 499
470 505
470 508
470 517
471 418
471 419
471 434
471 443
471 450
471 452
471 453
471 472
471 473
471 482
471 484
471 493
471 496
471 501
471 524
471 525
471 526
472 414
472 421
472 427
472 440
472 447
472 450
472 453
472 471
472 473
472 475
472 481
472 493
472 496
472 521
472 527
473 414
473 418
473 427
473 447
473 450
473 452
473 453
473 471
473 472
473 481
473 493
473 496
473 501
473 524
473 526
473 527
474 411
474 415
474 426
474 445
474 455
474 456
474 462
474 466
474 477
474 492
474 498
474 504
474 512
474 520
474 522
474 532
475 421
475 422
475 432
475 440
475 447
475 458
475 459
475 472
475 476
475 481
475 489
475 493
475 513
475 521
475 528
476 420
476 422
476 425
476 432
476 440
476 448
476 458
476 459
476 467
476 475
476 489
476 495
476 500
476 509
476 513
477 410
477 416
477 426
477 451
477 455
477 457
477 462
477 474
477 479
477 483
477 497
477 498
477 506
477 510
477 512
477 522
478 429
478 430
478 436
478 454
478 468
478 480
478 485
478 502
478 507
478 529
479 416
479 433
479 441
479 451
479 457
479 460
479 461
479 477
479 483
479 491
479 497
479 503
479 506
479 510
479 515
480 424
480 430
480 436
480 454
480 464
480 468
480 478
480 485
480 502
480 507
480 511
480 535
481 421
481 427
481 440
481 447
481 450
481 459
481 472
481 473
481 475
481 489
481 493
481 513
481 521
481 528
481 536
482 423
482 442
482 443
482 444
482 446
482 452
482 469
482 471
482 484
482 490
482 494
482 501
482 518
482 523
482 525
482 538
483 416
483 433
483 451
483 457
483 460
483 462
483 477
483 479
483 497
483 498
483 503
483 506
483 510
483 522
483 533
483 534
484 419
484 434
484 442
484 443
484 452
484 453
484 469
484 471
484 482
484 494
484 496
484 501
484 518
484 524
484 525
485 424
485 428
485 436
485 439
485 463
485 464
485 478
485 480
485 486
485 507
485 511
485 516
485 535
486 431
486 439
486 446
486 463
486 464
486 465
486 485
486 488
486 490
486 511
486 514
486 516
486 519
487 437
487 438
487 445
487 449
487 456
487 466
487 470
487 492
487 499
487 505
487 508
487 517
487 530
487 540
488 431
488 435
488 444
488 446
488 463
488 465
488 469
488 486
488 490
488 514
488 516
488 519
488 523
489 432
489 440
489 458
489 459
489 475
489 476
489 481
489 500
489 509
489 513
489 521
489 528
489 541
489 544
490 435
490 442
490 444
490 446
490 465
490 469
490 482
490 486
490 488
490 494
490 514
490 518
490 519
490 523
490 538
491 441
491 448
491 457
491 460
491 461
491 467
491 479
491 495
491 497
491 500
491 503
491 515
491 531
491 542
491 546
492 438
492 445
492 449
492 456
492 466
492 470
492 474
492 487
492 499
492 504
492 505
492 508
492 517
492 520
492 530
492 539
493 447
493 450
493 471
493 472
493 473
493 475
493 481
493 496
493 521
493 526
493 527
493 536
493 548
494 442
494 443
494 444
494 469
494 482
494 484
494 490
494 501
494 514
494 518
494 523
494 525
494 538
495 441
495 448
495 460
495 461
495 467
495 476
495 491
495 497
495 500
495 503
495 509
495 515
495 531
495 537
495 546
496 450
496 452
496 453
496 471
496 472
496 473
496 484
496 493
496 501
496 524
496 525
496 526
496 527
496 545
496 547
496 548
497 451
497 457
497 460
497 461
497 477
497 479
497 483
497 491
497 495
497 503
497 506
497 510
497 515
497 533
497 542
497 546
498 451
498 455
498 462
498 474
498 477
498 483
498 504
498 506
498 510
498 512
498 522
498 532
498 533
498 534
498 549
498 550
499 449
499 456
499 470
499 487
499 492
499 505
499 508
499 517
499 530
499 540
500 448
500 458
500 461
500 467
500 476
500 489
500 491
500 495
500 509
500 513
500 515
500 531
500 537
500 541
501 443
501 452
501 453
501 469
501 471
501 473
501 482
501 484
501 494
501 496
501 518
501 524
501 525
501 526
501 538
501 545
501 547
502 454
502 468
502 478
502 480
502 507
502 529
502 543
503 441
503 457
503 460
503 461
503 479
503 483
503 491
503 495
503 497
503 510
503 515
503 533
503 542
503 546
504 445
504 455
504 462
504 466
504 474
504 492
504 498
504 508
504 512
504 520
504 522
504 530
504 532
504 539
504 549
505 449
505 456
505 470
505 487
505 492
505 499
505 508
505 517
505 520
505 530
505 539
505 540
506 451
506 462
506 477
506 479
506 483
506 497
506 498
506 510
506 512
506 522
506 533
506 534
506 550
507 464
507 468
507 478
507 480
507 485
507 502
507 511
507 529
507 535
508 456
508 466
508 470
508 487
508 492
508 499
508 504
508 505
508 517
508 520
508 530
508 532
508 539
508 540
509 458
509 459
509 467
509 476
509 489
509 495
509 500
509 513
509 528
509 531
509 537
509 541
509 544
510 457
510 477
510 479
510 483
510 497
510 498
510 503
510 506
510 522
510 533
510 534
510 542
510 550
511 463
511 464
511 480
511 485
511 486
511 507
511 516
511 519
511 535
512 455
512 462
512 466
512 474
512 477
512 498
512 504
512 506
512 520
512 522
512 532
512 534
512 539
512 549
512 550
513 459
513 475
513 476
513 481
513 489
513 500
513 509
513 521
513 528
513 536
513 537
513 541
513 544
514 465
514 469
514 486
514 488
514 490
514 494
514 516
514 519
514 523
514 538
515 460
515 461
515 467
515 479
515 491
515 495
515 497
515 500
515 503
515 531
515 542
515 546
516 463
516 464
516 485
516 486
516 488
516 511
516 514
516 519
516 535
517 470
517 487
517 492
517 499
517 505
517 508
517 530
517 539
517 540
518 469
518 482
518 484
518 490
518 494
518 501
518 523
518 524
518 525
518 538
518 545
519 463
519 465
519 486
519 488
519 490
519 511
519 514
519 516
519 523
520 466
520 474
520 492
520 504
520 505
520 508
520 512
520 530
520 532
520 539
520 549
521 472
521 475
521 481
521 489
521 493
521 513
521 527
521 528
521 536
521 541
521 544
521 548
522 462
522 474
522 477
522 483
522 498
522 504
522 506
522 510
522 512
522 532
522 533
522 534
522 549
522 550
523 465
523 469
523 482
523 488
523 490
523 494
523 514
523 518
523 519
523 538
524 471
524 473
524 484
524 496
524 501
524 518
524 525
524 526
524 527
524 545
524 547
524 548
525 471
525 482
525 484
525 494
525 496
525 501
525 518
525 524
525 526
525 538
525 545
525 547
525 548
526 471
526 473
526 493
526 496
526 501
526 524
526 525
526 527
526 536
526 545
526 547
526 548
527 472
527 473
527 493
527 496
527 521
527 524
527 526
527 536
527 545
527 547
527 548
528 475
528 481
528 489
528 509
528 513
528 521
528 536
528 537
528 541
528 544
529 468
529 478
529 502
529 507
529 535
529 543
530 487
530 492
530 499
530 504
530 505
530 508
530 517
530 520
530 539
530 540
531 491
531 495
531 500
531 509
531 515
531 537
531 541
531 546
532 474
532 498
532 504
532 508
532 512
532 520
532 522
532 534
532 539
532 549
532 550
533 483
533 497
533 498
533 503
533 506
533 510
533 522
533 534
533 542
533 546
533 550
534 483
534 498
534 506
534 510
534 512
534 522
534 532
534 533
534 542
534 549
534 550
535 480
535 485
535 507
535 511
535 516
535 529
536 481
536 493
536 513
536 521
536 526
536 527
536 528
536 544
536 548
537 495
537 500
537 509
537 513
537 528
537 531
537 541
537 544
538 482
538 490
538 494
538 501
538 514
538 518
538 523
538 525
538 545
539 492
539 504
539 505
539 508
539 512
539 517
539 520
539 530
539 532
539 540
539 549
540 487
540 499
540 505
540 508
540 517
540 530
540 539
541 489
541 500
541 509
541 513
541 521
541 528
541 531
541 537
541 544
542 491
542 497
542 503
542 510
542 515
542 533
542 534
542 546
543 502
543 529
544 489
544 509
544 513
544 521
544 528
544 536
544 537
544 541
545 496
545 501
545 518
545 524
545 525
545 526
545 527
545 538
545 547
545 548
546 491
546 495
546 497
546 503
546 515
546 531
546 533
546 542
547 496
547 501
547 524
547 525
547 526
547 527
547 545
547 548
548 493
548 496
548 521
548 524
548 525
548 526
548 527
548 536
548 545
548 547
549 498
549 504
549 512
549 520
549 522
549 532
549 534
549 539
549 550
550 498
550 506
550 510
550 512
550 522
550 532
550 533
550 534
550 549
