1 4
1 29
1 31
2 4
2 8
2 23
2 27
2 40
3 17
3 24
3 25
4 1
4 2
4 27
4 31
4 40
5 20
5 21
5 34
5 41
6 12
6 15
6 16
6 32
6 39
7 14
7 22
7 36
7 46
8 2
8 23
8 36
9 10
9 30
9 35
9 42
10 9
10 30
10 35
10 42
11 12
11 15
11 26
12 6
12 11
12 15
12 32
12 43
13 17
13 19
13 20
13 44
13 45
13 47
14 7
14 16
14 22
14 33
14 46
15 6
15 11
15 12
15 32
15 43
15 61
16 6
16 14
16 32
16 33
16 39
16 57
17 3
17 13
17 25
17 45
17 47
17 50
18 21
18 30
18 37
18 38
18 41
18 62
19 13
19 20
19 44
19 45
19 63
20 5
20 13
20 19
20 34
20 44
20 60
21 5
21 18
21 34
21 37
21 41
21 55
22 7
22 14
22 33
22 36
22 46
22 51
23 2
23 8
23 27
23 36
23 40
23 52
24 3
24 25
24 28
24 48
24 49
24 50
25 3
25 17
25 24
25 47
25 49
25 50
26 11
26 65
27 2
27 4
27 23
27 31
27 40
27 52
27 59
27 69
28 24
28 29
28 48
28 49
28 53
29 1
29 28
29 31
29 48
29 53
29 54
29 66
30 9
30 10
30 18
30 35
30 38
30 56
30 58
30 64
31 1
31 4
31 27
31 29
31 40
31 53
31 54
31 59
31 66
32 6
32 12
32 15
32 16
32 39
32 43
32 57
32 68
32 73
33 14
33 16
33 22
33 39
33 46
33 57
34 5
34 20
34 21
34 41
34 55
34 60
35 9
35 10
35 30
35 38
35 42
35 56
35 58
35 67
36 7
36 8
36 22
36 23
36 46
36 51
36 52
36 74
37 18
37 21
37 38
37 41
37 55
37 62
37 64
38 18
38 30
38 35
38 37
38 58
38 62
38 64
39 6
39 16
39 32
39 33
39 57
39 68
39 77
40 2
40 4
40 23
40 27
40 31
40 52
40 59
40 69
40 71
41 5
41 18
41 21
41 34
41 37
41 55
41 60
41 62
41 76
42 9
42 10
42 35
42 56
42 58
42 67
43 12
43 15
43 32
43 61
43 68
43 73
44 13
44 19
44 20
44 45
44 60
44 63
44 84
45 13
45 17
45 19
45 44
45 47
45 63
45 80
45 83
46 7
46 14
46 22
46 33
46 36
46 51
46 72
46 78
47 13
47 17
47 25
47 45
47 50
47 63
47 80
48 24
48 28
48 29
48 49
48 53
48 75
49 24
49 25
49 28
49 48
49 50
49 75
50 17
50 24
50 25
50 47
50 49
50 75
51 22
51 36
51 46
51 52
51 71
51 72
51 74
52 23
52 27
52 36
52 40
52 51
52 69
52 71
52 74
53 28
53 29
53 31
53 48
53 54
53 59
53 66
53 79
54 29
54 31
54 53
54 59
54 66
54 79
54 82
55 21
55 34
55 37
55 41
55 60
55 62
55 76
55 85
55 92
56 30
56 35
56 42
56 58
56 67
56 86
57 16
57 32
57 33
57 39
57 68
57 77
57 78
57 91
58 30
58 35
58 38
58 42
58 56
58 64
58 67
58 86
58 90
59 27
59 31
59 40
59 53
59 54
59 66
59 69
59 79
59 82
59 89
60 20
60 34
60 41
60 44
60 55
60 76
60 81
60 84
60 92
60 93
61 15
61 43
61 65
61 70
61 73
61 88
62 18
62 37
62 38
62 41
62 55
62 64
62 76
62 85
62 87
62 103
63 19
63 44
63 45
63 47
63 80
63 81
63 83
63 84
63 98
63 99
64 30
64 37
64 38
64 58
64 62
64 85
64 87
64 90
64 103
65 26
65 61
65 70
65 96
66 29
66 31
66 53
66 54
66 59
66 79
66 82
66 107
67 35
67 42
67 56
67 58
67 86
67 101
68 32
68 39
68 43
68 57
68 73
68 77
68 91
68 95
69 27
69 40
69 52
69 59
69 71
69 82
69 89
69 97
70 61
70 65
70 88
70 96
71 40
71 51
71 52
71 69
71 74
71 89
71 97
71 111
71 112
72 46
72 51
72 74
72 78
73 32
73 43
73 61
73 68
73 77
73 88
73 95
74 36
74 51
74 52
74 71
74 72
74 111
74 116
75 48
75 49
75 50
75 100
75 102
75 105
76 41
76 55
76 60
76 62
76 85
76 92
76 93
76 103
76 104
77 39
77 57
77 68
77 73
77 78
77 91
77 95
77 115
78 46
78 57
78 72
78 77
78 91
79 53
79 54
79 59
79 66
79 82
79 102
79 107
79 110
80 45
80 47
80 63
80 83
80 94
80 98
80 99
80 105
81 60
81 63
81 84
81 92
81 93
81 99
81 114
82 54
82 59
82 66
82 69
82 79
82 89
82 107
82 110
83 45
83 63
83 80
83 84
83 94
83 98
83 99
83 122
84 44
84 60
84 63
84 81
84 83
84 93
84 98
84 99
84 114
85 55
85 62
85 64
85 76
85 87
85 92
85 103
85 104
85 123
85 125
86 56
86 58
86 67
86 90
86 101
86 106
86 108
86 118
87 62
87 64
87 85
87 90
87 103
87 104
87 106
87 125
87 126
88 61
88 70
88 73
88 95
88 96
88 109
88 113
89 59
89 69
89 71
89 82
89 97
89 110
89 112
90 58
90 64
90 86
90 87
90 101
90 103
90 106
90 108
90 129
91 57
91 68
91 77
91 78
91 115
91 133
92 55
92 60
92 76
92 81
92 85
92 93
92 104
92 123
92 127
92 135
93 60
93 76
93 81
93 84
93 92
93 99
93 114
93 127
94 80
94 83
94 98
94 105
94 121
94 122
94 128
95 68
95 73
95 77
95 88
95 109
95 115
96 65
96 70
96 88
96 109
96 113
97 69
97 71
97 89
97 111
97 112
97 136
98 63
98 80
98 83
98 84
98 94
98 99
98 122
98 128
98 141
99 63
99 80
99 81
99 83
99 84
99 93
99 98
99 114
99 122
99 134
100 75
100 102
100 105
100 120
100 124
100 139
101 67
101 86
101 90
101 106
101 108
101 118
101 131
101 137
102 75
102 79
102 100
102 107
102 120
102 124
102 130
103 62
103 64
103 76
103 85
103 87
103 90
103 104
103 106
103 123
103 125
103 126
103 129
103 142
104 76
104 85
104 87
104 92
104 103
104 123
104 125
104 126
104 127
105 75
105 80
105 94
105 100
105 121
105 128
106 86
106 87
106 90
106 101
106 103
106 108
106 118
106 126
106 129
107 66
107 79
107 82
107 102
107 110
107 120
107 124
107 130
107 144
108 86
108 90
108 101
108 106
108 118
108 129
108 137
109 88
109 95
109 96
109 113
110 79
110 82
110 89
110 107
110 112
110 130
110 132
110 145
111 71
111 74
111 97
111 112
111 116
111 117
111 136
111 149
112 71
112 89
112 97
112 110
112 111
112 132
112 136
112 151
112 152
113 88
113 96
113 109
113 154
114 81
114 84
114 93
114 99
114 122
114 134
114 135
114 157
115 77
115 91
115 95
115 133
115 138
115 140
116 74
116 111
116 117
116 149
117 111
117 116
117 119
117 147
117 149
117 162
118 86
118 101
118 106
118 108
118 129
118 131
118 137
118 146
118 158
119 117
119 133
119 147
119 161
119 165
120 100
120 102
120 107
120 124
120 130
120 139
120 144
120 167
121 94
121 105
121 128
121 139
121 141
121 155
121 163
122 83
122 94
122 98
122 99
122 114
122 128
122 134
122 141
122 160
122 168
123 85
123 92
123 103
123 104
123 125
123 126
123 127
123 135
123 142
123 148
123 150
124 100
124 102
124 107
124 120
124 130
124 139
124 144
124 145
125 85
125 87
125 103
125 104
125 123
125 126
125 127
125 129
125 142
125 148
125 153
125 169
125 171
126 87
126 103
126 104
126 106
126 123
126 125
126 129
126 142
126 148
126 153
126 169
127 92
127 93
127 104
127 123
127 125
127 135
127 148
127 150
127 166
128 94
128 98
128 105
128 121
128 122
128 141
128 155
128 160
128 174
129 90
129 103
129 106
129 108
129 118
129 125
129 126
129 137
129 142
129 153
130 102
130 107
130 110
130 120
130 124
130 144
130 145
131 101
131 118
131 137
131 146
131 158
132 110
132 112
132 136
132 145
132 151
132 152
133 91
133 115
133 119
133 140
133 147
133 161
133 164
133 165
134 99
134 114
134 122
134 141
134 157
134 168
135 92
135 114
135 123
135 127
135 148
135 150
135 157
135 166
135 173
136 97
136 111
136 112
136 132
136 149
136 151
136 152
136 156
136 178
137 101
137 108
137 118
137 129
137 131
137 146
137 153
137 158
137 170
137 182
138 115
138 140
138 143
138 164
138 172
138 180
139 100
139 120
139 121
139 124
139 144
139 163
139 167
139 176
140 115
140 133
140 138
140 143
140 161
140 164
140 172
140 180
140 181
141 98
141 121
141 122
141 128
141 134
141 155
141 160
141 168
141 174
142 103
142 123
142 125
142 126
142 129
142 148
142 153
142 169
142 171
143 138
143 140
143 154
143 159
143 172
143 180
143 188
144 107
144 120
144 124
144 130
144 139
144 145
144 175
144 176
144 177
145 110
145 124
145 130
145 132
145 144
145 151
145 175
145 177
145 179
146 118
146 131
146 137
146 158
146 189
147 117
147 119
147 133
147 149
147 161
147 162
147 165
147 192
147 193
148 123
148 125
148 126
148 127
148 135
148 142
148 150
148 166
148 169
148 171
148 173
148 184
149 111
149 116
149 117
149 136
149 147
149 152
149 156
149 162
150 123
150 127
150 135
150 148
150 157
150 166
150 171
150 173
150 187
151 112
151 132
151 136
151 145
151 152
151 156
151 178
151 179
151 194
152 112
152 132
152 136
152 149
152 151
152 156
152 178
152 179
152 194
152 196
153 125
153 126
153 129
153 137
153 142
153 158
153 169
153 170
153 171
153 182
153 190
154 113
154 143
154 159
154 183
154 201
155 121
155 128
155 141
155 160
155 163
155 167
155 174
155 195
156 136
156 149
156 151
156 152
156 178
156 196
156 197
157 114
157 134
157 135
157 150
157 166
157 168
157 185
157 186
157 187
157 204
158 118
158 131
158 137
158 146
158 153
158 170
158 182
158 189
158 191
159 143
159 154
159 172
159 183
159 188
159 201
160 122
160 128
160 141
160 155
160 168
160 174
160 185
160 198
161 119
161 133
161 140
161 147
161 164
161 165
161 181
161 193
162 117
162 147
162 149
162 165
162 192
162 193
162 202
162 205
163 121
163 139
163 155
163 167
163 174
163 176
163 195
164 133
164 138
164 140
164 161
164 172
164 180
164 181
165 119
165 133
165 147
165 161
165 162
165 181
165 192
165 193
165 205
165 214
166 127
166 135
166 148
166 150
166 157
166 173
166 186
166 187
166 211
167 120
167 139
167 155
167 163
167 175
167 176
167 195
167 199
168 122
168 134
168 141
168 157
168 160
168 174
168 185
168 186
168 204
168 207
169 125
169 126
169 142
169 148
169 153
169 170
169 171
169 173
169 184
169 190
169 203
169 212
170 137
170 153
170 158
170 169
170 182
170 190
170 191
170 212
170 213
171 125
171 142
171 148
171 150
171 153
171 169
171 173
171 184
171 190
171 203
171 208
172 138
172 140
172 143
172 159
172 164
172 180
172 188
173 135
173 148
173 150
173 166
173 169
173 171
173 184
173 187
173 203
173 208
174 128
174 141
174 155
174 160
174 163
174 168
174 195
174 198
174 219
175 144
175 145
175 167
175 176
175 177
175 179
175 199
175 200
175 206
176 139
176 144
176 163
176 167
176 175
176 177
176 199
176 200
177 144
177 145
177 175
177 176
177 179
177 199
177 200
177 206
177 223
178 136
178 151
178 152
178 156
178 179
178 194
178 196
178 197
179 145
179 151
179 152
179 175
179 177
179 178
179 194
179 206
179 223
179 227
180 138
180 140
180 143
180 164
180 172
180 181
180 188
180 218
180 226
181 140
181 161
181 164
181 165
181 180
181 193
181 214
181 215
181 218
182 137
182 153
182 158
182 170
182 189
182 190
182 191
182 209
182 212
182 213
182 216
183 154
183 159
183 201
183 210
183 231
184 148
184 169
184 171
184 173
184 187
184 203
184 208
184 228
184 229
185 157
185 160
185 168
185 186
185 204
185 207
185 211
185 230
186 157
186 166
186 168
186 185
186 187
186 204
186 207
186 211
186 221
186 232
187 150
187 157
187 166
187 173
187 184
187 186
187 204
187 208
187 211
187 221
187 228
188 143
188 159
188 172
188 180
188 201
188 218
188 222
188 226
189 146
189 158
189 182
189 191
189 209
189 213
189 216
190 153
190 169
190 170
190 171
190 182
190 191
190 203
190 212
190 213
190 217
190 234
191 158
191 170
191 182
191 189
191 190
191 209
191 212
191 213
191 216
191 233
192 147
192 162
192 165
192 193
192 202
192 205
192 214
193 147
193 161
193 162
193 165
193 181
193 192
193 205
193 214
193 215
194 151
194 152
194 178
194 179
194 196
194 197
194 206
194 227
195 155
195 163
195 167
195 174
195 198
195 199
195 219
195 220
196 152
196 156
196 178
196 194
196 197
196 202
196 225
196 227
196 237
197 156
197 178
197 194
197 196
197 202
197 205
197 225
197 237
198 160
198 174
198 195
198 207
198 219
198 224
198 235
199 167
199 175
199 176
199 177
199 195
199 200
199 220
199 239
200 175
200 176
200 177
200 199
200 206
200 223
200 238
200 239
201 154
201 159
201 183
201 188
201 210
201 222
201 231
202 162
202 192
202 196
202 197
202 205
202 225
202 236
202 247
203 169
203 171
203 173
203 184
203 190
203 208
203 212
203 217
203 228
203 229
203 241
204 157
204 168
204 185
204 186
204 187
204 207
204 211
204 221
204 224
204 230
204 232
204 244
205 162
205 165
205 192
205 193
205 197
205 202
205 214
205 225
205 236
205 240
206 175
206 177
206 179
206 194
206 200
206 223
206 227
206 238
207 168
207 185
207 186
207 198
207 204
207 211
207 224
207 230
208 171
208 173
208 184
208 187
208 203
208 217
208 221
208 228
208 229
208 248
208 249
209 182
209 189
209 191
209 213
209 216
209 233
210 183
210 201
210 231
210 245
211 166
211 185
211 186
211 187
211 204
211 207
211 221
211 230
211 232
211 244
212 169
212 170
212 182
212 190
212 191
212 203
212 213
212 217
212 229
212 233
212 234
212 241
213 170
213 182
213 189
213 190
213 191
213 209
213 212
213 216
213 217
213 233
213 234
213 241
214 165
214 181
214 192
214 193
214 205
214 215
214 240
214 252
215 181
215 193
215 214
215 218
215 243
215 252
216 182
216 189
216 191
216 209
216 213
216 233
216 234
217 190
217 203
217 208
217 212
217 213
217 229
217 234
217 241
217 248
218 180
218 181
218 188
218 215
218 226
218 243
219 174
219 195
219 198
219 220
219 224
219 235
219 251
219 257
220 195
220 199
220 219
220 235
220 242
220 251
220 256
221 186
221 187
221 204
221 208
221 211
221 228
221 232
221 244
221 246
221 249
222 188
222 201
222 226
222 231
222 258
223 177
223 179
223 200
223 206
223 227
223 238
223 239
223 250
223 255
224 198
224 204
224 207
224 219
224 230
224 235
224 254
224 257
225 196
225 197
225 202
225 205
225 236
225 237
225 247
225 259
225 260
226 180
226 188
226 218
226 222
226 243
226 258
227 179
227 194
227 196
227 206
227 223
227 237
227 238
227 250
228 184
228 187
228 203
228 208
228 221
228 229
228 246
228 248
228 249
229 184
229 203
229 208
229 212
229 217
229 228
229 241
229 246
229 248
229 249
229 267
230 185
230 204
230 207
230 211
230 224
230 232
230 244
230 253
230 254
231 183
231 201
231 210
231 222
231 245
231 263
232 186
232 204
232 211
232 221
232 230
232 244
232 246
232 253
233 191
233 209
233 212
233 213
233 216
233 234
233 269
234 190
234 212
234 213
234 216
234 217
234 233
234 241
234 273
235 198
235 219
235 220
235 224
235 251
235 256
235 257
235 266
236 202
236 205
236 225
236 240
236 247
236 260
236 261
237 196
237 197
237 225
237 227
237 247
237 250
237 259
238 200
238 206
238 223
238 227
238 239
238 250
238 255
238 271
238 274
239 199
239 200
239 223
239 238
239 242
239 255
239 271
239 276
240 205
240 214
240 236
240 252
240 260
240 261
240 262
241 203
241 212
241 213
241 217
241 229
241 234
241 248
241 267
241 273
241 280
242 220
242 239
242 251
242 256
242 268
242 276
243 215
243 218
243 226
243 252
243 258
243 265
243 272
244 204
244 211
244 221
244 230
244 232
244 246
244 249
244 253
244 283
245 210
245 231
245 263
245 284
246 221
246 228
246 229
246 232
246 244
246 248
246 249
246 278
247 202
247 225
247 236
247 237
247 259
247 260
247 261
247 279
247 282
248 208
248 217
248 228
248 229
248 241
248 246
248 249
248 267
248 280
248 281
249 208
249 221
249 228
249 229
249 244
249 246
249 248
249 267
249 278
249 281
250 223
250 227
250 237
250 238
250 259
250 274
250 277
251 219
251 220
251 235
251 242
251 256
251 257
251 266
251 268
252 214
252 215
252 240
252 243
252 261
252 262
252 265
252 272
253 230
253 232
253 244
253 254
253 264
253 283
253 285
254 224
254 230
254 253
254 257
254 264
254 266
254 287
255 223
255 238
255 239
255 271
255 274
256 220
256 235
256 242
256 251
256 268
256 276
257 219
257 224
257 235
257 251
257 254
257 264
257 266
257 287
257 290
258 222
258 226
258 243
258 270
258 272
259 225
259 237
259 247
259 250
259 260
259 277
259 279
260 225
260 236
260 240
260 247
260 259
260 261
260 262
260 279
260 282
261 236
261 240
261 247
261 252
261 260
261 262
261 282
262 240
262 252
262 260
262 261
262 265
262 282
262 293
263 231
263 245
263 270
263 284
263 286
263 301
264 253
264 254
264 257
264 266
264 285
264 287
264 290
265 243
265 252
265 262
265 272
265 289
265 293
266 235
266 251
266 254
266 257
266 264
266 268
266 287
266 290
267 229
267 241
267 248
267 249
267 273
267 278
267 280
267 281
267 295
267 296
268 242
268 251
268 256
268 266
268 276
268 290
268 294
268 299
269 233
269 273
269 275
269 288
269 291
269 298
270 258
270 263
270 272
270 286
270 297
271 238
271 239
271 255
271 274
271 276
271 302
272 243
272 252
272 258
272 265
272 270
272 289
272 297
273 234
273 241
273 267
273 269
273 275
273 280
273 288
273 291
273 300
274 238
274 250
274 255
274 271
274 277
274 306
275 269
275 273
275 288
275 291
275 298
276 239
276 242
276 256
276 268
276 271
276 294
276 299
276 302
277 250
277 259
277 274
277 279
277 306
278 246
278 249
278 267
278 281
278 283
278 292
278 295
278 308
279 247
279 259
279 260
279 277
279 282
279 310
279 311
280 241
280 248
280 267
280 273
280 281
280 291
280 295
280 296
280 300
280 307
281 248
281 249
281 267
281 278
281 280
281 295
281 296
281 300
281 307
281 308
282 247
282 260
282 261
282 262
282 279
282 315
283 244
283 253
283 278
283 285
283 292
283 303
284 245
284 263
284 286
284 301
285 253
285 264
285 283
285 287
285 292
285 303
285 304
285 313
285 317
286 263
286 270
286 284
286 301
287 254
287 257
287 264
287 266
287 285
287 290
287 304
287 305
287 314
288 269
288 273
288 275
288 291
288 298
288 309
288 312
289 265
289 272
289 293
289 297
290 257
290 264
290 266
290 268
290 287
290 294
290 305
290 314
291 269
291 273
291 275
291 280
291 288
291 296
291 300
291 309
291 312
291 318
292 278
292 283
292 285
292 295
292 303
292 308
292 313
292 316
293 262
293 265
293 289
294 268
294 276
294 290
294 299
294 314
294 323
295 267
295 278
295 280
295 281
295 292
295 296
295 307
295 308
295 316
295 319
296 267
296 280
296 281
296 291
296 295
296 300
296 307
296 308
296 318
296 319
297 270
297 272
297 289
298 269
298 275
298 288
298 309
298 329
299 268
299 276
299 294
299 302
299 323
300 273
300 280
300 281
300 291
300 296
300 307
300 312
300 318
300 331
301 263
301 284
301 286
301 322
302 271
302 276
302 299
303 283
303 285
303 292
303 304
303 313
303 316
303 317
303 321
303 326
304 285
304 287
304 303
304 305
304 313
304 317
304 321
304 326
304 330
305 287
305 290
305 304
305 313
305 314
305 317
305 320
305 326
305 330
306 274
306 277
306 310
306 340
307 280
307 281
307 295
307 296
307 300
307 308
307 312
307 318
307 319
307 335
308 278
308 281
308 292
308 295
308 296
308 307
308 316
308 319
308 335
308 341
309 288
309 291
309 298
309 312
309 327
309 329
309 332
310 279
310 306
310 311
310 334
311 279
311 310
311 315
311 324
311 334
311 338
312 288
312 291
312 300
312 307
312 309
312 318
312 327
312 331
312 342
313 285
313 292
313 303
313 304
313 305
313 316
313 317
313 321
313 326
313 344
313 347
314 287
314 290
314 294
314 305
314 320
314 323
314 330
315 282
315 311
315 324
315 325
315 338
315 346
316 292
316 295
316 303
316 308
316 313
316 319
316 321
316 341
316 344
317 285
317 303
317 304
317 305
317 313
317 321
317 326
317 330
317 347
317 349
318 291
318 296
318 300
318 307
318 312
318 319
318 327
318 331
318 335
318 342
318 359
319 295
319 296
319 307
319 308
319 316
319 318
319 335
319 341
320 305
320 314
320 323
320 330
320 357
320 358
320 362
321 303
321 304
321 313
321 316
321 317
321 326
321 341
321 344
321 347
322 301
322 336
322 337
322 352
322 353
323 294
323 299
323 314
323 320
323 333
323 358
324 311
324 315
324 325
324 334
324 338
324 350
324 355
325 315
325 324
325 328
325 346
325 356
326 303
326 304
326 305
326 313
326 317
326 321
326 330
326 347
326 349
326 362
327 309
327 312
327 318
327 331
327 332
327 342
327 348
327 360
327 365
328 325
328 339
328 346
328 354
328 356
329 298
329 309
329 332
329 343
329 348
329 365
330 304
330 305
330 314
330 317
330 320
330 326
330 349
330 357
330 362
331 300
331 312
331 318
331 327
331 335
331 342
331 348
331 359
331 360
331 368
332 309
332 327
332 329
332 343
332 348
332 360
332 365
333 323
333 358
333 361
333 366
334 310
334 311
334 324
334 338
334 350
334 351
334 355
334 379
335 307
335 308
335 318
335 319
335 331
335 341
335 342
335 359
335 363
335 364
335 382
336 322
336 337
336 352
336 353
336 374
336 375
337 322
337 336
337 345
337 353
337 374
337 375
338 311
338 315
338 324
338 334
338 346
338 350
338 355
338 383
339 328
339 345
339 354
339 356
339 378
340 306
340 351
340 367
340 369
340 380
341 308
341 316
341 319
341 321
341 335
341 344
341 363
341 364
341 386
342 312
342 318
342 327
342 331
342 335
342 359
342 360
342 363
342 368
342 382
343 329
343 332
343 348
343 365
343 377
344 313
344 316
344 321
344 341
344 347
344 364
344 370
345 337
345 339
345 353
345 354
345 375
345 378
346 315
346 325
346 328
346 338
346 355
346 356
346 381
346 384
347 313
347 317
347 321
347 326
347 344
347 349
347 362
347 370
347 376
347 393
348 327
348 329
348 331
348 332
348 343
348 360
348 365
348 371
348 377
349 317
349 326
349 330
349 347
349 357
349 362
349 372
349 376
349 394
350 324
350 334
350 338
350 351
350 355
350 379
350 383
351 334
351 340
351 350
351 369
351 379
351 380
352 322
352 336
352 353
352 373
352 374
353 322
353 336
353 337
353 345
353 352
353 374
353 375
354 328
354 339
354 345
354 356
354 378
354 381
355 324
355 334
355 338
355 346
355 350
355 379
355 383
355 384
356 325
356 328
356 339
356 346
356 354
356 381
356 390
357 320
357 330
357 349
357 358
357 362
357 372
357 385
357 395
358 320
358 323
358 333
358 357
358 366
358 372
358 385
359 318
359 331
359 335
359 342
359 360
359 363
359 368
359 371
359 382
359 389
359 392
360 327
360 331
360 332
360 342
360 348
360 359
360 365
360 368
360 371
360 389
361 333
361 366
361 367
361 387
361 388
362 320
362 326
362 330
362 347
362 349
362 357
362 372
362 376
362 385
362 394
362 395
363 335
363 341
363 342
363 359
363 364
363 368
363 382
363 386
363 392
364 335
364 341
364 344
364 363
364 370
364 382
364 386
364 399
364 401
365 327
365 329
365 332
365 343
365 348
365 360
365 371
365 377
365 396
365 397
366 333
366 358
366 361
366 385
366 387
366 388
366 398
367 340
367 361
367 369
367 380
367 388
367 405
368 331
368 342
368 359
368 360
368 363
368 371
368 382
368 389
368 392
369 340
369 351
369 367
369 380
369 388
369 408
370 344
370 347
370 364
370 376
370 393
370 399
370 407
371 348
371 359
371 360
371 365
371 368
371 389
371 396
372 349
372 357
372 358
372 362
372 376
372 385
372 394
372 395
372 404
373 352
373 374
373 412
374 336
374 337
374 352
374 353
374 373
374 375
374 400
375 336
375 337
375 345
375 353
375 374
375 378
375 400
375 402
376 347
376 349
376 362
376 370
376 372
376 393
376 394
376 395
376 414
376 416
377 343
377 348
377 365
377 396
377 397
378 339
378 345
378 354
378 375
378 390
378 402
378 406
378 415
379 334
379 350
379 351
379 355
379 380
379 383
380 340
380 351
380 367
380 369
380 379
380 411
381 346
381 354
381 356
381 384
381 390
381 391
381 409
382 335
382 342
382 359
382 363
382 364
382 368
382 386
382 389
382 392
382 401
383 338
383 350
383 355
383 379
383 384
383 391
383 413
384 346
384 355
384 381
384 383
384 391
384 413
385 357
385 358
385 362
385 366
385 372
385 395
385 398
385 404
386 341
386 363
386 364
386 382
386 392
386 399
386 401
387 361
387 366
387 388
387 398
387 403
387 420
388 361
388 366
388 367
388 369
388 387
388 403
388 405
388 408
388 420
389 359
389 360
389 368
389 371
389 382
389 392
389 396
389 410
390 356
390 378
390 381
390 406
390 409
390 425
391 381
391 383
391 384
391 413
391 421
392 359
392 363
392 368
392 382
392 386
392 389
392 401
392 410
392 423
393 347
393 370
393 376
393 394
393 395
393 407
393 414
393 416
393 419
394 349
394 362
394 372
394 376
394 393
394 395
394 414
394 416
394 419
395 357
395 362
395 372
395 376
395 385
395 393
395 394
395 404
395 416
395 419
395 422
396 365
396 371
396 377
396 389
396 397
396 410
396 417
396 429
397 365
397 377
397 396
397 417
397 426
398 366
398 385
398 387
398 403
398 404
398 420
398 422
398 424
399 364
399 370
399 386
399 401
399 407
399 414
399 427
399 430
399 434
400 374
400 375
400 402
400 412
400 418
400 435
401 364
401 382
401 386
401 392
401 399
401 407
401 423
401 427
401 430
401 439
401 442
402 375
402 378
402 400
402 406
402 415
402 418
402 432
403 387
403 388
403 398
403 405
403 408
403 420
403 431
404 372
404 385
404 395
404 398
404 419
404 422
404 424
405 367
405 388
405 403
405 408
405 420
405 428
405 431
406 378
406 390
406 402
406 409
406 415
406 425
406 432
406 446
407 370
407 393
407 399
407 401
407 414
407 416
407 430
407 434
408 369
408 388
408 403
408 405
408 411
408 428
408 431
409 381
409 390
409 406
409 415
409 421
409 425
409 432
409 446
410 389
410 392
410 396
410 417
410 423
410 429
410 438
411 380
411 408
411 428
412 373
412 400
412 418
412 435
413 383
413 384
413 391
413 421
413 433
413 436
413 448
414 376
414 393
414 394
414 399
414 407
414 416
414 419
414 430
414 434
414 440
415 378
415 402
415 406
415 409
415 425
415 432
416 376
416 393
416 394
416 395
416 407
416 414
416 419
416 434
416 440
417 396
417 397
417 410
417 426
417 429
417 437
417 447
418 400
418 402
418 412
418 435
418 449
419 393
419 394
419 395
419 404
419 414
419 416
419 422
419 440
420 387
420 388
420 398
420 403
420 405
420 424
420 431
420 444
420 445
421 391
421 409
421 413
421 425
421 433
421 443
422 395
422 398
422 404
422 419
422 424
422 444
422 453
423 392
423 401
423 410
423 427
423 430
423 438
423 439
423 441
423 442
424 398
424 404
424 420
424 422
424 444
424 445
424 454
425 390
425 406
425 409
425 415
425 421
425 432
425 443
425 446
426 397
426 417
426 437
426 458
427 399
427 401
427 423
427 430
427 434
427 439
427 441
427 442
428 405
428 408
428 411
428 431
428 451
429 396
429 410
429 417
429 437
429 438
429 447
429 450
429 464
430 399
430 401
430 407
430 414
430 423
430 427
430 434
430 439
430 441
430 442
430 455
431 403
431 405
431 408
431 420
431 428
431 462
432 402
432 406
432 409
432 415
432 425
432 446
432 452
433 413
433 421
433 443
433 448
433 465
434 399
434 407
434 414
434 416
434 427
434 430
434 439
434 455
435 400
435 412
435 418
435 449
435 460
436 413
436 448
436 459
436 470
437 417
437 426
437 429
437 447
437 458
438 410
438 423
438 429
438 441
438 442
438 447
438 450
438 456
438 461
438 464
438 476
439 401
439 423
439 427
439 430
439 434
439 441
439 442
439 455
439 461
439 466
440 414
440 416
440 419
440 453
440 467
441 423
441 427
441 430
441 438
441 439
441 442
441 450
441 456
441 461
442 401
442 423
442 427
442 430
442 438
442 439
442 441
442 456
442 461
442 466
443 421
443 425
443 433
443 446
443 463
443 465
443 469
444 420
444 422
444 424
444 445
444 453
444 454
444 457
444 477
445 420
445 424
445 444
445 454
445 457
445 478
446 406
446 409
446 425
446 432
446 443
446 452
446 463
446 480
447 417
447 429
447 437
447 438
447 450
447 458
447 464
447 479
448 413
448 433
448 436
448 459
448 465
448 469
448 470
449 418
449 435
449 460
449 474
450 429
450 438
450 441
450 447
450 456
450 461
450 464
450 476
450 479
451 428
451 459
451 462
451 473
451 475
452 432
452 446
452 474
452 480
453 422
453 440
453 444
453 454
453 477
454 424
454 444
454 445
454 453
454 457
454 477
454 478
455 430
455 434
455 439
455 466
455 467
455 471
456 438
456 441
456 442
456 450
456 461
456 464
456 476
457 444
457 445
457 454
457 468
457 477
457 478
458 426
458 437
458 447
458 464
458 472
458 479
459 436
459 448
459 451
459 470
459 473
460 435
460 449
461 438
461 439
461 441
461 442
461 450
461 456
461 466
461 476
462 431
462 451
462 468
462 475
463 443
463 446
463 480
464 429
464 438
464 447
464 450
464 456
464 458
464 476
464 479
465 433
465 443
465 448
465 469
465 470
466 439
466 442
466 455
466 461
466 471
467 440
467 455
467 471
468 457
468 462
468 475
468 478
469 443
469 448
469 465
470 436
470 448
470 459
470 465
470 473
471 455
471 466
471 467
472 458
472 479
473 451
473 459
473 470
473 475
474 449
474 452
474 480
475 451
475 462
475 468
475 473
476 438
476 450
476 456
476 461
476 464
476 479
477 444
477 453
477 454
477 457
477 478
478 445
478 454
478 457
478 468
478 477
479 447
479 450
479 458
479 464
479 472
479 476
480 446
480 452
480 463
480 474
