1 22
1 25
2 3
2 12
2 17
2 31
3 2
3 16
3 17
3 32
3 37
4 9
4 15
4 38
5 13
5 20
5 30
6 19
6 20
7 10
7 27
7 28
7 34
7 42
8 11
8 23
8 26
8 39
9 4
9 36
9 38
9 44
10 7
10 26
10 27
10 42
11 8
11 15
11 23
11 26
11 39
11 40
12 2
12 14
12 17
12 29
12 31
13 5
13 24
13 30
13 43
14 12
14 18
14 29
14 41
14 48
15 4
15 11
15 23
15 35
15 40
16 3
16 17
16 24
16 32
16 37
16 45
16 46
17 2
17 3
17 12
17 16
17 31
17 37
17 50
18 14
18 21
18 29
18 41
19 6
19 20
19 51
20 5
20 6
20 19
20 30
21 18
21 22
21 33
21 41
21 54
22 1
22 21
22 25
22 33
22 47
22 54
23 8
23 11
23 15
23 26
23 35
23 39
23 40
24 13
24 16
24 32
24 43
24 45
24 46
25 1
25 22
25 28
25 33
25 47
25 52
26 8
26 10
26 11
26 23
26 27
26 39
26 49
27 7
27 10
27 26
27 34
27 42
27 49
27 63
28 7
28 25
28 34
28 47
28 52
28 55
29 12
29 14
29 18
29 41
29 48
29 53
29 59
30 5
30 13
30 20
30 43
30 64
31 2
31 12
31 17
31 37
31 50
31 53
31 66
32 3
32 16
32 24
32 37
32 45
32 46
33 21
33 22
33 25
33 47
33 54
33 62
33 73
34 7
34 27
34 28
34 42
34 52
34 55
34 63
34 71
35 15
35 23
35 38
35 40
35 56
35 60
36 9
36 38
36 44
36 61
37 3
37 16
37 17
37 31
37 32
37 46
37 50
37 66
38 4
38 9
38 35
38 36
38 44
38 56
39 8
39 11
39 23
39 26
39 40
39 49
39 58
39 70
40 11
40 15
40 23
40 35
40 39
40 58
40 60
41 14
41 18
41 21
41 29
41 48
41 54
41 59
41 67
42 7
42 10
42 27
42 34
42 55
42 63
42 68
42 76
43 13
43 24
43 30
43 45
43 69
44 9
44 36
44 38
44 56
44 61
44 75
45 16
45 24
45 32
45 43
45 46
45 72
46 16
46 24
46 32
46 37
46 45
46 50
46 72
46 79
47 22
47 25
47 28
47 33
47 52
47 54
47 62
47 73
47 78
48 14
48 29
48 41
48 53
48 59
48 74
49 26
49 27
49 39
49 58
49 63
49 68
49 70
49 84
50 17
50 31
50 37
50 46
50 53
50 66
50 85
51 19
51 57
51 65
51 82
52 25
52 28
52 34
52 47
52 55
52 62
52 71
52 78
53 29
53 31
53 48
53 50
53 59
53 66
53 74
53 89
54 21
54 22
54 33
54 41
54 47
54 62
54 67
54 73
54 83
55 28
55 34
55 42
55 52
55 63
55 71
55 76
55 78
56 35
56 38
56 44
56 60
56 61
56 75
56 91
57 51
57 64
57 65
57 82
57 86
58 39
58 40
58 49
58 60
58 70
58 77
58 80
58 88
59 29
59 41
59 48
59 53
59 67
59 74
59 96
60 35
60 40
60 56
60 58
60 77
60 80
60 100
61 36
61 44
61 56
61 75
61 101
62 33
62 47
62 52
62 54
62 71
62 73
62 78
62 90
62 98
63 27
63 34
63 42
63 49
63 55
63 68
63 71
63 76
63 84
63 93
64 30
64 57
64 69
64 81
64 86
64 95
65 51
65 57
65 82
65 99
66 31
66 37
66 50
66 53
66 85
66 89
66 103
67 41
67 54
67 59
67 73
67 74
67 83
67 96
68 42
68 49
68 63
68 70
68 76
68 84
68 93
68 94
69 43
69 64
69 81
69 87
69 92
69 95
70 39
70 49
70 58
70 68
70 77
70 84
70 88
70 94
71 34
71 52
71 55
71 62
71 63
71 76
71 78
71 93
71 98
71 102
72 45
72 46
72 79
72 87
72 92
73 33
73 47
73 54
73 62
73 67
73 78
73 83
73 90
73 104
74 48
74 53
74 59
74 67
74 89
74 96
75 44
75 56
75 61
75 91
75 101
75 105
76 42
76 55
76 63
76 68
76 71
76 84
76 93
76 102
77 58
77 60
77 70
77 80
77 88
77 94
77 100
78 47
78 52
78 55
78 62
78 71
78 73
78 90
78 98
78 112
79 46
79 72
79 87
79 92
79 97
79 108
79 111
80 58
80 60
80 77
80 88
80 100
80 107
81 64
81 69
81 87
81 92
81 95
82 51
82 57
82 65
82 86
82 99
83 54
83 67
83 73
83 90
83 104
83 106
84 49
84 63
84 68
84 70
84 76
84 93
84 94
84 109
85 50
85 66
85 89
85 97
85 103
85 118
86 57
86 64
86 82
86 95
86 99
86 114
87 69
87 72
87 79
87 81
87 92
87 108
87 115
88 58
88 70
88 77
88 80
88 94
88 100
88 109
88 116
89 53
89 66
89 74
89 85
89 96
89 103
89 118
90 62
90 73
90 78
90 83
90 98
90 104
90 112
90 126
91 56
91 75
91 100
91 101
91 105
91 107
91 113
92 69
92 72
92 79
92 81
92 87
92 95
92 108
92 115
92 120
93 63
93 68
93 71
93 76
93 84
93 94
93 102
93 109
93 124
94 68
94 70
94 77
94 84
94 88
94 93
94 109
94 116
95 64
95 69
95 81
95 86
95 92
95 114
95 120
96 59
96 67
96 74
96 89
96 106
96 119
96 127
97 79
97 85
97 103
97 108
97 111
98 62
98 71
98 78
98 90
98 102
98 112
98 117
99 65
99 82
99 86
99 110
99 114
99 121
100 60
100 77
100 80
100 88
100 91
100 107
100 116
100 123
101 61
101 75
101 91
101 105
101 113
101 128
102 71
102 76
102 93
102 98
102 117
102 124
103 66
103 85
103 89
103 97
103 111
103 118
103 125
104 73
104 83
104 90
104 106
104 122
104 126
105 75
105 91
105 101
105 107
105 113
105 123
105 128
106 83
106 96
106 104
106 119
106 122
106 127
106 142
107 80
107 91
107 100
107 105
107 123
108 79
108 87
108 92
108 97
108 111
108 115
108 131
109 84
109 88
109 93
109 94
109 116
109 124
109 133
109 136
110 99
110 121
110 134
110 141
111 79
111 97
111 103
111 108
111 125
111 135
112 78
112 90
112 98
112 117
112 126
112 139
113 91
113 101
113 105
113 128
114 86
114 95
114 99
114 120
114 121
114 130
114 132
114 148
115 87
115 92
115 108
115 120
115 131
115 132
115 138
116 88
116 94
116 100
116 109
116 136
117 98
117 102
117 112
117 124
117 137
117 139
117 145
118 85
118 89
118 103
118 125
118 129
118 135
118 153
119 96
119 106
119 122
119 127
119 140
119 142
120 92
120 95
120 114
120 115
120 130
120 132
120 138
120 148
120 158
121 99
121 110
121 114
121 130
121 134
121 141
122 104
122 106
122 119
122 126
122 140
122 142
122 144
122 146
123 100
123 105
123 107
123 143
123 147
123 150
124 93
124 102
124 109
124 117
124 133
124 136
124 137
124 145
124 149
125 103
125 111
125 118
125 129
125 135
125 152
125 153
126 90
126 104
126 112
126 122
126 139
126 144
126 151
127 96
127 106
127 119
127 129
127 140
127 142
127 154
127 164
128 101
128 105
128 113
128 143
128 161
129 118
129 125
129 127
129 153
129 154
129 159
130 114
130 120
130 121
130 132
130 141
130 148
130 158
131 108
131 115
131 138
131 160
131 172
132 114
132 115
132 120
132 130
132 138
132 148
132 158
133 109
133 124
133 136
133 137
133 145
133 149
133 166
133 171
134 110
134 121
134 141
134 163
134 167
135 111
135 118
135 125
135 152
135 153
135 170
136 109
136 116
136 124
136 133
136 149
136 156
136 169
136 171
137 117
137 124
137 133
137 139
137 145
137 149
137 157
137 162
137 166
138 115
138 120
138 131
138 132
138 158
138 160
138 172
139 112
139 117
139 126
139 137
139 145
139 151
139 157
139 162
140 119
140 122
140 127
140 142
140 146
140 154
140 159
140 164
141 110
141 121
141 130
141 134
141 163
141 167
141 174
142 106
142 119
142 122
142 127
142 140
142 144
142 146
142 154
142 164
142 173
142 178
143 123
143 128
143 147
143 161
143 177
143 179
144 122
144 126
144 142
144 146
144 151
144 165
144 173
144 178
144 183
145 117
145 124
145 133
145 137
145 139
145 149
145 162
145 166
145 171
145 190
146 122
146 140
146 142
146 144
146 165
146 173
146 178
147 123
147 143
147 150
147 175
147 179
148 114
148 120
148 130
148 132
148 158
148 174
148 184
148 189
149 124
149 133
149 136
149 137
149 145
149 156
149 162
149 166
149 171
149 192
150 123
150 147
150 156
150 169
150 175
150 180
151 126
151 139
151 144
151 157
151 165
151 181
151 183
152 125
152 135
152 153
152 160
152 170
152 186
152 191
153 118
153 125
153 129
153 135
153 152
153 154
153 159
153 170
153 176
154 127
154 129
154 140
154 142
154 153
154 159
154 164
154 176
154 182
154 185
155 161
155 168
155 177
155 188
156 136
156 149
156 150
156 169
156 171
156 180
156 193
157 137
157 139
157 151
157 162
157 181
157 187
158 120
158 130
158 132
158 138
158 148
158 184
158 189
158 199
159 129
159 140
159 153
159 154
159 164
159 176
159 182
160 131
160 138
160 152
160 172
160 186
160 194
161 128
161 143
161 155
161 168
161 177
161 179
161 188
161 202
162 137
162 139
162 145
162 149
162 157
162 166
162 187
162 190
162 192
163 134
163 141
163 167
163 195
164 127
164 140
164 142
164 154
164 159
164 173
164 182
164 185
164 198
165 144
165 146
165 151
165 173
165 178
165 181
165 183
165 200
166 133
166 137
166 145
166 149
166 162
166 171
166 190
166 192
166 193
167 134
167 141
167 163
167 174
167 195
167 196
168 155
168 161
168 177
168 188
168 204
169 136
169 150
169 156
169 171
169 175
169 180
169 193
169 201
170 135
170 152
170 153
170 176
170 186
170 191
170 197
171 133
171 136
171 145
171 149
171 156
171 166
171 169
171 180
171 192
171 193
172 131
172 138
172 160
172 186
172 194
173 142
173 144
173 146
173 164
173 165
173 178
173 183
173 185
173 198
173 200
174 141
174 148
174 167
174 189
174 196
174 209
174 212
175 147
175 150
175 169
175 179
175 180
175 206
175 208
176 153
176 154
176 159
176 170
176 182
176 197
176 203
176 210
177 143
177 155
177 161
177 168
177 179
177 188
177 202
177 204
178 142
178 144
178 146
178 165
178 173
178 183
178 185
178 198
178 200
178 223
179 143
179 147
179 161
179 175
179 177
179 202
179 208
180 150
180 156
180 169
180 171
180 175
180 193
180 201
180 206
180 217
181 151
181 157
181 165
181 183
181 187
181 200
181 205
181 207
182 154
182 159
182 164
182 176
182 185
182 198
182 203
182 210
183 144
183 151
183 165
183 173
183 178
183 181
183 200
183 205
184 148
184 158
184 189
184 199
184 209
184 221
185 154
185 164
185 173
185 178
185 182
185 198
185 210
185 216
186 152
186 160
186 170
186 172
186 191
186 194
186 213
186 215
186 219
187 157
187 162
187 181
187 190
187 192
187 205
187 207
187 211
188 155
188 161
188 168
188 177
188 202
188 204
188 222
189 148
189 158
189 174
189 184
189 196
189 199
189 209
189 212
190 145
190 162
190 166
190 187
190 192
190 207
190 211
190 214
191 152
191 170
191 186
191 197
191 213
191 219
191 227
192 149
192 162
192 166
192 171
192 187
192 190
192 193
192 207
192 211
192 214
193 156
193 166
193 169
193 171
193 180
193 192
193 201
193 214
193 217
194 160
194 172
194 186
194 199
194 213
194 215
194 221
195 163
195 167
195 196
195 218
196 167
196 174
196 189
196 195
196 209
196 212
196 218
197 170
197 176
197 191
197 203
197 219
197 226
197 227
198 164
198 173
198 178
198 182
198 185
198 200
198 216
198 223
199 158
199 184
199 189
199 194
199 209
199 221
199 238
200 165
200 173
200 178
200 181
200 183
200 198
200 205
200 223
200 229
201 169
201 180
201 193
201 206
201 214
201 217
201 220
201 230
202 161
202 177
202 179
202 188
202 204
202 208
202 222
202 225
202 228
203 176
203 182
203 197
203 210
203 226
203 233
204 168
204 177
204 188
204 202
204 222
204 228
205 181
205 183
205 187
205 200
205 229
205 231
205 232
206 175
206 180
206 201
206 208
206 220
206 224
206 230
207 181
207 187
207 190
207 192
207 211
207 231
207 232
207 235
208 175
208 179
208 202
208 206
208 220
208 224
208 225
208 239
209 174
209 184
209 189
209 196
209 199
209 212
209 221
209 234
209 238
210 176
210 182
210 185
210 203
210 216
210 226
210 233
211 187
211 190
211 192
211 207
211 214
211 232
211 235
211 236
212 174
212 189
212 196
212 209
212 218
212 234
212 241
213 186
213 191
213 194
213 215
213 219
213 227
213 237
213 244
214 190
214 192
214 193
214 201
214 211
214 217
214 235
214 236
214 240
215 186
215 194
215 213
215 219
215 221
215 237
216 185
216 198
216 210
216 223
216 242
217 180
217 193
217 201
217 214
217 230
217 236
217 240
217 246
218 195
218 196
218 212
218 241
218 254
219 186
219 191
219 197
219 213
219 215
219 227
219 244
219 248
220 201
220 206
220 208
220 224
220 230
220 239
220 245
221 184
221 194
221 199
221 209
221 215
221 237
221 238
221 250
222 188
222 202
222 204
222 228
222 251
223 178
223 198
223 200
223 216
223 229
223 242
223 252
223 253
224 206
224 208
224 220
224 225
224 230
224 239
224 261
225 202
225 208
225 224
225 228
225 239
225 247
226 197
226 203
226 210
226 227
226 233
226 243
226 248
226 260
227 191
227 197
227 213
227 219
227 226
227 243
227 244
227 248
228 202
228 204
228 222
228 225
228 247
228 251
229 200
229 205
229 223
229 231
229 252
229 253
229 258
230 201
230 206
230 217
230 220
230 224
230 245
230 246
230 270
231 205
231 207
231 229
231 232
231 255
231 258
231 264
232 205
232 207
232 211
232 231
232 235
232 255
232 256
232 264
233 203
233 210
233 226
233 243
233 249
233 260
233 265
234 209
234 212
234 238
234 241
234 254
234 266
235 207
235 211
235 214
235 232
235 236
235 240
235 256
235 257
235 274
236 211
236 214
236 217
236 235
236 240
236 256
236 257
236 269
236 274
237 213
237 215
237 221
237 244
237 250
237 259
237 263
237 267
238 199
238 209
238 221
238 234
238 250
238 266
238 267
238 276
239 208
239 220
239 224
239 225
239 245
239 247
239 261
240 214
240 217
240 235
240 236
240 246
240 257
240 269
241 212
241 218
241 234
241 254
241 271
241 280
242 216
242 223
242 249
242 252
242 268
242 273
242 278
243 226
243 227
243 233
243 248
243 249
243 260
243 265
243 275
244 213
244 219
244 227
244 237
244 248
244 259
244 263
245 220
245 230
245 239
245 246
245 261
245 269
245 270
246 217
246 230
246 240
246 245
246 269
246 270
246 288
247 225
247 228
247 239
247 251
247 272
247 284
248 219
248 226
248 227
248 243
248 244
248 260
248 263
248 265
248 275
248 286
249 233
249 242
249 243
249 260
249 265
249 268
249 273
249 275
249 287
250 221
250 237
250 238
250 259
250 267
250 276
250 281
251 222
251 228
251 247
251 262
251 272
251 284
251 285
252 223
252 229
252 242
252 253
252 268
252 278
252 282
253 223
253 229
253 252
253 258
253 277
253 278
253 282
253 297
254 218
254 234
254 241
254 266
254 271
254 280
254 289
255 231
255 232
255 256
255 258
255 264
255 277
255 279
256 232
256 235
256 236
256 255
256 257
256 264
256 274
256 293
256 296
257 235
257 236
257 240
257 256
257 269
257 274
257 292
257 293
258 229
258 231
258 253
258 255
258 264
258 277
258 279
258 294
259 237
259 244
259 250
259 263
259 267
259 281
259 295
260 226
260 233
260 243
260 248
260 249
260 265
260 273
260 275
260 286
260 287
260 298
261 224
261 239
261 245
261 270
261 283
261 291
262 251
262 272
262 285
263 237
263 244
263 248
263 259
263 281
263 286
263 295
264 231
264 232
264 255
264 256
264 258
264 279
264 296
265 233
265 243
265 248
265 249
265 260
265 268
265 273
265 275
265 287
265 298
266 234
266 238
266 254
266 276
266 289
266 290
266 299
267 237
267 238
267 250
267 259
267 276
267 281
267 295
267 300
268 242
268 249
268 252
268 265
268 273
268 278
268 287
269 236
269 240
269 245
269 246
269 257
269 270
269 274
269 288
269 291
269 292
270 230
270 245
270 246
270 261
270 269
270 288
270 291
271 241
271 254
271 280
271 289
272 247
272 251
272 262
272 284
272 285
272 301
272 302
273 242
273 249
273 260
273 265
273 268
273 275
273 278
273 287
274 235
274 236
274 256
274 257
274 269
274 292
274 293
274 296
274 308
275 243
275 248
275 249
275 260
275 265
275 273
275 286
275 287
275 298
275 307
276 238
276 250
276 266
276 267
276 290
276 299
276 300
277 253
277 255
277 258
277 279
277 282
277 294
277 297
277 304
277 305
278 242
278 252
278 253
278 268
278 273
278 282
278 297
278 312
279 255
279 258
279 264
279 277
279 294
279 296
279 305
280 241
280 254
280 271
280 289
280 311
281 250
281 259
281 263
281 267
281 295
281 300
281 315
282 252
282 253
282 277
282 278
282 297
282 304
282 312
282 318
283 261
283 284
283 291
283 302
283 306
284 247
284 251
284 272
284 283
284 285
284 301
284 302
284 319
285 251
285 262
285 272
285 284
285 301
285 319
285 327
286 248
286 260
286 263
286 275
286 298
286 303
286 307
286 316
286 321
287 249
287 260
287 265
287 268
287 273
287 275
287 298
287 307
287 320
288 246
288 269
288 270
288 291
288 292
288 309
288 310
288 325
289 254
289 266
289 271
289 280
289 290
289 299
289 314
290 266
290 276
290 289
290 299
290 314
291 261
291 269
291 270
291 283
291 288
291 306
291 309
291 324
291 325
292 257
292 269
292 274
292 288
292 293
292 308
292 310
293 256
293 257
293 274
293 292
293 296
293 308
293 313
293 330
294 258
294 277
294 279
294 297
294 304
294 305
294 318
294 323
294 326
295 259
295 263
295 267
295 281
295 300
295 315
295 316
295 333
296 256
296 264
296 274
296 279
296 293
296 305
296 313
296 323
296 332
297 253
297 277
297 278
297 282
297 294
297 304
297 312
297 318
297 322
297 326
298 260
298 265
298 275
298 286
298 287
298 303
298 307
298 320
298 321
298 329
299 266
299 276
299 289
299 290
299 300
299 331
300 267
300 276
300 281
300 295
300 299
300 315
300 340
301 272
301 284
301 285
301 302
301 319
301 327
301 337
302 272
302 283
302 284
302 301
302 306
302 319
302 328
302 337
302 343
303 286
303 298
303 307
303 316
303 321
303 333
303 336
304 277
304 282
304 294
304 297
304 305
304 312
304 318
304 323
304 326
305 277
305 279
305 294
305 296
305 304
305 313
305 323
305 326
305 332
306 283
306 291
306 302
306 324
306 328
306 343
307 275
307 286
307 287
307 298
307 303
307 320
307 321
307 329
307 334
307 336
308 274
308 292
308 293
308 310
308 313
308 330
308 335
308 342
309 288
309 291
309 310
309 324
309 325
309 341
309 344
310 288
310 292
310 308
310 309
310 325
310 335
310 342
310 344
311 280
311 314
311 339
311 350
312 278
312 282
312 297
312 304
312 317
312 318
312 322
312 345
312 347
313 293
313 296
313 305
313 308
313 323
313 330
313 332
313 335
313 352
314 289
314 290
314 311
314 331
314 338
314 350
314 358
315 281
315 295
315 300
315 316
315 333
315 340
316 286
316 295
316 303
316 315
316 321
316 333
316 336
316 357
317 312
317 320
317 322
317 334
317 345
317 346
318 282
318 294
318 297
318 304
318 312
318 322
318 326
318 347
318 348
319 284
319 285
319 301
319 302
319 327
319 328
319 337
319 355
320 287
320 298
320 307
320 317
320 329
320 334
320 346
320 353
321 286
321 298
321 303
321 307
321 316
321 329
321 333
321 336
321 357
321 359
322 297
322 312
322 317
322 318
322 345
322 347
323 294
323 296
323 304
323 305
323 313
323 326
323 332
323 349
323 352
324 291
324 306
324 309
324 325
324 328
324 341
324 343
324 344
325 288
325 291
325 309
325 310
325 324
325 341
325 342
325 344
325 361
326 294
326 297
326 304
326 305
326 318
326 323
326 347
326 348
326 349
326 363
327 285
327 301
327 319
327 337
327 356
328 302
328 306
328 319
328 324
328 337
328 341
328 343
328 355
329 298
329 307
329 320
329 321
329 334
329 336
329 353
330 293
330 308
330 313
330 332
330 335
330 352
330 354
331 299
331 314
331 338
331 340
331 351
332 296
332 305
332 313
332 323
332 330
332 335
332 349
332 352
332 354
333 295
333 303
333 315
333 316
333 321
333 336
333 340
333 357
333 359
333 366
334 307
334 317
334 320
334 329
334 346
334 353
334 375
335 308
335 310
335 313
335 330
335 332
335 342
335 352
335 354
335 376
336 303
336 307
336 316
336 321
336 329
336 333
336 353
336 357
336 359
336 370
336 373
337 301
337 302
337 319
337 327
337 328
337 343
337 355
337 368
338 314
338 331
338 350
338 351
338 358
338 372
339 311
339 350
339 381
340 300
340 315
340 331
340 333
340 351
340 360
340 366
340 379
341 309
341 324
341 325
341 328
341 343
341 344
341 361
341 364
341 367
342 308
342 310
342 325
342 335
342 344
342 354
342 361
342 382
343 302
343 306
343 324
343 328
343 337
343 341
343 355
343 364
343 371
343 374
344 309
344 310
344 324
344 325
344 341
344 342
344 361
344 364
344 367
344 382
344 385
345 312
345 317
345 322
345 346
345 347
345 362
345 380
346 317
346 320
346 334
346 345
346 353
346 362
346 375
346 378
346 380
347 312
347 318
347 322
347 326
347 345
347 348
347 362
347 363
347 386
348 318
348 326
348 347
348 349
348 363
348 365
348 389
348 390
349 323
349 326
349 332
349 348
349 352
349 365
349 377
349 389
350 311
350 314
350 338
350 339
350 358
350 381
350 387
351 331
351 338
351 340
351 358
351 360
351 372
351 379
351 384
352 313
352 323
352 330
352 332
352 335
352 349
352 354
352 365
352 376
352 377
352 383
353 320
353 329
353 334
353 336
353 346
353 370
353 375
353 378
354 330
354 332
354 335
354 342
354 352
354 376
354 377
354 383
355 319
355 328
355 337
355 343
355 368
355 369
355 371
355 374
356 327
356 368
356 369
357 316
357 321
357 333
357 336
357 359
357 366
357 373
357 388
357 391
358 314
358 338
358 350
358 351
358 372
358 387
358 393
359 321
359 333
359 336
359 357
359 366
359 370
359 373
359 391
359 394
360 340
360 351
360 366
360 379
360 384
360 388
361 325
361 341
361 342
361 344
361 364
361 367
361 382
361 385
362 345
362 346
362 347
362 363
362 378
362 380
362 386
362 390
363 326
363 347
363 348
363 362
363 365
363 386
363 389
363 390
364 341
364 343
364 344
364 361
364 367
364 371
364 374
364 385
364 398
364 401
365 348
365 349
365 352
365 363
365 377
365 389
365 390
366 333
366 340
366 357
366 359
366 360
366 373
366 379
366 388
366 391
366 405
367 341
367 344
367 361
367 364
367 374
367 382
367 385
367 401
368 337
368 355
368 356
368 369
368 371
368 399
368 402
369 355
369 356
369 368
369 402
370 336
370 353
370 359
370 373
370 375
370 392
370 394
371 343
371 355
371 364
371 368
371 374
371 398
371 399
371 410
372 338
372 351
372 358
372 384
372 387
372 393
372 406
373 336
373 357
373 359
373 366
373 370
373 388
373 391
373 392
373 394
374 343
374 355
374 364
374 367
374 371
374 398
374 399
374 410
375 334
375 346
375 353
375 370
375 378
375 392
375 395
375 412
376 335
376 352
376 354
376 377
376 382
376 383
376 396
377 349
377 352
377 354
377 365
377 376
377 383
377 389
377 409
378 346
378 353
378 362
378 375
378 380
378 395
378 403
378 412
378 418
379 340
379 351
379 360
379 366
379 384
379 388
379 400
379 405
379 414
380 345
380 346
380 362
380 378
380 386
380 395
380 403
380 407
381 339
381 350
381 387
381 397
382 342
382 344
382 361
382 367
382 376
382 385
382 396
382 401
382 404
382 420
383 352
383 354
383 376
383 377
383 396
383 409
383 421
384 351
384 360
384 372
384 379
384 393
384 400
384 406
384 414
385 344
385 361
385 364
385 367
385 382
385 401
385 404
386 347
386 362
386 363
386 380
386 390
386 403
386 407
386 408
387 350
387 358
387 372
387 381
387 393
387 397
387 419
388 357
388 360
388 366
388 373
388 379
388 391
388 400
388 405
389 348
389 349
389 363
389 365
389 377
389 390
389 408
389 411
389 413
390 348
390 362
390 363
390 365
390 386
390 389
390 407
390 408
390 411
391 357
391 359
391 366
391 373
391 388
391 394
391 400
391 405
391 415
391 423
391 426
392 370
392 373
392 375
392 394
392 412
392 415
392 424
393 358
393 372
393 384
393 387
393 397
393 406
393 414
393 425
394 359
394 370
394 373
394 391
394 392
394 415
394 423
394 424
395 375
395 378
395 380
395 403
395 412
395 418
395 422
395 433
396 376
396 382
396 383
396 404
396 409
396 420
396 421
396 435
397 381
397 387
397 393
397 419
397 425
397 432
397 439
398 364
398 371
398 374
398 399
398 401
398 410
398 416
398 428
399 368
399 371
399 374
399 398
399 402
399 410
399 417
399 436
400 379
400 384
400 388
400 391
400 405
400 414
400 426
400 442
401 364
401 367
401 382
401 385
401 398
401 404
401 416
401 428
401 431
401 440
402 368
402 369
402 399
402 417
402 427
402 441
403 378
403 380
403 386
403 395
403 407
403 418
403 422
403 433
403 438
404 382
404 385
404 396
404 401
404 420
404 431
404 444
405 366
405 379
405 388
405 391
405 400
405 423
405 426
406 372
406 384
406 393
406 414
406 425
406 443
407 380
407 386
407 390
407 403
407 408
407 422
407 429
407 434
407 438
408 386
408 389
408 390
408 407
408 411
408 422
408 429
408 434
409 377
409 383
409 396
409 413
409 421
409 430
409 435
409 437
409 449
410 371
410 374
410 398
410 399
410 416
410 417
410 428
410 436
410 445
411 389
411 390
411 408
411 413
411 429
411 434
411 437
412 375
412 378
412 392
412 395
412 418
412 424
412 433
413 389
413 409
413 411
413 429
413 430
413 437
414 379
414 384
414 393
414 400
414 406
414 442
414 443
415 391
415 392
415 394
415 423
415 424
415 448
416 398
416 401
416 410
416 428
416 436
416 440
417 399
417 402
417 410
417 427
417 436
417 441
417 445
418 378
418 395
418 403
418 412
418 422
418 433
418 438
418 446
419 387
419 397
419 425
419 432
419 439
420 382
420 396
420 404
420 421
420 431
420 435
420 444
420 450
420 451
421 383
421 396
421 409
421 420
421 430
421 435
421 449
421 450
422 395
422 403
422 407
422 408
422 418
422 433
422 434
422 438
422 446
423 391
423 394
423 405
423 415
423 426
423 447
423 448
424 392
424 394
424 412
424 415
424 433
424 448
425 393
425 397
425 406
425 419
425 439
426 391
426 400
426 405
426 423
426 442
426 447
427 402
427 417
427 441
427 445
428 398
428 401
428 410
428 416
428 436
428 440
429 407
429 408
429 411
429 413
429 434
429 437
430 409
430 413
430 421
430 435
430 437
430 449
431 401
431 404
431 420
431 440
431 444
431 451
432 397
432 419
432 439
433 395
433 403
433 412
433 418
433 422
433 424
433 438
433 446
434 407
434 408
434 411
434 422
434 429
434 438
435 396
435 409
435 420
435 421
435 430
435 444
435 449
435 450
436 399
436 410
436 416
436 417
436 428
436 441
436 445
437 409
437 411
437 413
437 429
437 430
437 449
438 403
438 407
438 418
438 422
438 433
438 434
438 446
439 397
439 419
439 425
439 432
440 401
440 416
440 428
440 431
440 444
440 451
441 402
441 417
441 427
441 436
441 445
442 400
442 414
442 426
442 443
443 406
443 414
443 442
444 404
444 420
444 431
444 435
444 440
444 450
444 451
445 410
445 417
445 427
445 436
445 441
446 418
446 422
446 433
446 438
447 423
447 426
447 448
448 415
448 423
448 424
448 447
449 409
449 421
449 430
449 435
449 437
449 450
450 420
450 421
450 435
450 444
450 449
450 451
451 420
451 431
451 440
451 444
451 450
