1 5
1 22
1 24
1 37
1 39
1 45
2 3
2 23
2 29
2 31
2 41
3 2
3 6
3 20
3 23
3 29
3 31
3 41
3 46
4 8
4 10
4 13
4 14
4 27
4 33
4 35
4 52
5 1
5 9
5 22
5 24
5 37
5 42
5 45
6 3
6 20
6 31
6 38
6 46
7 11
7 12
7 13
7 19
7 21
7 34
7 47
8 4
8 11
8 13
8 14
8 35
8 43
8 52
8 53
9 5
9 18
9 22
9 26
9 28
9 42
9 45
10 4
10 14
10 27
10 33
10 35
10 40
10 51
11 7
11 8
11 13
11 19
11 21
11 43
11 47
11 55
12 7
12 19
12 21
12 25
12 34
12 54
12 58
13 4
13 7
13 8
13 11
13 21
13 35
13 43
13 47
13 53
13 55
14 4
14 8
14 10
14 27
14 33
14 35
14 51
14 52
15 16
15 17
15 30
15 32
15 36
15 49
15 50
16 15
16 30
16 32
16 36
16 48
16 50
17 15
17 36
17 49
18 9
18 23
18 26
18 28
18 41
18 44
18 57
18 60
19 7
19 11
19 12
19 21
19 25
19 34
19 47
19 54
19 71
20 3
20 6
20 30
20 31
20 38
20 46
20 48
20 59
20 64
20 65
21 7
21 11
21 12
21 13
21 19
21 34
21 43
21 47
21 54
21 55
21 62
21 73
22 1
22 5
22 9
22 24
22 26
22 37
22 42
22 45
22 61
22 63
22 77
23 2
23 3
23 18
23 28
23 29
23 31
23 41
23 44
23 56
23 60
23 68
24 1
24 5
24 22
24 37
24 39
24 42
24 45
24 63
24 67
25 12
25 19
25 34
25 54
25 58
25 71
25 76
26 9
26 18
26 22
26 28
26 42
26 44
26 45
26 57
26 60
26 61
26 81
27 4
27 10
27 14
27 33
27 35
27 39
27 40
27 51
27 70
27 72
27 74
28 9
28 18
28 23
28 26
28 41
28 42
28 44
28 57
28 60
28 68
28 81
28 84
29 2
29 3
29 23
29 31
29 41
29 44
29 46
29 56
29 59
29 68
29 79
30 15
30 16
30 20
30 32
30 36
30 38
30 48
30 50
30 64
30 66
30 69
31 2
31 3
31 6
31 20
31 23
31 29
31 38
31 41
31 46
31 56
31 59
31 65
31 79
32 15
32 16
32 30
32 36
32 48
32 49
32 50
32 66
32 69
33 4
33 10
33 14
33 27
33 35
33 40
33 51
33 52
33 70
33 72
33 74
34 7
34 12
34 19
34 21
34 25
34 47
34 54
34 58
34 62
34 71
34 73
34 85
35 4
35 8
35 10
35 13
35 14
35 27
35 33
35 43
35 51
35 52
35 53
35 74
35 80
35 86
36 15
36 16
36 17
36 30
36 32
36 49
36 50
36 69
36 75
37 1
37 5
37 22
37 24
37 39
37 40
37 42
37 45
37 63
37 67
37 78
37 83
38 6
38 20
38 30
38 31
38 46
38 48
38 59
38 64
38 65
38 87
38 89
39 1
39 24
39 27
39 37
39 40
39 67
39 70
39 78
40 10
40 27
40 33
40 37
40 39
40 51
40 70
40 72
40 78
40 88
41 2
41 3
41 18
41 23
41 28
41 29
41 31
41 44
41 56
41 59
41 60
41 68
41 79
42 5
42 9
42 22
42 24
42 26
42 28
42 37
42 45
42 57
42 61
42 63
42 77
42 81
43 8
43 11
43 13
43 21
43 35
43 47
43 52
43 53
43 55
43 62
43 80
43 82
44 18
44 23
44 26
44 28
44 29
44 41
44 56
44 57
44 60
44 68
44 84
44 96
45 1
45 5
45 9
45 22
45 24
45 26
45 37
45 42
45 61
45 63
45 67
45 77
45 83
46 3
46 6
46 20
46 29
46 31
46 38
46 48
46 56
46 59
46 64
46 65
46 87
46 89
46 91
47 7
47 11
47 13
47 19
47 21
47 34
47 43
47 53
47 54
47 55
47 62
47 73
47 82
47 101
48 16
48 20
48 30
48 32
48 38
48 46
48 50
48 64
48 65
48 66
48 69
48 92
48 93
49 15
49 17
49 32
49 36
49 50
49 69
49 75
50 15
50 16
50 30
50 32
50 36
50 48
50 49
50 66
50 69
50 75
50 93
50 95
51 10
51 14
51 27
51 33
51 35
51 40
51 52
51 53
51 70
51 72
51 74
51 86
51 88
51 90
52 4
52 8
52 14
52 33
52 35
52 43
52 51
52 53
52 55
52 72
52 74
52 80
52 86
52 103
53 8
53 13
53 35
53 43
53 47
53 51
53 52
53 55
53 74
53 80
53 86
53 97
53 103
54 12
54 19
54 21
54 25
54 34
54 47
54 58
54 62
54 71
54 73
54 76
54 82
54 85
54 94
54 106
55 11
55 13
55 21
55 43
55 47
55 52
55 53
55 62
55 73
55 80
55 82
55 97
55 101
56 23
56 29
56 31
56 41
56 44
56 46
56 59
56 65
56 68
56 79
56 91
56 99
56 100
57 18
57 26
57 28
57 42
57 44
57 60
57 61
57 68
57 77
57 81
57 84
57 96
57 104
57 113
58 12
58 25
58 34
58 54
58 71
58 73
58 76
58 85
58 94
58 106
59 20
59 29
59 31
59 38
59 41
59 46
59 56
59 64
59 65
59 79
59 87
59 89
59 91
59 99
60 18
60 23
60 26
60 28
60 41
60 44
60 57
60 68
60 81
60 84
60 96
60 100
60 112
61 22
61 26
61 42
61 45
61 57
61 63
61 77
61 81
61 83
61 84
61 98
61 104
62 21
62 34
62 43
62 47
62 54
62 55
62 71
62 73
62 82
62 85
62 97
62 101
62 117
63 22
63 24
63 37
63 42
63 45
63 61
63 67
63 77
63 83
63 98
63 102
63 110
64 20
64 30
64 38
64 46
64 48
64 59
64 65
64 66
64 87
64 89
64 91
64 92
64 108
65 20
65 31
65 38
65 46
65 48
65 56
65 59
65 64
65 79
65 87
65 89
65 91
65 92
66 30
66 32
66 48
66 50
66 64
66 69
66 89
66 92
66 93
66 95
66 108
67 24
67 37
67 39
67 45
67 63
67 70
67 77
67 78
67 83
67 98
67 102
67 105
67 110
68 23
68 28
68 29
68 41
68 44
68 56
68 57
68 60
68 79
68 81
68 84
68 96
68 99
68 100
68 112
68 115
69 30
69 32
69 36
69 48
69 49
69 50
69 66
69 75
69 92
69 93
69 95
69 120
70 27
70 33
70 39
70 40
70 51
70 67
70 72
70 74
70 78
70 88
70 90
70 105
70 107
70 124
71 19
71 25
71 34
71 54
71 58
71 62
71 73
71 76
71 82
71 85
71 94
71 106
71 109
71 114
72 27
72 33
72 40
72 51
72 52
72 70
72 74
72 78
72 86
72 88
72 90
72 103
72 107
72 118
72 124
73 21
73 34
73 47
73 54
73 55
73 58
73 62
73 71
73 82
73 85
73 94
73 101
73 109
73 114
73 117
73 128
74 27
74 33
74 35
74 51
74 52
74 53
74 70
74 72
74 80
74 86
74 88
74 90
74 103
74 107
74 111
74 118
75 36
75 49
75 50
75 69
75 95
75 126
76 25
76 54
76 58
76 71
76 85
76 94
76 106
76 114
77 22
77 42
77 45
77 57
77 61
77 63
77 67
77 81
77 83
77 98
77 104
77 110
78 37
78 39
78 40
78 67
78 70
78 72
78 83
78 88
78 90
78 102
78 105
78 107
79 29
79 31
79 41
79 56
79 59
79 65
79 68
79 87
79 91
79 96
79 99
79 100
79 115
79 116
79 119
80 35
80 43
80 52
80 53
80 55
80 74
80 82
80 86
80 97
80 101
80 103
80 111
80 121
80 122
81 26
81 28
81 42
81 57
81 60
81 61
81 68
81 77
81 84
81 96
81 98
81 104
81 112
81 113
82 43
82 47
82 54
82 55
82 62
82 71
82 73
82 80
82 85
82 97
82 101
82 109
82 117
82 121
82 128
83 37
83 45
83 61
83 63
83 67
83 77
83 78
83 98
83 102
83 110
83 133
83 134
84 28
84 44
84 57
84 60
84 61
84 68
84 81
84 96
84 100
84 104
84 112
84 113
84 115
85 34
85 54
85 58
85 62
85 71
85 73
85 76
85 82
85 94
85 101
85 106
85 109
85 114
85 117
85 128
85 130
86 35
86 51
86 52
86 53
86 72
86 74
86 80
86 90
86 97
86 103
86 111
86 118
86 122
87 38
87 46
87 59
87 64
87 65
87 79
87 89
87 91
87 92
87 99
87 108
87 119
87 123
87 125
88 40
88 51
88 70
88 72
88 74
88 78
88 90
88 102
88 105
88 107
88 124
88 136
89 38
89 46
89 59
89 64
89 65
89 66
89 87
89 91
89 92
89 108
89 119
89 123
89 125
89 127
90 51
90 70
90 72
90 74
90 78
90 86
90 88
90 103
90 105
90 107
90 118
90 124
90 139
91 46
91 56
91 59
91 64
91 65
91 79
91 87
91 89
91 99
91 116
91 119
91 123
91 125
92 48
92 64
92 65
92 66
92 69
92 87
92 89
92 93
92 95
92 108
92 120
92 123
92 127
93 48
93 50
93 66
93 69
93 92
93 95
93 108
93 120
93 127
93 129
94 54
94 58
94 71
94 73
94 76
94 85
94 106
94 109
94 114
94 130
94 131
95 50
95 66
95 69
95 75
95 92
95 93
95 108
95 120
95 126
95 129
95 132
96 44
96 57
96 60
96 68
96 79
96 81
96 84
96 99
96 100
96 112
96 113
96 115
96 116
96 141
97 53
97 55
97 62
97 80
97 82
97 86
97 101
97 103
97 111
97 117
97 121
97 122
97 143
97 145
98 61
98 63
98 67
98 77
98 81
98 83
98 102
98 104
98 110
98 113
98 134
98 135
98 137
99 56
99 59
99 68
99 79
99 87
99 91
99 96
99 100
99 115
99 116
99 119
99 125
99 142
100 56
100 60
100 68
100 79
100 84
100 96
100 99
100 112
100 115
100 116
100 141
100 142
101 47
101 55
101 62
101 73
101 80
101 82
101 85
101 97
101 109
101 117
101 121
101 122
101 128
101 148
102 63
102 67
102 78
102 83
102 88
102 98
102 105
102 110
102 133
102 134
102 136
102 138
102 155
103 52
103 53
103 72
103 74
103 80
103 86
103 90
103 97
103 107
103 111
103 118
103 122
103 139
103 143
103 144
104 57
104 61
104 77
104 81
104 84
104 98
104 110
104 112
104 113
104 135
104 137
104 140
105 67
105 70
105 78
105 88
105 90
105 102
105 107
105 124
105 133
105 136
105 138
106 54
106 58
106 71
106 76
106 85
106 94
106 109
106 114
106 130
106 131
106 147
107 70
107 72
107 74
107 78
107 88
107 90
107 103
107 105
107 118
107 124
107 136
107 139
107 158
108 64
108 66
108 87
108 89
108 92
108 93
108 95
108 120
108 123
108 125
108 127
108 150
108 154
109 71
109 73
109 82
109 85
109 94
109 101
109 106
109 114
109 117
109 121
109 128
109 130
109 151
110 63
110 67
110 77
110 83
110 98
110 102
110 104
110 133
110 134
110 135
110 138
110 152
110 153
110 155
111 74
111 80
111 86
111 97
111 103
111 118
111 121
111 122
111 143
111 144
111 145
112 60
112 68
112 81
112 84
112 96
112 100
112 104
112 113
112 115
112 116
112 137
112 140
112 141
112 157
113 57
113 81
113 84
113 96
113 98
113 104
113 112
113 135
113 137
113 140
113 141
113 157
114 71
114 73
114 76
114 85
114 94
114 106
114 109
114 117
114 128
114 130
114 131
114 147
114 165
114 166
115 68
115 79
115 84
115 96
115 99
115 100
115 112
115 116
115 119
115 140
115 141
115 142
115 160
116 79
116 91
116 96
116 99
116 100
116 112
116 115
116 119
116 125
116 141
116 142
116 146
116 160
116 163
117 62
117 73
117 82
117 85
117 97
117 101
117 109
117 114
117 121
117 122
117 128
117 130
117 145
117 148
117 151
118 72
118 74
118 86
118 90
118 103
118 107
118 111
118 122
118 124
118 139
118 143
118 144
118 158
118 167
118 169
119 79
119 87
119 89
119 91
119 99
119 115
119 116
119 123
119 125
119 142
119 146
119 149
119 163
120 69
120 92
120 93
120 95
120 108
120 127
120 129
120 132
120 150
120 154
120 156
120 159
121 80
121 82
121 97
121 101
121 109
121 111
121 117
121 122
121 128
121 143
121 145
121 148
121 151
121 162
121 172
122 80
122 86
122 97
122 101
122 103
122 111
122 117
122 118
122 121
122 143
122 144
122 145
122 148
122 162
123 87
123 89
123 91
123 92
123 108
123 119
123 125
123 127
123 146
123 149
123 150
123 154
124 70
124 72
124 88
124 90
124 105
124 107
124 118
124 136
124 138
124 139
124 158
124 164
124 167
125 87
125 89
125 91
125 99
125 108
125 116
125 119
125 123
125 127
125 146
125 149
125 150
125 163
125 178
125 179
126 75
126 95
126 129
126 132
126 156
126 161
126 177
127 89
127 92
127 93
127 108
127 120
127 123
127 125
127 149
127 150
127 154
127 159
127 176
128 73
128 82
128 85
128 101
128 109
128 114
128 117
128 121
128 130
128 148
128 151
128 165
128 174
129 93
129 95
129 120
129 126
129 132
129 154
129 156
129 159
129 161
129 175
130 85
130 94
130 106
130 109
130 114
130 117
130 128
130 131
130 147
130 151
130 165
130 166
130 168
131 94
131 106
131 114
131 130
131 147
131 165
131 166
131 168
131 181
132 95
132 120
132 126
132 129
132 156
132 159
132 161
132 175
132 177
133 83
133 102
133 105
133 110
133 134
133 135
133 136
133 138
133 152
133 153
133 155
133 164
133 171
133 183
134 83
134 98
134 102
134 110
134 133
134 135
134 137
134 138
134 152
134 153
134 155
134 171
134 173
134 184
135 98
135 104
135 110
135 113
135 133
135 134
135 137
135 140
135 152
135 153
135 157
135 171
135 173
135 184
136 88
136 102
136 105
136 107
136 124
136 133
136 138
136 139
136 155
136 158
136 164
136 186
137 98
137 104
137 112
137 113
137 134
137 135
137 140
137 141
137 153
137 157
137 170
137 173
138 102
138 105
138 110
138 124
138 133
138 134
138 136
138 152
138 155
138 164
138 171
138 183
138 186
139 90
139 103
139 107
139 118
139 124
139 136
139 144
139 158
139 164
139 167
139 169
139 189
139 192
140 104
140 112
140 113
140 115
140 135
140 137
140 141
140 157
140 160
140 170
140 173
140 190
141 96
141 100
141 112
141 113
141 115
141 116
141 137
141 140
141 142
141 157
141 160
141 170
142 99
142 100
142 115
142 116
142 119
142 141
142 146
142 160
142 163
142 187
142 194
143 97
143 103
143 111
143 118
143 121
143 122
143 144
143 145
143 148
143 162
143 169
143 172
143 180
143 191
143 193
144 103
144 111
144 118
144 122
144 139
144 143
144 145
144 158
144 162
144 167
144 169
144 180
144 191
144 192
145 97
145 111
145 117
145 121
145 122
145 143
145 144
145 148
145 151
145 162
145 169
145 172
145 180
145 193
145 197
146 116
146 119
146 123
146 125
146 142
146 149
146 160
146 163
146 178
146 179
146 187
147 106
147 114
147 130
147 131
147 165
147 166
147 168
147 181
147 195
148 101
148 117
148 121
148 122
148 128
148 143
148 145
148 151
148 162
148 172
148 174
148 180
149 119
149 123
149 125
149 127
149 146
149 150
149 154
149 163
149 176
149 178
149 179
149 182
150 108
150 120
150 123
150 125
150 127
150 149
150 154
150 159
150 176
150 178
150 179
150 182
150 188
151 109
151 117
151 121
151 128
151 130
151 145
151 148
151 165
151 172
151 174
151 185
151 202
152 110
152 133
152 134
152 135
152 138
152 153
152 155
152 171
152 173
152 183
152 184
152 200
153 110
153 133
153 134
153 135
153 137
153 152
153 155
153 157
153 171
153 173
153 184
153 198
153 201
154 108
154 120
154 123
154 127
154 129
154 149
154 150
154 156
154 159
154 175
154 176
154 182
154 188
155 102
155 110
155 133
155 134
155 136
155 138
155 152
155 153
155 164
155 171
155 183
155 184
155 186
156 120
156 126
156 129
156 132
156 154
156 159
156 161
156 175
156 177
156 188
156 196
157 112
157 113
157 135
157 137
157 140
157 141
157 153
157 170
157 173
157 190
157 198
157 209
158 107
158 118
158 124
158 136
158 139
158 144
158 164
158 167
158 169
158 186
158 189
158 192
159 120
159 127
159 129
159 132
159 150
159 154
159 156
159 175
159 176
159 182
159 188
159 196
160 115
160 116
160 140
160 141
160 142
160 146
160 163
160 170
160 187
160 194
160 203
161 126
161 129
161 132
161 156
161 175
161 177
161 196
161 208
162 121
162 122
162 143
162 144
162 145
162 148
162 169
162 172
162 180
162 191
162 193
162 197
163 116
163 119
163 125
163 142
163 146
163 149
163 160
163 178
163 179
163 187
163 194
163 203
163 204
164 124
164 133
164 136
164 138
164 139
164 155
164 158
164 167
164 183
164 186
164 189
164 206
165 114
165 128
165 130
165 131
165 147
165 151
165 166
165 168
165 174
165 181
165 185
165 195
165 199
165 219
166 114
166 130
166 131
166 147
166 165
166 168
166 174
166 181
166 185
166 195
166 199
166 217
167 118
167 124
167 139
167 144
167 158
167 164
167 169
167 189
167 191
167 192
167 210
167 212
168 130
168 131
168 147
168 165
168 166
168 181
168 195
168 199
168 217
169 118
169 139
169 143
169 144
169 145
169 158
169 162
169 167
169 180
169 189
169 191
169 192
169 193
169 212
170 137
170 140
170 141
170 157
170 160
170 173
170 190
170 194
170 209
170 211
171 133
171 134
171 135
171 138
171 152
171 153
171 155
171 173
171 183
171 184
171 200
171 201
171 213
172 121
172 143
172 145
172 148
172 151
172 162
172 174
172 180
172 185
172 193
172 197
172 202
172 220
173 134
173 135
173 137
173 140
173 152
173 153
173 157
173 170
173 171
173 184
173 190
173 198
173 201
173 209
174 128
174 148
174 151
174 165
174 166
174 172
174 185
174 199
174 202
174 220
174 221
175 129
175 132
175 154
175 156
175 159
175 161
175 176
175 177
175 188
175 196
175 208
175 215
175 225
176 127
176 149
176 150
176 154
176 159
176 175
176 179
176 182
176 188
176 205
176 215
176 216
177 126
177 132
177 156
177 161
177 175
177 196
177 208
178 125
178 146
178 149
178 150
178 163
178 179
178 182
178 187
178 203
178 204
178 205
178 207
178 214
178 222
179 125
179 146
179 149
179 150
179 163
179 176
179 178
179 182
179 204
179 205
179 207
179 214
180 143
180 144
180 145
180 148
180 162
180 169
180 172
180 191
180 193
180 197
180 202
180 218
181 131
181 147
181 165
181 166
181 168
181 185
181 195
181 199
181 217
181 219
182 149
182 150
182 154
182 159
182 176
182 178
182 179
182 188
182 205
182 207
182 214
182 216
182 228
182 231
183 133
183 138
183 152
183 155
183 164
183 171
183 184
183 186
183 200
183 201
183 206
183 213
184 134
184 135
184 152
184 153
184 155
184 171
184 173
184 183
184 198
184 200
184 201
184 209
184 213
184 223
185 151
185 165
185 166
185 172
185 174
185 181
185 195
185 199
185 202
185 217
185 219
185 220
185 221
186 136
186 138
186 155
186 158
186 164
186 183
186 189
186 192
186 206
186 210
186 213
186 224
186 241
187 142
187 146
187 160
187 163
187 178
187 194
187 203
187 204
187 211
187 214
187 222
187 226
187 227
188 150
188 154
188 156
188 159
188 175
188 176
188 182
188 196
188 205
188 215
188 216
188 229
188 231
189 139
189 158
189 164
189 167
189 169
189 186
189 192
189 206
189 210
189 212
189 224
189 237
190 140
190 157
190 170
190 173
190 194
190 198
190 209
190 211
190 234
190 236
191 143
191 144
191 162
191 167
191 169
191 180
191 192
191 193
191 197
191 210
191 212
191 218
191 235
191 240
192 139
192 144
192 158
192 167
192 169
192 186
192 189
192 191
192 206
192 210
192 212
192 224
192 235
193 143
193 145
193 162
193 169
193 172
193 180
193 191
193 197
193 202
193 212
193 218
193 240
194 142
194 160
194 163
194 170
194 187
194 190
194 203
194 204
194 211
194 226
194 227
194 236
195 147
195 165
195 166
195 168
195 181
195 185
195 199
195 217
195 219
195 221
195 232
195 233
195 238
196 156
196 159
196 161
196 175
196 177
196 188
196 208
196 215
196 225
196 229
197 145
197 162
197 172
197 180
197 191
197 193
197 202
197 218
197 220
197 239
197 240
198 153
198 157
198 173
198 184
198 190
198 200
198 201
198 209
198 223
198 234
199 165
199 166
199 168
199 174
199 181
199 185
199 195
199 202
199 217
199 219
199 220
199 221
199 233
199 238
199 243
200 152
200 171
200 183
200 184
200 198
200 201
200 213
200 223
200 241
200 242
201 153
201 171
201 173
201 183
201 184
201 198
201 200
201 209
201 213
201 223
201 234
201 242
202 151
202 172
202 174
202 180
202 185
202 193
202 197
202 199
202 219
202 220
202 221
202 239
202 243
203 160
203 163
203 178
203 187
203 194
203 204
203 211
203 214
203 222
203 226
203 227
203 236
204 163
204 178
204 179
204 187
204 194
204 203
204 207
204 214
204 222
204 226
204 227
204 230
205 176
205 178
205 179
205 182
205 188
205 207
205 214
205 216
205 228
205 230
205 231
206 164
206 183
206 186
206 189
206 192
206 210
206 213
206 224
206 237
206 241
207 178
207 179
207 182
207 204
207 205
207 214
207 216
207 222
207 228
207 230
207 231
208 161
208 175
208 177
208 196
208 215
208 225
209 157
209 170
209 173
209 184
209 190
209 198
209 201
209 211
209 223
209 234
209 236
210 167
210 186
210 189
210 191
210 192
210 206
210 212
210 224
210 235
210 237
211 170
211 187
211 190
211 194
211 203
211 209
211 226
211 227
211 236
212 167
212 169
212 189
212 191
212 192
212 193
212 210
212 218
212 224
212 235
212 237
212 240
212 247
213 171
213 183
213 184
213 186
213 200
213 201
213 206
213 223
213 224
213 241
213 242
213 250
214 178
214 179
214 182
214 187
214 203
214 204
214 205
214 207
214 222
214 227
214 228
214 230
215 175
215 176
215 188
215 196
215 208
215 216
215 225
215 229
215 231
216 176
216 182
216 188
216 205
216 207
216 215
216 228
216 229
216 231
217 166
217 168
217 181
217 185
217 195
217 199
217 219
217 221
217 232
217 233
217 238
217 245
218 180
218 191
218 193
218 197
218 212
218 235
218 239
218 240
218 244
219 165
219 181
219 185
219 195
219 199
219 202
219 217
219 220
219 221
219 232
219 233
219 238
219 243
219 245
219 246
220 172
220 174
220 185
220 197
220 199
220 202
220 219
220 221
220 238
220 239
220 243
220 246
220 259
221 174
221 185
221 195
221 199
221 202
221 217
221 219
221 220
221 233
221 238
221 239
221 243
221 245
221 246
222 178
222 187
222 203
222 204
222 207
222 214
222 226
222 227
222 228
222 230
222 261
223 184
223 198
223 200
223 201
223 209
223 213
223 234
223 242
223 249
223 262
224 186
224 189
224 192
224 206
224 210
224 212
224 213
224 237
224 241
224 248
224 251
224 252
225 175
225 196
225 208
225 215
225 229
225 264
226 187
226 194
226 203
226 204
226 211
226 222
226 227
226 236
226 255
226 258
227 187
227 194
227 203
227 204
227 211
227 214
227 222
227 226
227 230
227 236
227 255
227 258
227 261
228 182
228 205
228 207
228 214
228 216
228 222
228 230
228 231
228 253
228 256
229 188
229 196
229 215
229 216
229 225
229 231
229 264
229 269
230 204
230 205
230 207
230 214
230 222
230 227
230 228
230 231
230 253
230 256
230 261
231 182
231 188
231 205
231 207
231 215
231 216
231 228
231 229
231 230
231 253
232 195
232 217
232 219
232 233
232 238
232 245
232 254
233 195
233 199
233 217
233 219
233 221
233 232
233 238
233 243
233 245
233 246
233 254
233 266
233 276
234 190
234 198
234 201
234 209
234 223
234 236
234 257
234 262
234 270
235 191
235 192
235 210
235 212
235 218
235 237
235 240
235 247
235 251
235 260
235 268
236 190
236 194
236 203
236 209
236 211
236 226
236 227
236 234
236 255
236 258
236 270
237 189
237 206
237 210
237 212
237 224
237 235
237 241
237 248
237 251
237 252
238 195
238 199
238 217
238 219
238 220
238 221
238 232
238 233
238 243
238 245
238 246
238 254
238 259
238 266
238 274
239 197
239 202
239 218
239 220
239 221
239 240
239 243
239 244
239 246
239 259
239 263
239 265
240 191
240 193
240 197
240 212
240 218
240 235
240 239
240 244
240 247
240 260
240 263
240 265
241 186
241 200
241 206
241 213
241 224
241 237
241 242
241 248
241 249
241 250
241 252
241 271
242 200
242 201
242 213
242 223
242 241
242 248
242 249
242 250
242 271
243 199
243 202
243 219
243 220
243 221
243 233
243 238
243 239
243 245
243 246
243 259
243 265
243 266
243 277
244 218
244 239
244 240
244 247
244 259
244 260
244 263
244 265
244 278
244 279
245 217
245 219
245 221
245 232
245 233
245 238
245 243
245 246
245 254
245 259
245 266
245 274
245 276
245 277
245 298
245 300
246 219
246 220
246 221
246 233
246 238
246 239
246 243
246 245
246 259
246 265
246 266
246 274
246 276
246 277
246 279
246 298
247 212
247 235
247 240
247 244
247 251
247 252
247 260
247 263
247 268
247 280
247 291
248 224
248 237
248 241
248 242
248 249
248 250
248 251
248 252
248 271
248 281
248 294
249 223
249 241
249 242
249 248
249 250
249 262
249 271
249 286
249 287
249 305
250 213
250 241
250 242
250 248
250 249
250 252
250 271
250 281
250 286
250 294
250 305
251 224
251 235
251 237
251 247
251 248
251 252
251 268
251 280
251 281
251 289
252 224
252 237
252 241
252 247
252 248
252 250
252 251
252 268
252 281
252 289
252 294
253 228
253 230
253 231
253 256
253 261
253 269
253 272
253 275
253 282
253 296
253 297
254 232
254 233
254 238
254 245
254 266
254 274
254 276
254 299
254 300
255 226
255 227
255 236
255 258
255 261
255 273
255 285
255 293
255 295
256 228
256 230
256 253
256 261
256 272
256 282
256 285
256 297
256 302
257 234
257 262
257 270
257 284
257 287
257 288
257 301
257 307
258 226
258 227
258 236
258 255
258 270
258 273
258 288
258 293
258 295
259 220
259 238
259 239
259 243
259 244
259 245
259 246
259 263
259 265
259 266
259 274
259 277
259 278
259 279
259 298
259 303
259 304
260 235
260 240
260 244
260 247
260 263
260 265
260 268
260 278
260 280
260 291
260 308
261 222
261 227
261 230
261 253
261 255
261 256
261 272
261 273
261 282
261 285
261 302
262 223
262 234
262 249
262 257
262 271
262 284
262 286
262 287
262 301
263 239
263 240
263 244
263 247
263 259
263 260
263 265
263 278
263 279
263 280
263 291
263 304
263 306
263 308
264 225
264 229
264 267
264 269
264 275
264 283
264 290
264 292
264 296
265 239
265 240
265 243
265 244
265 246
265 259
265 260
265 263
265 277
265 278
265 279
265 303
265 304
265 306
266 233
266 238
266 243
266 245
266 246
266 254
266 259
266 274
266 276
266 277
266 279
266 298
266 300
266 303
267 264
267 269
267 283
267 290
267 310
268 235
268 247
268 251
268 252
268 260
268 280
268 281
268 289
268 291
268 309
269 229
269 253
269 264
269 267
269 272
269 275
269 290
269 292
269 296
269 314
270 234
270 236
270 257
270 258
270 284
270 288
270 295
270 301
270 307
271 241
271 242
271 248
271 249
271 250
271 262
271 281
271 286
271 287
271 294
271 305
271 312
271 313
272 253
272 256
272 261
272 269
272 275
272 282
272 296
272 297
272 302
273 255
273 258
273 261
273 285
273 293
273 295
273 302
273 315
274 238
274 245
274 246
274 254
274 259
274 266
274 276
274 277
274 298
274 299
274 300
274 303
274 316
274 317
275 253
275 264
275 269
275 272
275 282
275 290
275 292
275 296
275 297
276 233
276 245
276 246
276 254
276 266
276 274
276 277
276 298
276 299
276 300
276 316
276 317
277 243
277 245
277 246
277 259
277 265
277 266
277 274
277 276
277 279
277 298
277 300
277 303
277 304
277 317
277 318
278 244
278 259
278 260
278 263
278 265
278 279
278 291
278 303
278 304
278 306
278 308
278 321
279 244
279 246
279 259
279 263
279 265
279 266
279 277
279 278
279 298
279 303
279 304
279 306
279 308
279 318
279 325
280 247
280 251
280 260
280 263
280 268
280 289
280 291
280 308
280 309
280 323
281 248
281 250
281 251
281 252
281 268
281 271
281 289
281 294
281 305
281 311
281 312
282 253
282 256
282 261
282 272
282 275
282 285
282 297
282 302
282 319
283 264
283 267
283 290
283 310
284 257
284 262
284 270
284 287
284 288
284 301
284 307
284 313
284 322
284 324
285 255
285 256
285 261
285 273
285 282
285 293
285 302
285 315
285 320
286 249
286 250
286 262
286 271
286 287
286 294
286 301
286 305
286 312
286 313
286 329
287 249
287 257
287 262
287 271
287 284
287 286
287 301
287 305
287 313
287 322
287 329
288 257
288 258
288 270
288 284
288 293
288 295
288 301
288 307
288 324
288 326
289 251
289 252
289 268
289 280
289 281
289 294
289 309
289 311
289 327
290 264
290 267
290 269
290 275
290 283
290 292
290 296
290 310
290 314
290 330
291 247
291 260
291 263
291 268
291 278
291 280
291 306
291 308
291 309
291 321
291 323
292 264
292 269
292 275
292 290
292 296
292 297
292 310
292 314
292 330
292 332
293 255
293 258
293 273
293 285
293 288
293 295
293 302
293 315
293 320
293 326
294 248
294 250
294 252
294 271
294 281
294 286
294 289
294 305
294 311
294 312
294 328
294 331
295 255
295 258
295 270
295 273
295 288
295 293
295 307
295 315
295 326
295 343
296 253
296 264
296 269
296 272
296 275
296 290
296 292
296 297
296 314
296 332
296 333
297 253
297 256
297 272
297 275
297 282
297 292
297 296
297 302
297 319
297 333
297 334
298 245
298 246
298 259
298 266
298 274
298 276
298 277
298 279
298 299
298 300
298 303
298 304
298 316
298 317
298 318
298 325
298 336
298 338
299 254
299 274
299 276
299 298
299 300
299 316
299 317
299 335
300 245
300 254
300 266
300 274
300 276
300 277
300 298
300 299
300 303
300 316
300 317
300 318
300 335
300 336
301 257
301 262
301 270
301 284
301 286
301 287
301 288
301 307
301 313
301 322
301 324
301 337
301 346
302 256
302 261
302 272
302 273
302 282
302 285
302 293
302 297
302 315
302 319
302 320
302 334
302 339
302 340
303 259
303 265
303 266
303 274
303 277
303 278
303 279
303 298
303 300
303 304
303 306
303 317
303 318
303 325
303 336
303 338
303 341
304 259
304 263
304 265
304 277
304 278
304 279
304 298
304 303
304 306
304 308
304 318
304 321
304 325
304 338
304 341
305 249
305 250
305 271
305 281
305 286
305 287
305 294
305 312
305 313
305 322
305 328
305 329
305 331
305 350
306 263
306 265
306 278
306 279
306 291
306 303
306 304
306 308
306 321
306 325
306 341
306 344
307 257
307 270
307 284
307 288
307 295
307 301
307 324
307 326
307 337
307 342
308 260
308 263
308 278
308 279
308 280
308 291
308 304
308 306
308 309
308 321
308 323
308 325
308 344
308 345
309 268
309 280
309 289
309 291
309 308
309 311
309 321
309 323
309 327
309 345
309 347
310 267
310 283
310 290
310 292
310 314
310 330
310 352
310 354
311 281
311 289
311 294
311 309
311 312
311 327
311 328
311 331
311 349
311 353
312 271
312 281
312 286
312 294
312 305
312 311
312 328
312 329
312 331
312 350
312 351
312 353
313 271
313 284
313 286
313 287
313 301
313 305
313 322
313 329
313 331
313 346
313 348
313 350
314 269
314 290
314 292
314 296
314 310
314 330
314 332
314 354
314 355
315 273
315 285
315 293
315 295
315 302
315 320
315 326
315 339
315 340
315 342
315 343
316 274
316 276
316 298
316 299
316 300
316 317
316 335
316 336
316 356
317 274
317 276
317 277
317 298
317 299
317 300
317 303
317 316
317 318
317 335
317 336
317 338
317 356
317 364
318 277
318 279
318 298
318 300
318 303
318 304
318 317
318 325
318 335
318 336
318 338
318 341
318 357
318 365
319 282
319 297
319 302
319 320
319 332
319 333
319 334
319 339
319 361
319 363
320 285
320 293
320 302
320 315
320 319
320 334
320 339
320 340
320 343
320 359
321 278
321 291
321 304
321 306
321 308
321 309
321 323
321 325
321 341
321 344
321 345
321 362
321 366
322 284
322 287
322 301
322 305
322 313
322 324
322 329
322 337
322 346
322 348
322 350
322 367
322 368
323 280
323 291
323 308
323 309
323 321
323 327
323 344
323 345
323 347
323 349
323 358
323 366
324 284
324 288
324 301
324 307
324 322
324 326
324 337
324 342
324 346
324 372
324 375
325 279
325 298
325 303
325 304
325 306
325 308
325 318
325 321
325 336
325 338
325 341
325 344
325 357
325 362
325 365
326 288
326 293
326 295
326 307
326 315
326 324
326 337
326 342
326 343
326 371
326 372
327 289
327 309
327 311
327 323
327 328
327 345
327 347
327 349
327 353
327 358
328 294
328 305
328 311
328 312
328 327
328 331
328 349
328 350
328 351
328 353
328 370
328 374
329 286
329 287
329 305
329 312
329 313
329 322
329 331
329 346
329 348
329 350
329 351
329 367
329 368
329 369
330 290
330 292
330 310
330 314
330 332
330 352
330 354
330 355
331 294
331 305
331 311
331 312
331 313
331 328
331 329
331 348
331 350
331 351
331 353
331 369
331 370
332 292
332 296
332 314
332 319
332 330
332 333
332 334
332 355
332 360
332 361
333 296
333 297
333 319
333 332
333 334
333 360
333 361
333 363
334 297
334 302
334 319
334 320
334 332
334 333
334 339
334 359
334 361
334 363
334 379
335 299
335 300
335 316
335 317
335 318
335 336
335 356
335 364
335 378
336 298
336 300
336 303
336 316
336 317
336 318
336 325
336 335
336 338
336 341
336 356
336 357
336 364
336 365
336 380
337 301
337 307
337 322
337 324
337 326
337 342
337 346
337 367
337 368
337 372
337 375
338 298
338 303
338 304
338 317
338 318
338 325
338 336
338 341
338 357
338 364
338 365
338 380
339 302
339 315
339 319
339 320
339 334
339 340
339 359
339 363
339 379
340 302
340 315
340 320
340 339
340 343
340 359
340 373
341 303
341 304
341 306
341 318
341 321
341 325
341 336
341 338
341 344
341 357
341 362
341 365
341 382
342 307
342 315
342 324
342 326
342 337
342 343
342 371
342 372
342 373
342 375
343 295
343 315
343 320
343 326
343 340
343 342
343 371
343 372
343 373
344 306
344 308
344 321
344 323
344 325
344 341
344 345
344 357
344 362
344 366
344 382
344 384
345 308
345 309
345 321
345 323
345 327
345 344
345 347
345 358
345 362
345 366
345 376
346 301
346 313
346 322
346 324
346 329
346 337
346 348
346 350
346 367
346 368
346 375
347 309
347 323
347 327
347 345
347 349
347 358
347 366
347 376
347 388
348 313
348 322
348 329
348 331
348 346
348 350
348 351
348 367
348 368
348 369
348 370
349 311
349 323
349 327
349 328
349 347
349 353
349 358
349 374
349 376
349 390
350 305
350 312
350 313
350 322
350 328
350 329
350 331
350 346
350 348
350 351
350 353
350 368
350 369
350 370
350 395
351 312
351 328
351 329
351 331
351 348
351 350
351 353
351 368
351 369
351 370
351 374
351 393
351 395
352 310
352 330
352 354
352 355
352 377
352 381
353 311
353 312
353 327
353 328
353 331
353 349
353 350
353 351
353 369
353 370
353 374
353 393
354 310
354 314
354 330
354 352
354 355
354 377
354 381
354 400
355 314
355 330
355 332
355 352
355 354
355 360
355 377
355 381
355 383
355 387
355 400
355 406
356 316
356 317
356 335
356 336
356 364
356 378
356 380
356 385
356 391
357 318
357 325
357 336
357 338
357 341
357 344
357 362
357 364
357 365
357 380
357 382
357 389
357 401
357 410
358 323
358 327
358 345
358 347
358 349
358 366
358 374
358 376
358 388
358 390
358 407
359 320
359 334
359 339
359 340
359 361
359 363
359 373
359 379
359 386
359 402
359 404
359 408
360 332
360 333
360 355
360 361
360 363
360 383
360 387
360 399
360 406
361 319
361 332
361 333
361 334
361 359
361 360
361 363
361 379
361 383
361 399
361 404
362 321
362 325
362 341
362 344
362 345
362 357
362 365
362 366
362 382
362 384
362 401
362 403
363 319
363 333
363 334
363 339
363 359
363 360
363 361
363 379
363 386
363 399
363 404
364 317
364 335
364 336
364 338
364 356
364 357
364 365
364 378
364 380
364 385
364 389
364 391
364 409
364 414
365 318
365 325
365 336
365 338
365 341
365 357
365 362
365 364
365 380
365 382
365 389
365 391
365 410
365 414
366 321
366 323
366 344
366 345
366 347
366 358
366 362
366 376
366 384
366 388
366 403
367 322
367 329
367 337
367 346
367 348
367 368
367 369
367 372
367 375
367 396
367 397
367 398
368 322
368 329
368 337
368 346
368 348
368 350
368 351
368 367
368 369
368 375
368 395
368 396
368 397
368 398
368 413
369 329
369 331
369 348
369 350
369 351
369 353
369 367
369 368
369 370
369 374
369 393
369 395
369 396
369 413
370 328
370 331
370 348
370 350
370 351
370 353
370 369
370 374
370 393
370 395
370 412
371 326
371 342
371 343
371 372
371 373
371 375
371 392
371 394
371 402
371 405
371 421
372 324
372 326
372 337
372 342
372 343
372 367
372 371
372 373
372 375
372 392
372 394
372 398
372 411
373 340
373 342
373 343
373 359
373 371
373 372
373 386
373 392
373 394
373 402
373 405
374 328
374 349
374 351
374 353
374 358
374 369
374 370
374 376
374 390
374 393
374 412
374 420
375 324
375 337
375 342
375 346
375 367
375 368
375 371
375 372
375 392
375 394
375 397
375 398
375 411
376 345
376 347
376 349
376 358
376 366
376 374
376 384
376 388
376 390
376 403
376 407
377 352
377 354
377 355
377 381
377 400
377 416
378 335
378 356
378 364
378 380
378 385
378 391
378 409
378 417
379 334
379 339
379 359
379 361
379 363
379 383
379 386
379 399
379 404
379 408
379 415
379 423
380 336
380 338
380 356
380 357
380 364
380 365
380 378
380 382
380 385
380 389
380 391
380 409
380 410
380 414
380 417
380 424
381 352
381 354
381 355
381 377
381 383
381 387
381 400
381 406
381 416
382 341
382 344
382 357
382 362
382 365
382 380
382 384
382 389
382 401
382 403
382 410
382 414
382 418
382 419
382 425
382 440
383 355
383 360
383 361
383 379
383 381
383 387
383 399
383 406
383 415
383 422
384 344
384 362
384 366
384 376
384 382
384 388
384 401
384 403
384 410
384 418
384 419
384 426
384 431
384 440
385 356
385 364
385 378
385 380
385 391
385 409
385 414
385 417
385 424
385 442
386 359
386 363
386 373
386 379
386 399
386 402
386 404
386 405
386 408
386 423
386 427
386 429
386 439
387 355
387 360
387 381
387 383
387 399
387 400
387 406
387 415
387 416
387 422
388 347
388 358
388 366
388 376
388 384
388 390
388 403
388 407
388 420
388 426
388 430
388 433
389 357
389 364
389 365
389 380
389 382
389 391
389 401
389 409
389 410
389 414
389 418
389 424
389 425
389 441
389 446
390 349
390 358
390 374
390 376
390 388
390 393
390 407
390 412
390 420
390 430
390 433
390 434
391 356
391 364
391 365
391 378
391 380
391 385
391 389
391 409
391 410
391 414
391 417
391 424
391 441
391 445
392 371
392 372
392 373
392 375
392 394
392 402
392 405
392 411
392 421
392 429
392 432
393 351
393 353
393 369
393 370
393 374
393 390
393 395
393 412
393 413
393 420
393 434
393 437
393 438
394 371
394 372
394 373
394 375
394 392
394 398
394 405
394 411
394 421
394 428
394 432
394 449
395 350
395 351
395 368
395 369
395 370
395 393
395 396
395 397
395 412
395 413
395 436
395 437
395 438
396 367
396 368
396 369
396 395
396 397
396 398
396 413
396 435
396 436
396 438
397 367
397 368
397 375
397 395
397 396
397 398
397 411
397 413
397 428
397 435
397 436
397 443
398 367
398 368
398 372
398 375
398 394
398 396
398 397
398 411
398 428
398 432
398 435
398 436
398 443
399 360
399 361
399 363
399 379
399 383
399 386
399 387
399 404
399 406
399 408
399 415
399 422
399 423
399 439
399 448
400 354
400 355
400 377
400 381
400 387
400 406
400 416
400 422
400 444
401 357
401 362
401 382
401 384
401 389
401 403
401 410
401 418
401 419
401 425
401 426
401 431
401 440
401 446
402 359
402 371
402 373
402 386
402 392
402 404
402 405
402 408
402 421
402 423
402 427
402 429
402 447
403 362
403 366
403 376
403 382
403 384
403 388
403 401
403 407
403 418
403 419
403 426
403 430
403 431
403 440
404 359
404 361
404 363
404 379
404 386
404 399
404 402
404 408
404 415
404 423
404 427
404 439
405 371
405 373
405 386
405 392
405 394
405 402
405 408
405 421
405 427
405 429
405 432
405 447
406 355
406 360
406 381
406 383
406 387
406 399
406 400
406 415
406 416
406 422
406 444
406 451
407 358
407 376
407 388
407 390
407 403
407 412
407 420
407 426
407 430
407 431
407 433
407 450
408 359
408 379
408 386
408 399
408 402
408 404
408 405
408 423
408 427
408 429
408 439
408 447
409 364
409 378
409 380
409 385
409 389
409 391
409 410
409 414
409 417
409 424
409 441
409 442
409 445
409 455
409 457
410 357
410 365
410 380
410 382
410 384
410 389
410 391
410 401
410 409
410 414
410 418
410 419
410 424
410 425
410 440
410 441
410 446
410 455
411 372
411 375
411 392
411 394
411 397
411 398
411 421
411 428
411 432
411 435
411 443
411 449
412 370
412 374
412 390
412 393
412 395
412 407
412 420
412 433
412 434
412 437
412 438
412 454
413 368
413 369
413 393
413 395
413 396
413 397
413 435
413 436
413 437
413 438
413 456
414 364
414 365
414 380
414 382
414 385
414 389
414 391
414 409
414 410
414 417
414 418
414 424
414 425
414 441
414 442
414 445
414 446
414 455
414 460
415 379
415 383
415 387
415 399
415 404
415 406
415 422
415 439
415 448
415 451
415 463
416 377
416 381
416 387
416 400
416 406
416 422
416 444
416 453
416 458
417 378
417 380
417 385
417 391
417 409
417 414
417 424
417 442
417 445
417 452
417 457
418 382
418 384
418 389
418 401
418 403
418 410
418 414
418 419
418 425
418 426
418 431
418 440
418 441
418 446
418 459
418 462
419 382
419 384
419 401
419 403
419 410
419 418
419 425
419 426
419 431
419 440
419 446
419 459
419 461
420 374
420 388
420 390
420 393
420 407
420 412
420 430
420 433
420 434
420 454
421 371
421 392
421 394
421 402
421 405
421 411
421 427
421 429
421 432
421 447
421 449
422 383
422 387
422 399
422 400
422 406
422 415
422 416
422 444
422 448
422 451
422 463
423 379
423 386
423 399
423 402
423 404
423 408
423 427
423 429
423 439
424 380
424 385
424 389
424 391
424 409
424 410
424 414
424 417
424 441
424 442
424 445
424 452
424 455
424 457
425 382
425 389
425 401
425 410
425 414
425 418
425 419
425 431
425 440
425 441
425 445
425 446
425 455
425 459
425 460
425 462
426 384
426 388
426 401
426 403
426 407
426 418
426 419
426 430
426 431
426 433
426 440
426 450
426 461
427 386
427 402
427 404
427 405
427 408
427 421
427 423
427 429
427 439
427 447
428 394
428 397
428 398
428 411
428 432
428 435
428 436
428 443
428 449
429 386
429 392
429 402
429 405
429 408
429 421
429 423
429 427
429 432
429 447
429 449
430 388
430 390
430 403
430 407
430 420
430 426
430 431
430 433
430 434
430 450
431 384
431 401
431 403
431 407
431 418
431 419
431 425
431 426
431 430
431 440
431 446
431 450
431 459
431 461
432 392
432 394
432 398
432 405
432 411
432 421
432 428
432 429
432 443
432 447
432 449
433 388
433 390
433 407
433 412
433 420
433 426
433 430
433 434
433 437
433 450
433 454
434 390
434 393
434 412
434 420
434 430
434 433
434 437
434 438
434 454
434 456
435 396
435 397
435 398
435 411
435 413
435 428
435 436
435 438
435 443
436 395
436 396
436 397
436 398
436 413
436 428
436 435
436 437
436 438
436 443
436 456
437 393
437 395
437 412
437 413
437 433
437 434
437 436
437 438
437 454
437 456
438 393
438 395
438 396
438 412
438 413
438 434
438 435
438 436
438 437
438 454
438 456
439 386
439 399
439 404
439 408
439 415
439 423
439 427
439 448
440 382
440 384
440 401
440 403
440 410
440 418
440 419
440 425
440 426
440 431
440 441
440 446
440 459
440 460
440 461
440 462
441 389
441 391
441 409
441 410
441 414
441 418
441 424
441 425
441 440
441 445
441 446
441 455
441 457
441 459
441 460
441 462
442 385
442 409
442 414
442 417
442 424
442 445
442 452
442 455
442 457
443 397
443 398
443 411
443 428
443 432
443 435
443 436
443 449
444 400
444 406
444 416
444 422
444 451
444 453
444 458
444 463
445 391
445 409
445 414
445 417
445 424
445 425
445 441
445 442
445 446
445 452
445 455
445 457
445 460
446 389
446 401
446 410
446 414
446 418
446 419
446 425
446 431
446 440
446 441
446 445
446 455
446 459
446 460
446 461
446 462
447 402
447 405
447 408
447 421
447 427
447 429
447 432
447 449
448 399
448 415
448 422
448 439
448 451
448 463
449 394
449 411
449 421
449 428
449 429
449 432
449 443
449 447
450 407
450 426
450 430
450 431
450 433
450 461
451 406
451 415
451 422
451 444
451 448
451 458
451 463
452 417
452 424
452 442
452 445
452 457
453 416
453 444
453 458
454 412
454 420
454 433
454 434
454 437
454 438
454 456
455 409
455 410
455 414
455 424
455 425
455 441
455 442
455 445
455 446
455 457
455 459
455 460
455 462
456 413
456 434
456 436
456 437
456 438
456 454
457 409
457 417
457 424
457 441
457 442
457 445
457 452
457 455
457 460
458 416
458 444
458 451
458 453
459 418
459 419
459 425
459 431
459 440
459 441
459 446
459 455
459 460
459 461
459 462
460 414
460 425
460 440
460 441
460 445
460 446
460 455
460 457
460 459
460 462
461 419
461 426
461 431
461 440
461 446
461 450
461 459
461 462
462 418
462 425
462 440
462 441
462 446
462 455
462 459
462 460
462 461
463 415
463 422
463 444
463 448
463 451
