1 5
1 24
1 37
2 3
2 23
2 29
2 41
3 2
3 6
3 29
3 31
4 8
4 10
4 14
4 33
4 35
5 1
5 9
5 22
5 24
5 45
6 3
6 20
6 38
6 46
7 11
7 12
7 19
7 21
7 34
8 4
8 11
8 13
8 35
9 5
9 22
9 26
9 42
10 4
10 14
10 27
10 33
11 7
11 8
11 13
11 21
11 43
11 47
12 7
12 19
12 25
12 34
13 8
13 11
13 43
14 4
14 10
14 27
14 33
14 35
15 16
15 32
15 36
15 50
16 15
16 30
16 32
16 36
17 49
18 23
18 26
18 28
18 44
19 7
19 12
19 21
19 25
19 34
19 54
20 6
20 31
20 38
20 46
21 7
21 11
21 19
21 34
21 43
21 47
21 62
22 5
22 9
22 24
22 26
22 42
22 45
22 61
23 2
23 18
23 28
23 29
23 41
23 44
24 1
24 5
24 22
24 37
24 45
24 63
25 12
25 19
25 34
25 54
25 58
26 9
26 18
26 22
26 28
26 42
26 57
26 61
27 10
27 14
27 33
27 40
27 51
27 70
28 18
28 23
28 26
28 44
28 57
28 60
29 2
29 3
29 23
29 31
29 41
29 56
29 59
30 16
30 32
30 38
30 48
30 66
31 3
31 20
31 29
31 46
31 56
31 59
32 15
32 16
32 30
32 36
32 48
32 50
32 66
32 69
33 4
33 10
33 14
33 27
33 35
33 40
33 51
33 52
33 72
33 74
34 7
34 12
34 19
34 21
34 25
34 54
34 71
34 73
35 4
35 8
35 14
35 33
35 51
35 52
35 53
36 15
36 16
36 32
36 49
36 50
36 69
37 1
37 24
37 39
37 45
37 63
37 67
38 6
38 20
38 30
38 46
38 48
38 64
38 65
39 37
39 40
39 67
39 78
40 27
40 33
40 39
40 70
41 2
41 23
41 29
41 44
41 56
41 68
42 9
42 22
42 26
42 45
42 61
42 63
42 77
43 11
43 13
43 21
43 47
43 53
43 55
43 62
44 18
44 23
44 28
44 41
44 57
44 60
44 68
45 5
45 22
45 24
45 37
45 42
45 61
45 63
45 77
46 6
46 20
46 31
46 38
46 59
46 64
46 65
47 11
47 21
47 43
47 55
47 62
47 73
47 82
48 30
48 32
48 38
48 64
48 66
49 17
49 36
49 50
49 75
50 15
50 32
50 36
50 49
50 69
51 27
51 33
51 35
51 52
51 70
51 72
51 74
51 90
52 33
52 35
52 51
52 53
52 74
52 80
52 86
53 35
53 43
53 52
53 55
53 80
53 86
54 19
54 25
54 34
54 58
54 71
54 73
54 76
54 85
54 94
55 43
55 47
55 53
55 62
55 80
55 82
55 97
56 29
56 31
56 41
56 59
56 68
56 79
56 99
57 26
57 28
57 44
57 60
57 61
57 81
57 84
58 25
58 54
58 71
58 76
58 85
58 94
59 29
59 31
59 46
59 56
59 65
59 79
59 87
59 91
59 99
60 28
60 44
60 57
60 68
60 81
60 84
60 96
61 22
61 26
61 42
61 45
61 57
61 63
61 77
61 81
61 98
62 21
62 43
62 47
62 55
62 73
62 82
62 101
63 24
63 37
63 42
63 45
63 61
63 67
63 77
63 83
63 98
64 38
64 46
64 48
64 65
64 66
64 87
64 89
64 92
65 38
65 46
65 59
65 64
65 87
65 89
65 91
66 30
66 32
66 48
66 64
66 69
66 92
66 93
67 37
67 39
67 63
67 78
67 83
67 102
68 41
68 44
68 56
68 60
68 79
68 84
68 96
68 100
69 32
69 36
69 50
69 66
69 93
69 95
70 27
70 40
70 51
70 72
70 78
70 88
70 90
71 34
71 54
71 58
71 73
71 76
71 85
71 94
72 33
72 51
72 70
72 74
72 88
72 90
72 107
73 34
73 47
73 54
73 62
73 71
73 82
73 85
73 101
73 109
74 33
74 51
74 52
74 72
74 86
74 90
74 103
75 49
75 95
76 54
76 58
76 71
76 85
76 94
76 106
77 42
77 45
77 61
77 63
77 81
77 83
77 98
77 104
77 110
78 39
78 67
78 70
78 88
78 102
78 105
79 56
79 59
79 68
79 91
79 99
79 100
79 116
80 52
80 53
80 55
80 86
80 97
80 103
80 111
81 57
81 60
81 61
81 77
81 84
81 104
81 113
82 47
82 55
82 62
82 73
82 101
82 109
82 117
83 63
83 67
83 77
83 98
83 102
83 110
84 57
84 60
84 68
84 81
84 96
84 104
84 112
84 113
85 54
85 58
85 71
85 73
85 76
85 94
85 106
85 109
85 114
86 52
86 53
86 74
86 80
86 97
86 103
86 111
86 118
87 59
87 64
87 65
87 89
87 91
87 119
87 123
87 125
88 70
88 72
88 78
88 90
88 105
88 107
88 124
89 64
89 65
89 87
89 91
89 92
89 108
89 123
89 125
90 51
90 70
90 72
90 74
90 88
90 107
90 118
90 124
91 59
91 65
91 79
91 87
91 89
91 99
91 119
91 125
92 64
92 66
92 89
92 93
92 108
92 127
93 66
93 69
93 92
93 95
93 108
93 120
94 54
94 58
94 71
94 76
94 85
94 106
94 109
94 114
95 69
95 75
95 93
95 120
95 129
96 60
96 68
96 84
96 100
96 112
96 113
96 115
97 55
97 80
97 86
97 101
97 103
97 111
97 121
97 122
98 61
98 63
98 77
98 83
98 104
98 110
99 56
99 59
99 79
99 91
99 100
99 115
99 116
99 119
100 68
100 79
100 96
100 99
100 112
100 115
100 116
101 62
101 73
101 82
101 97
101 109
101 117
101 121
101 128
102 67
102 78
102 83
102 105
102 110
102 133
102 138
103 74
103 80
103 86
103 97
103 111
103 118
104 77
104 81
104 84
104 98
104 113
104 135
104 137
105 78
105 88
105 102
105 107
105 124
105 136
105 138
106 76
106 85
106 94
106 109
106 114
106 130
106 131
107 72
107 88
107 90
107 105
107 118
107 124
107 139
108 89
108 92
108 93
108 120
108 123
108 127
109 73
109 82
109 85
109 94
109 101
109 106
109 114
109 117
109 128
109 130
110 77
110 83
110 98
110 102
110 133
110 134
110 135
111 80
111 86
111 97
111 103
111 118
111 122
111 143
111 144
112 84
112 96
112 100
112 113
112 115
112 140
112 141
113 81
113 84
113 96
113 104
113 112
113 137
113 140
114 85
114 94
114 106
114 109
114 128
114 130
114 131
114 147
115 96
115 99
115 100
115 112
115 116
115 141
115 142
116 79
116 99
116 100
116 115
116 119
116 142
117 82
117 101
117 109
117 121
117 128
117 148
117 151
118 86
118 90
118 103
118 107
118 111
118 124
118 139
118 144
119 87
119 91
119 99
119 116
119 123
119 125
119 146
120 93
120 95
120 108
120 127
120 129
120 154
120 159
121 97
121 101
121 117
121 122
121 128
121 145
121 148
122 97
122 111
122 121
122 143
122 145
122 148
123 87
123 89
123 108
123 119
123 125
123 127
123 149
123 150
124 88
124 90
124 105
124 107
124 118
124 136
124 139
124 158
125 87
125 89
125 91
125 119
125 123
125 146
125 149
126 129
126 132
126 161
127 92
127 108
127 120
127 123
127 149
127 150
127 154
128 101
128 109
128 114
128 117
128 121
128 130
128 148
128 151
129 95
129 120
129 126
129 132
129 156
129 159
130 106
130 109
130 114
130 128
130 131
130 147
130 165
130 166
131 106
131 114
131 130
131 147
131 166
131 168
132 126
132 129
132 156
132 159
132 161
133 102
133 110
133 134
133 138
133 152
133 155
133 171
134 110
134 133
134 135
134 152
134 153
134 155
134 171
135 104
135 110
135 134
135 137
135 152
135 153
135 157
135 173
136 105
136 124
136 138
136 139
136 158
136 164
137 104
137 113
137 135
137 140
137 153
137 157
137 173
138 102
138 105
138 133
138 136
138 152
138 155
138 164
139 107
139 118
139 124
139 136
139 144
139 158
139 167
140 112
140 113
140 137
140 141
140 157
140 170
141 112
141 115
141 140
141 142
141 157
141 160
141 170
142 115
142 116
142 141
142 146
142 160
142 163
143 111
143 122
143 144
143 145
143 162
143 169
143 180
144 111
144 118
144 139
144 143
144 167
144 169
145 121
145 122
145 143
145 148
145 162
145 172
145 180
146 119
146 125
146 142
146 149
146 163
146 178
147 114
147 130
147 131
147 165
147 166
147 168
147 181
148 117
148 121
148 122
148 128
148 145
148 151
148 162
148 172
148 174
149 123
149 125
149 127
149 146
149 150
149 178
149 179
149 182
150 123
150 127
150 149
150 154
150 176
150 179
150 182
151 117
151 128
151 148
151 165
151 172
151 174
151 185
152 133
152 134
152 135
152 138
152 153
152 155
152 171
152 184
153 134
153 135
153 137
153 152
153 157
153 171
153 173
153 184
154 120
154 127
154 150
154 159
154 176
154 182
154 188
155 133
155 134
155 138
155 152
155 164
155 171
155 183
156 129
156 132
156 159
156 161
156 175
156 177
157 135
157 137
157 140
157 141
157 153
157 170
157 173
157 190
158 124
158 136
158 139
158 164
158 167
158 189
159 120
159 129
159 132
159 154
159 156
159 175
159 176
159 188
160 141
160 142
160 163
160 187
160 194
161 126
161 132
161 156
161 177
162 143
162 145
162 148
162 169
162 172
162 180
162 193
162 197
163 142
163 146
163 160
163 178
163 187
164 136
164 138
164 155
164 158
164 186
164 189
165 130
165 147
165 151
165 166
165 168
165 174
165 181
165 185
165 199
166 130
166 131
166 147
166 165
166 168
166 181
166 195
167 139
167 144
167 158
167 169
167 189
167 192
168 131
168 147
168 165
168 166
168 181
168 195
169 143
169 144
169 162
169 167
169 191
169 192
170 140
170 141
170 157
170 190
171 133
171 134
171 152
171 153
171 155
171 183
171 184
171 200
172 145
172 148
172 151
172 162
172 174
172 180
172 197
172 202
173 135
173 137
173 153
173 157
173 184
173 198
173 201
174 148
174 151
174 165
174 172
174 185
174 202
175 156
175 159
175 188
175 196
176 150
176 154
176 159
176 182
176 188
177 156
177 161
177 196
177 208
178 146
178 149
178 163
178 179
178 187
178 204
178 207
178 214
179 149
179 150
179 178
179 182
179 205
179 207
179 214
180 143
180 145
180 162
180 172
180 191
180 193
180 197
181 147
181 165
181 166
181 168
181 185
181 195
181 199
181 217
182 149
182 150
182 154
182 176
182 179
182 188
182 205
182 207
182 216
183 155
183 171
183 186
183 200
183 213
184 152
184 153
184 171
184 173
184 198
184 200
184 201
184 223
185 151
185 165
185 174
185 181
185 199
185 202
185 219
185 221
186 164
186 183
186 189
186 206
186 213
186 224
187 160
187 163
187 178
187 194
187 203
187 204
187 222
188 154
188 159
188 175
188 176
188 182
188 215
188 216
189 158
189 164
189 167
189 186
189 192
189 206
189 210
189 212
189 224
190 157
190 170
190 198
190 209
190 211
191 169
191 180
191 192
191 193
191 197
191 212
191 218
192 167
192 169
192 189
192 191
192 210
192 212
193 162
193 180
193 191
193 197
193 218
194 160
194 187
194 203
194 211
194 226
195 166
195 168
195 181
195 199
195 217
195 219
196 175
196 177
196 208
196 215
196 225
197 162
197 172
197 180
197 191
197 193
197 202
197 218
198 173
198 184
198 190
198 201
198 209
198 223
198 234
199 165
199 181
199 185
199 195
199 217
199 219
199 221
199 238
200 171
200 183
200 184
200 201
200 213
200 223
200 242
201 173
201 184
201 198
201 200
201 223
202 172
202 174
202 185
202 197
202 220
202 221
202 239
203 187
203 194
203 204
203 211
203 222
203 226
203 227
204 178
204 187
204 203
204 214
204 222
204 227
204 230
205 179
205 182
205 207
205 214
205 216
205 228
205 230
205 231
206 186
206 189
206 210
206 213
206 224
206 237
206 241
207 178
207 179
207 182
207 205
207 214
207 222
207 228
207 230
208 177
208 196
208 225
209 190
209 198
209 211
209 234
210 189
210 192
210 206
210 212
210 224
210 237
211 190
211 194
211 203
211 209
211 226
211 236
212 189
212 191
212 192
212 210
212 218
212 235
213 183
213 186
213 200
213 206
213 241
213 242
214 178
214 179
214 204
214 205
214 207
214 222
214 228
214 230
215 188
215 196
215 216
215 225
215 229
216 182
216 188
216 205
216 215
216 228
216 229
216 231
217 181
217 195
217 199
217 219
217 232
217 233
217 238
218 191
218 193
218 197
218 212
218 235
218 240
219 185
219 195
219 199
219 217
219 221
219 233
219 238
219 243
220 202
220 221
220 239
220 243
221 185
221 199
221 202
221 219
221 220
221 238
221 243
222 187
222 203
222 204
222 207
222 214
222 227
222 230
223 184
223 198
223 200
223 201
223 234
223 242
224 186
224 189
224 206
224 210
224 237
224 241
225 196
225 208
225 215
225 229
226 194
226 203
226 211
226 227
226 236
227 203
227 204
227 222
227 226
228 205
228 207
228 214
228 216
228 230
228 231
228 253
229 215
229 216
229 225
229 231
230 204
230 205
230 207
230 214
230 222
230 228
230 256
231 205
231 216
231 228
231 229
231 253
232 217
232 233
232 254
233 217
233 219
233 232
233 238
233 245
233 254
234 198
234 209
234 223
234 257
235 212
235 218
235 240
235 247
235 260
236 211
236 226
236 258
237 206
237 210
237 224
237 241
237 248
237 251
237 252
238 199
238 217
238 219
238 221
238 233
238 243
238 245
238 246
238 266
239 202
239 220
239 243
239 244
239 259
239 265
240 218
240 235
240 244
240 247
240 260
240 263
241 206
241 213
241 224
241 237
241 242
241 248
241 250
242 200
242 213
242 223
242 241
242 249
242 250
243 219
243 220
243 221
243 238
243 239
243 245
243 246
243 259
243 266
244 239
244 240
244 260
244 263
244 265
244 278
245 233
245 238
245 243
245 246
245 254
245 266
245 274
245 276
245 277
246 238
246 243
246 245
246 259
246 266
246 274
246 277
247 235
247 240
247 251
247 260
247 268
247 280
248 237
248 241
248 250
248 252
248 281
249 242
249 250
249 262
249 271
249 286
249 287
250 241
250 242
250 248
250 249
250 271
250 286
251 237
251 247
251 252
251 268
251 289
252 237
252 248
252 251
252 268
252 281
253 228
253 231
253 256
253 272
253 275
253 282
254 232
254 233
254 245
254 274
254 276
255 258
255 261
255 273
255 285
255 293
256 230
256 253
256 261
256 272
256 282
256 285
257 234
257 262
257 270
257 284
258 236
258 255
258 270
258 273
258 288
258 295
259 239
259 243
259 246
259 265
259 266
259 277
259 279
260 235
260 240
260 244
260 247
260 263
260 268
260 280
260 291
261 255
261 256
261 273
261 282
261 285
262 249
262 257
262 284
262 287
263 240
263 244
263 260
263 265
263 278
263 279
264 267
264 269
264 290
264 292
265 239
265 244
265 259
265 263
265 278
265 279
266 238
266 243
266 245
266 246
266 259
266 274
266 276
266 277
266 298
267 264
267 283
267 290
268 247
268 251
268 252
268 260
268 280
268 289
268 309
269 264
269 275
269 290
269 292
269 296
270 257
270 258
270 284
270 288
270 307
271 249
271 250
271 286
271 287
271 305
272 253
272 256
272 275
272 282
272 296
272 297
273 255
273 258
273 261
273 285
273 293
273 295
274 245
274 246
274 254
274 266
274 276
274 277
274 298
274 299
274 300
275 253
275 269
275 272
275 292
275 296
275 297
276 245
276 254
276 266
276 274
276 299
276 300
277 245
277 246
277 259
277 266
277 274
277 279
277 298
277 300
277 303
278 244
278 263
278 265
278 279
278 291
278 304
278 306
278 308
279 259
279 263
279 265
279 277
279 278
279 303
279 304
279 306
280 247
280 260
280 268
280 289
280 291
280 309
281 248
281 252
281 289
281 294
281 311
281 312
282 253
282 256
282 261
282 272
282 285
282 297
282 302
283 267
283 290
283 310
284 257
284 262
284 270
284 287
284 288
284 301
284 307
285 255
285 256
285 261
285 273
285 282
285 293
285 302
286 249
286 250
286 271
286 287
286 305
286 313
287 249
287 262
287 271
287 284
287 286
287 301
287 305
287 313
288 258
288 270
288 284
288 295
288 307
289 251
289 268
289 280
289 281
289 309
289 311
290 264
290 267
290 269
290 283
290 292
290 310
290 314
291 260
291 278
291 280
291 306
291 308
291 309
291 321
291 323
292 264
292 269
292 275
292 290
292 296
292 314
293 255
293 273
293 285
293 295
293 315
294 281
294 305
294 311
294 312
295 258
295 273
295 288
295 293
295 307
295 315
295 326
296 269
296 272
296 275
296 292
296 297
297 272
297 275
297 282
297 296
297 319
298 266
298 274
298 277
298 300
298 303
298 317
298 318
299 274
299 276
299 300
299 316
299 317
300 274
300 276
300 277
300 298
300 299
300 316
300 317
301 284
301 287
301 307
301 313
301 322
302 282
302 285
302 319
302 320
303 277
303 279
303 298
303 304
303 318
303 325
304 278
304 279
304 303
304 306
304 318
304 325
305 271
305 286
305 287
305 294
305 312
305 313
305 329
305 331
306 278
306 279
306 291
306 304
306 308
306 321
306 325
307 270
307 284
307 288
307 295
307 301
307 324
307 326
308 278
308 291
308 306
308 321
308 323
309 268
309 280
309 289
309 291
309 323
309 327
310 283
310 290
310 314
310 330
311 281
311 289
311 294
311 312
311 327
311 328
312 281
312 294
312 305
312 311
312 328
312 331
313 286
313 287
313 301
313 305
313 322
313 329
314 290
314 292
314 310
314 330
314 332
315 293
315 295
315 320
315 326
315 340
315 343
316 299
316 300
316 317
316 335
317 298
317 299
317 300
317 316
317 318
317 335
317 336
318 298
318 303
318 304
318 317
318 325
318 336
318 338
319 297
319 302
319 333
319 334
319 339
320 302
320 315
320 339
320 340
321 291
321 306
321 308
321 323
321 341
321 344
321 345
322 301
322 313
322 329
322 337
322 346
322 348
323 291
323 308
323 309
323 321
323 327
323 345
323 347
324 307
324 326
324 337
324 342
325 303
325 304
325 306
325 318
325 338
325 341
325 344
325 357
326 295
326 307
326 315
326 324
326 342
326 343
327 309
327 311
327 323
327 347
327 349
327 358
328 311
328 312
328 331
328 349
328 351
328 353
329 305
329 313
329 322
329 331
329 346
329 348
329 350
329 351
330 310
330 314
330 352
330 354
330 355
331 305
331 312
331 328
331 329
331 350
331 351
331 353
332 314
332 333
332 355
332 360
333 319
333 332
333 334
333 360
333 361
334 319
334 333
334 339
334 361
334 363
335 316
335 317
335 336
335 356
336 317
336 318
336 335
336 338
336 364
336 365
337 322
337 324
337 342
337 346
337 367
337 375
338 318
338 325
338 336
338 341
338 357
338 364
338 365
339 319
339 320
339 334
339 340
339 359
339 363
340 315
340 320
340 339
340 343
340 359
341 321
341 325
341 338
341 344
341 357
341 362
342 324
342 326
342 337
342 343
342 371
342 372
342 375
343 315
343 326
343 340
343 342
343 371
343 373
344 321
344 325
344 341
344 345
344 362
344 366
345 321
345 323
345 344
345 347
345 358
345 366
346 322
346 329
346 337
346 348
346 367
346 368
347 323
347 327
347 345
347 349
347 358
347 376
348 322
348 329
348 346
348 350
348 351
348 367
348 368
348 369
349 327
349 328
349 347
349 353
349 358
349 374
349 376
350 329
350 331
350 348
350 351
350 368
350 369
350 370
351 328
351 329
351 331
351 348
351 350
351 353
351 369
351 370
352 330
352 354
352 377
353 328
353 331
353 349
353 351
353 370
353 374
354 330
354 352
354 355
354 377
354 381
355 330
355 332
355 354
355 360
355 381
356 335
356 364
356 378
356 385
357 325
357 338
357 341
357 362
357 365
357 380
357 382
357 389
358 327
358 345
358 347
358 349
358 366
358 376
358 388
359 339
359 340
359 363
359 379
359 386
360 332
360 333
360 355
360 361
360 383
360 387
361 333
361 334
361 360
361 363
361 379
361 383
362 341
362 344
362 357
362 366
362 382
362 384
362 401
363 334
363 339
363 359
363 361
363 379
364 336
364 338
364 356
364 365
364 378
364 380
364 391
365 336
365 338
365 357
365 364
365 380
365 389
365 391
366 344
366 345
366 358
366 362
366 376
366 384
366 403
367 337
367 346
367 348
367 368
367 375
367 397
367 398
368 346
368 348
368 350
368 367
368 369
368 396
368 397
369 348
369 350
369 351
369 368
369 370
369 395
369 396
370 350
370 351
370 353
370 369
370 374
370 393
370 395
371 342
371 343
371 372
371 373
371 392
371 394
372 342
372 371
372 375
372 392
372 394
373 343
373 371
373 392
373 402
373 405
374 349
374 353
374 370
374 390
374 393
375 337
375 342
375 367
375 372
375 394
375 398
375 411
376 347
376 349
376 358
376 366
376 388
376 390
376 407
377 352
377 354
377 381
377 400
378 356
378 364
378 385
379 359
379 361
379 363
379 386
379 399
379 404
380 357
380 364
380 365
380 385
380 389
380 391
380 409
380 410
380 414
381 354
381 355
381 377
381 387
381 400
381 406
381 416
382 357
382 362
382 384
382 389
382 401
382 410
382 418
382 419
382 425
383 360
383 361
383 387
383 399
383 406
383 415
383 422
384 362
384 366
384 382
384 401
384 403
384 418
384 419
385 356
385 378
385 380
385 391
385 409
385 417
385 424
386 359
386 379
386 402
386 404
386 408
386 423
386 427
387 360
387 381
387 383
387 406
387 415
387 422
388 358
388 376
388 390
388 403
388 407
388 420
388 430
389 357
389 365
389 380
389 382
389 391
389 401
389 410
389 414
389 425
390 374
390 376
390 388
390 407
390 412
390 420
390 433
391 364
391 365
391 380
391 385
391 389
391 409
391 414
391 417
391 424
392 371
392 372
392 373
392 394
392 402
392 405
392 421
393 370
393 374
393 395
393 412
393 437
394 371
394 372
394 375
394 392
394 398
394 411
394 421
394 432
395 369
395 370
395 393
395 396
395 413
395 438
396 368
396 369
396 395
396 397
396 413
396 436
397 367
397 368
397 396
397 398
397 411
397 413
397 428
397 435
398 367
398 375
398 394
398 397
398 411
398 428
399 379
399 383
399 404
399 415
400 377
400 381
400 406
400 416
401 362
401 382
401 384
401 389
401 403
401 410
401 418
401 419
401 425
401 440
402 373
402 386
402 392
402 405
402 408
402 427
402 429
403 366
403 384
403 388
403 401
403 407
403 418
403 419
403 426
403 431
404 379
404 386
404 399
404 408
404 423
404 439
405 373
405 392
405 402
405 421
405 429
406 381
406 383
406 387
406 400
406 415
406 416
406 422
407 376
407 388
407 390
407 403
407 420
407 426
407 430
407 433
408 386
408 402
408 404
408 423
408 427
408 429
408 439
409 380
409 385
409 391
409 414
409 417
409 424
409 442
409 445
410 380
410 382
410 389
410 401
410 414
410 418
410 425
410 441
410 446
411 375
411 394
411 397
411 398
411 428
411 432
411 435
411 443
412 390
412 393
412 420
412 433
412 434
412 437
413 395
413 396
413 397
413 436
413 438
414 380
414 389
414 391
414 409
414 410
414 424
414 425
414 441
414 445
415 383
415 387
415 399
415 406
415 422
415 448
416 381
416 400
416 406
416 444
417 385
417 391
417 409
417 424
417 442
418 382
418 384
418 401
418 403
418 410
418 419
418 425
418 431
418 440
418 446
419 382
419 384
419 401
419 403
419 418
419 425
419 426
419 431
419 440
420 388
420 390
420 407
420 412
420 430
420 433
420 434
421 392
421 394
421 405
421 429
421 432
421 447
421 449
422 383
422 387
422 406
422 415
422 444
422 448
422 451
423 386
423 404
423 408
423 427
423 439
424 385
424 391
424 409
424 414
424 417
424 441
424 442
424 445
424 455
424 457
425 382
425 389
425 401
425 410
425 414
425 418
425 419
425 440
425 441
425 446
425 459
425 462
426 403
426 407
426 419
426 430
426 431
426 450
427 386
427 402
427 408
427 423
427 429
427 439
427 447
428 397
428 398
428 411
428 432
428 435
428 443
429 402
429 405
429 408
429 421
429 427
429 447
430 388
430 407
430 420
430 426
430 433
430 450
431 403
431 418
431 419
431 426
431 440
431 450
431 461
432 394
432 411
432 421
432 428
432 443
432 449
433 390
433 407
433 412
433 420
433 430
433 434
433 454
434 412
434 420
434 433
434 437
434 454
435 397
435 411
435 428
435 436
435 443
436 396
436 413
436 435
436 438
437 393
437 412
437 434
437 438
437 454
437 456
438 395
438 413
438 436
438 437
438 456
439 404
439 408
439 423
439 427
440 401
440 418
440 419
440 425
440 431
440 446
440 459
440 461
440 462
441 410
441 414
441 424
441 425
441 445
441 446
441 455
441 460
441 462
442 409
442 417
442 424
442 445
442 452
442 457
443 411
443 428
443 432
443 435
443 449
444 416
444 422
444 451
444 458
445 409
445 414
445 424
445 441
445 442
445 452
445 455
445 457
445 460
446 410
446 418
446 425
446 440
446 441
446 455
446 459
446 460
446 462
447 421
447 427
447 429
447 449
448 415
448 422
448 451
448 463
449 421
449 432
449 443
449 447
450 426
450 430
450 431
450 461
451 422
451 444
451 448
451 463
452 442
452 445
452 457
453 458
454 433
454 434
454 437
454 456
455 424
455 441
455 445
455 446
455 457
455 460
455 462
456 437
456 438
456 454
457 424
457 442
457 445
457 452
457 455
458 444
458 453
459 425
459 440
459 446
459 460
459 461
459 462
460 441
460 445
460 446
460 455
460 459
460 462
461 431
461 440
461 450
461 459
462 425
462 440
462 441
462 446
462 455
462 459
462 460
463 448
463 451
