1 6
1 18
1 19
1 24
2 7
2 15
2 23
2 28
3 4
3 16
3 22
3 38
4 3
4 16
4 17
4 19
4 32
5 14
5 21
5 35
6 1
6 12
6 18
6 33
7 2
7 11
7 15
7 23
7 28
7 42
7 45
8 25
8 26
8 30
8 34
8 44
9 10
9 27
9 31
9 40
10 9
10 27
10 46
11 7
11 23
11 42
11 47
12 6
12 18
12 21
12 33
12 39
12 55
13 22
13 25
13 30
13 36
13 50
14 5
14 20
14 21
14 29
14 35
14 41
14 57
15 2
15 7
15 20
15 28
15 29
15 41
15 45
15 49
15 59
16 3
16 4
16 17
16 22
16 32
16 38
16 53
16 56
17 4
17 16
17 19
17 32
17 43
17 51
17 53
18 1
18 6
18 12
18 24
18 33
18 37
18 48
18 55
18 61
19 1
19 4
19 17
19 24
19 32
19 37
19 43
19 51
20 14
20 15
20 28
20 29
20 41
20 49
21 5
21 12
21 14
21 33
21 35
21 39
21 54
21 58
22 3
22 13
22 16
22 25
22 36
22 38
22 50
22 56
22 65
23 2
23 7
23 11
23 28
23 42
23 45
23 47
23 62
24 1
24 18
24 19
24 37
24 43
24 48
24 51
24 61
25 8
25 13
25 22
25 30
25 36
25 50
25 52
26 8
26 30
26 31
26 34
26 40
26 44
26 63
26 64
27 9
27 10
27 31
27 40
27 60
28 2
28 7
28 15
28 20
28 23
28 42
28 45
28 49
28 59
28 67
29 14
29 15
29 20
29 35
29 41
29 57
30 8
30 13
30 25
30 26
30 34
30 36
30 44
30 52
30 63
31 9
31 26
31 27
31 34
31 40
31 44
32 4
32 16
32 17
32 19
32 38
32 43
32 51
32 53
32 68
33 6
33 12
33 18
33 21
33 39
33 48
33 54
33 55
33 66
33 72
34 8
34 26
34 30
34 31
34 44
34 52
34 63
34 64
35 5
35 14
35 21
35 29
35 39
35 54
35 57
35 58
36 13
36 22
36 25
36 30
36 50
36 52
36 69
37 18
37 19
37 24
37 43
37 48
37 51
37 61
37 68
37 80
38 3
38 16
38 22
38 32
38 50
38 53
38 56
38 65
38 73
38 74
39 12
39 21
39 33
39 35
39 54
39 55
39 58
39 66
40 9
40 26
40 27
40 31
40 44
40 64
40 77
41 14
41 15
41 20
41 29
41 49
41 57
41 59
41 71
41 75
42 7
42 11
42 23
42 28
42 45
42 47
42 49
42 62
42 67
43 17
43 19
43 24
43 32
43 37
43 51
43 53
43 68
44 8
44 26
44 30
44 31
44 34
44 40
44 52
44 63
44 64
45 7
45 15
45 23
45 28
45 42
45 47
45 49
45 59
45 62
45 67
45 82
46 10
46 60
46 70
46 78
47 11
47 23
47 42
47 45
47 62
48 18
48 24
48 33
48 37
48 51
48 55
48 61
48 72
48 83
49 15
49 20
49 28
49 41
49 42
49 45
49 59
49 67
49 75
49 82
49 93
50 13
50 22
50 25
50 36
50 38
50 56
50 65
50 69
50 73
50 79
50 85
51 17
51 19
51 24
51 32
51 37
51 43
51 48
51 53
51 61
51 68
51 80
52 25
52 30
52 34
52 36
52 44
52 63
52 64
52 69
52 86
52 89
53 16
53 17
53 32
53 38
53 43
53 51
53 56
53 68
53 73
53 74
53 87
54 21
54 33
54 35
54 39
54 55
54 58
54 66
54 81
54 84
55 12
55 18
55 33
55 39
55 48
55 54
55 61
55 66
55 72
55 81
55 83
56 16
56 22
56 38
56 50
56 53
56 65
56 73
56 74
56 79
56 85
57 14
57 29
57 35
57 41
57 58
57 71
57 76
57 94
57 95
58 21
58 35
58 39
58 54
58 57
58 66
58 71
58 76
58 84
58 95
59 15
59 28
59 41
59 45
59 49
59 67
59 71
59 75
59 82
59 93
60 27
60 46
60 70
60 77
60 78
60 90
60 92
61 18
61 24
61 37
61 48
61 51
61 55
61 72
61 80
61 83
61 97
62 23
62 42
62 45
62 47
62 82
62 88
62 99
63 26
63 30
63 34
63 44
63 52
63 64
63 69
63 86
64 26
64 34
64 40
64 44
64 52
64 63
64 86
64 91
64 101
65 22
65 38
65 50
65 56
65 73
65 74
65 79
65 85
65 100
65 104
66 33
66 39
66 54
66 55
66 58
66 72
66 81
66 83
66 84
67 28
67 42
67 45
67 49
67 59
67 75
67 82
67 93
67 102
68 32
68 37
68 43
68 51
68 53
68 74
68 80
68 87
68 96
68 98
69 36
69 50
69 52
69 63
69 79
69 86
69 89
69 103
69 104
70 46
70 60
70 78
70 90
70 92
71 41
71 57
71 58
71 59
71 75
71 76
71 94
71 95
71 102
72 33
72 48
72 55
72 61
72 66
72 81
72 83
72 97
73 38
73 50
73 53
73 56
73 65
73 74
73 79
73 85
73 87
73 100
73 108
74 38
74 53
74 56
74 65
74 68
74 73
74 85
74 87
74 96
74 108
75 41
75 49
75 59
75 67
75 71
75 82
75 93
75 94
75 102
75 114
76 57
76 58
76 71
76 84
76 94
76 95
76 110
77 40
77 60
77 90
77 91
77 101
77 105
77 107
77 112
77 117
78 46
78 60
78 70
78 92
78 107
79 50
79 56
79 65
79 69
79 73
79 85
79 89
79 100
79 104
80 37
80 51
80 61
80 68
80 96
80 97
80 98
80 106
80 115
81 54
81 55
81 66
81 72
81 83
81 84
81 109
81 116
81 120
82 45
82 49
82 59
82 62
82 67
82 75
82 88
82 93
82 99
82 113
82 114
83 48
83 55
83 61
83 66
83 72
83 81
83 97
83 116
83 118
84 54
84 58
84 66
84 76
84 81
84 95
84 109
84 110
84 120
85 50
85 56
85 65
85 73
85 74
85 79
85 100
85 104
85 108
85 121
86 52
86 63
86 64
86 69
86 89
86 103
86 122
86 125
87 53
87 68
87 73
87 74
87 96
87 98
87 108
87 119
88 62
88 82
88 93
88 99
88 111
88 113
88 126
89 52
89 69
89 79
89 86
89 100
89 103
89 104
90 60
90 70
90 77
90 91
90 92
90 105
90 107
90 112
90 117
91 64
91 77
91 90
91 101
91 105
91 112
91 117
91 127
92 60
92 70
92 78
92 90
92 107
92 129
92 130
93 49
93 59
93 67
93 75
93 82
93 88
93 99
93 102
93 113
93 114
93 132
94 57
94 71
94 75
94 76
94 95
94 102
94 110
94 123
94 136
95 57
95 58
95 71
95 76
95 84
95 94
95 109
95 110
95 123
95 131
96 68
96 74
96 80
96 87
96 98
96 106
96 108
96 115
96 119
96 138
97 61
97 72
97 80
97 83
97 98
97 106
97 115
97 116
97 118
97 124
97 133
97 139
98 68
98 80
98 87
98 96
98 97
98 106
98 115
98 124
98 140
99 62
99 82
99 88
99 93
99 111
99 113
99 126
100 65
100 73
100 79
100 85
100 89
100 103
100 104
100 108
100 121
101 64
101 77
101 91
101 105
101 112
101 122
101 127
101 134
102 67
102 71
102 75
102 93
102 94
102 114
102 123
102 132
102 136
103 69
103 86
103 89
103 100
103 104
103 122
103 125
104 65
104 69
104 79
104 85
104 89
104 100
104 103
104 121
105 77
105 90
105 91
105 101
105 112
105 117
105 127
105 135
106 80
106 96
106 97
106 98
106 115
106 118
106 124
106 140
107 77
107 78
107 90
107 92
107 112
107 117
107 129
107 130
107 141
107 145
108 73
108 74
108 85
108 87
108 96
108 100
108 119
108 121
108 128
109 81
109 84
109 95
109 110
109 116
109 120
109 131
109 142
110 76
110 84
110 94
110 95
110 109
110 120
110 123
110 131
110 150
111 88
111 99
111 113
111 126
111 146
112 77
112 90
112 91
112 101
112 105
112 107
112 117
112 127
112 135
112 141
113 82
113 88
113 93
113 99
113 111
113 114
113 126
113 132
113 137
114 75
114 82
114 93
114 102
114 113
114 132
114 136
114 137
114 144
114 152
115 80
115 96
115 97
115 98
115 106
115 118
115 124
115 138
115 140
116 81
116 83
116 97
116 109
116 118
116 120
116 133
116 139
116 148
117 77
117 90
117 91
117 105
117 107
117 112
117 127
117 129
117 135
117 141
117 145
117 154
117 160
118 83
118 97
118 106
118 115
118 116
118 124
118 133
118 139
118 148
118 158
119 87
119 96
119 108
119 121
119 128
119 138
119 143
119 157
120 81
120 84
120 109
120 110
120 116
120 131
120 133
120 142
120 148
120 150
121 85
121 100
121 104
121 108
121 119
121 128
122 86
122 101
122 103
122 125
122 127
122 134
122 147
122 151
122 153
122 161
123 94
123 95
123 102
123 110
123 131
123 136
123 144
123 150
123 159
124 97
124 98
124 106
124 115
124 118
124 133
124 139
124 140
124 158
124 164
125 86
125 103
125 122
125 134
125 147
125 149
125 153
125 162
126 88
126 99
126 111
126 113
126 137
126 146
126 156
126 165
127 91
127 101
127 105
127 112
127 117
127 122
127 134
127 135
127 151
127 154
127 161
127 168
128 108
128 119
128 121
128 138
128 143
129 92
129 107
129 117
129 130
129 141
129 145
129 160
129 167
130 92
130 107
130 129
130 145
130 167
131 95
131 109
131 110
131 120
131 123
131 136
131 142
131 144
131 150
131 159
132 93
132 102
132 113
132 114
132 136
132 137
132 144
132 152
132 163
133 97
133 116
133 118
133 120
133 124
133 139
133 148
133 158
133 169
134 101
134 122
134 125
134 127
134 135
134 147
134 151
134 153
134 161
134 168
135 105
135 112
135 117
135 127
135 134
135 141
135 151
135 154
135 160
135 168
136 94
136 102
136 114
136 123
136 131
136 132
136 144
136 159
136 163
136 172
137 113
137 114
137 126
137 132
137 152
137 156
137 173
138 96
138 115
138 119
138 128
138 140
138 143
138 157
138 171
138 181
139 97
139 116
139 118
139 124
139 133
139 148
139 158
139 169
139 178
140 98
140 106
140 115
140 124
140 138
140 143
140 157
140 158
140 164
140 171
140 181
141 107
141 112
141 117
141 129
141 135
141 145
141 154
141 160
141 175
142 109
142 120
142 131
142 148
142 150
142 159
142 166
142 180
142 182
143 119
143 128
143 138
143 140
143 157
143 171
143 181
144 114
144 123
144 131
144 132
144 136
144 152
144 159
144 163
144 172
144 177
145 107
145 117
145 129
145 130
145 141
145 154
145 160
145 167
145 175
145 189
146 111
146 126
146 156
146 165
146 173
146 179
146 186
146 187
147 122
147 125
147 134
147 149
147 153
147 155
147 161
147 162
147 170
147 176
148 116
148 118
148 120
148 133
148 139
148 142
148 166
148 169
148 182
148 192
149 125
149 147
149 153
149 155
149 162
149 170
149 176
150 110
150 120
150 123
150 131
150 142
150 159
150 166
150 172
150 180
150 191
151 122
151 127
151 134
151 135
151 153
151 154
151 161
151 168
151 184
151 185
152 114
152 132
152 137
152 144
152 156
152 163
152 173
152 177
152 194
153 122
153 125
153 134
153 147
153 149
153 151
153 161
153 162
153 170
153 176
153 184
154 117
154 127
154 135
154 141
154 145
154 151
154 160
154 168
154 175
154 185
155 147
155 149
155 162
155 170
155 174
155 183
155 196
156 126
156 137
156 146
156 152
156 165
156 173
156 177
156 179
156 186
156 198
157 119
157 138
157 140
157 143
157 164
157 171
157 181
157 193
158 118
158 124
158 133
158 139
158 140
158 164
158 169
158 178
158 188
158 195
159 123
159 131
159 136
159 142
159 144
159 150
159 163
159 166
159 172
159 180
159 191
160 117
160 129
160 135
160 141
160 145
160 154
160 167
160 168
160 175
160 185
160 189
160 200
161 122
161 127
161 134
161 147
161 151
161 153
161 162
161 168
161 176
161 184
161 185
161 203
162 125
162 147
162 149
162 153
162 155
162 161
162 170
162 176
162 184
162 197
162 202
163 132
163 136
163 144
163 152
163 159
163 172
163 177
163 194
163 206
164 124
164 140
164 157
164 158
164 171
164 178
164 181
164 193
164 195
165 126
165 146
165 156
165 173
165 179
165 186
165 187
165 204
166 142
166 148
166 150
166 159
166 169
166 180
166 182
166 192
166 201
167 129
167 130
167 145
167 160
167 175
167 189
168 127
168 134
168 135
168 151
168 154
168 160
168 161
168 184
168 185
168 203
168 207
168 212
169 133
169 139
169 148
169 158
169 166
169 178
169 182
169 188
169 192
169 199
169 208
170 147
170 149
170 153
170 155
170 162
170 176
170 183
170 196
170 197
170 202
170 205
171 138
171 140
171 143
171 157
171 164
171 174
171 181
171 190
171 193
171 210
172 136
172 144
172 150
172 159
172 163
172 177
172 191
172 194
172 206
172 214
173 137
173 146
173 152
173 156
173 165
173 177
173 179
173 186
173 187
173 198
173 204
173 209
174 155
174 171
174 183
174 190
174 196
174 213
175 141
175 145
175 154
175 160
175 167
175 189
175 200
176 147
176 149
176 153
176 161
176 162
176 170
176 184
176 197
176 202
176 203
176 216
177 144
177 152
177 156
177 163
177 172
177 173
177 194
177 198
177 206
177 209
178 139
178 158
178 164
178 169
178 188
178 193
178 195
178 199
178 208
179 146
179 156
179 165
179 173
179 186
179 187
179 204
180 142
180 150
180 159
180 166
180 182
180 191
180 192
180 201
180 211
180 222
181 138
181 140
181 143
181 157
181 164
181 171
181 190
181 193
181 210
181 217
182 142
182 148
182 166
182 169
182 180
182 188
182 192
182 199
182 201
182 215
183 155
183 170
183 174
183 190
183 196
183 205
183 213
183 218
184 151
184 153
184 161
184 162
184 168
184 176
184 185
184 202
184 203
184 207
184 216
185 151
185 154
185 160
185 161
185 168
185 184
185 200
185 203
185 207
185 212
185 225
186 146
186 156
186 165
186 173
186 179
186 187
186 198
186 204
186 209
186 220
187 146
187 165
187 173
187 179
187 186
187 204
187 220
187 226
188 158
188 169
188 178
188 182
188 192
188 195
188 199
188 208
188 215
188 221
189 145
189 160
189 167
189 175
189 200
189 224
189 230
190 171
190 174
190 181
190 183
190 210
190 213
190 218
190 219
191 150
191 159
191 172
191 180
191 201
191 206
191 211
191 214
191 222
191 228
191 238
192 148
192 166
192 169
192 180
192 182
192 188
192 199
192 201
192 208
192 215
192 231
193 157
193 164
193 171
193 178
193 181
193 195
193 217
193 235
194 152
194 163
194 172
194 177
194 198
194 206
194 209
194 214
194 228
194 233
194 234
195 158
195 164
195 178
195 188
195 193
195 199
195 208
195 221
195 235
196 155
196 170
196 174
196 183
196 197
196 205
196 213
196 218
196 223
196 237
197 162
197 170
197 176
197 196
197 202
197 205
197 216
197 223
197 237
197 241
198 156
198 173
198 177
198 186
198 194
198 204
198 209
198 220
198 227
198 233
198 242
199 169
199 178
199 182
199 188
199 192
199 195
199 201
199 208
199 215
199 221
199 231
199 240
200 160
200 175
200 185
200 189
200 212
200 224
200 225
200 230
200 236
201 166
201 180
201 182
201 191
201 192
201 199
201 211
201 215
201 222
201 231
201 240
202 162
202 170
202 176
202 184
202 197
202 203
202 207
202 216
202 223
202 241
203 161
203 168
203 176
203 184
203 185
203 202
203 207
203 212
203 216
203 232
203 243
204 165
204 173
204 179
204 186
204 187
204 198
204 209
204 220
204 226
204 227
204 245
205 170
205 183
205 196
205 197
205 213
205 223
205 237
205 241
205 249
206 163
206 172
206 177
206 191
206 194
206 209
206 214
206 228
206 233
206 234
206 247
207 168
207 184
207 185
207 202
207 203
207 212
207 216
207 225
207 232
207 243
207 253
208 169
208 178
208 188
208 192
208 195
208 199
208 215
208 221
208 240
209 173
209 177
209 186
209 194
209 198
209 204
209 206
209 227
209 233
209 234
209 242
210 171
210 181
210 190
210 217
210 218
210 219
210 229
210 239
210 244
210 254
211 180
211 191
211 201
211 214
211 222
211 228
211 231
211 238
212 168
212 185
212 200
212 203
212 207
212 224
212 225
212 232
212 236
212 243
212 256
213 174
213 183
213 190
213 196
213 205
213 218
213 219
213 237
213 239
213 249
213 255
214 172
214 191
214 194
214 206
214 211
214 222
214 228
214 234
214 238
214 247
215 182
215 188
215 192
215 199
215 201
215 208
215 221
215 222
215 231
215 240
215 250
216 176
216 184
216 197
216 202
216 203
216 207
216 223
216 232
216 241
216 252
216 253
216 265
217 181
217 193
217 210
217 229
217 235
217 244
217 258
218 183
218 190
218 196
218 210
218 213
218 219
218 229
218 239
218 244
218 249
218 254
218 255
219 190
219 210
219 213
219 218
219 229
219 239
219 244
219 254
219 255
220 186
220 187
220 198
220 204
220 226
220 227
220 242
220 245
220 259
221 188
221 195
221 199
221 208
221 215
221 235
221 240
221 248
221 260
221 261
222 180
222 191
222 201
222 211
222 214
222 215
222 231
222 238
222 250
222 264
223 196
223 197
223 202
223 205
223 216
223 237
223 241
223 252
223 257
224 189
224 200
224 212
224 225
224 230
224 236
224 246
224 251
225 185
225 200
225 207
225 212
225 224
225 232
225 236
225 243
225 251
225 256
225 268
226 187
226 204
226 220
226 245
226 259
227 198
227 204
227 209
227 220
227 233
227 242
227 245
227 262
227 266
228 191
228 194
228 206
228 211
228 214
228 233
228 234
228 238
228 247
228 263
228 267
228 272
229 210
229 217
229 218
229 219
229 235
229 244
229 254
229 258
229 275
230 189
230 200
230 224
230 236
230 246
230 251
230 271
231 192
231 199
231 201
231 211
231 215
231 222
231 238
231 240
231 250
231 264
232 203
232 207
232 212
232 216
232 225
232 243
232 252
232 253
232 256
232 274
233 194
233 198
233 206
233 209
233 227
233 228
233 234
233 242
233 247
233 262
233 263
233 266
234 194
234 206
234 209
234 214
234 228
234 233
234 242
234 247
234 263
234 266
234 272
235 193
235 195
235 217
235 221
235 229
235 248
235 258
235 269
236 200
236 212
236 224
236 225
236 230
236 243
236 246
236 251
236 256
236 268
236 273
237 196
237 197
237 205
237 213
237 223
237 239
237 241
237 249
237 255
237 257
237 270
237 278
238 191
238 211
238 214
238 222
238 228
238 231
238 247
238 250
238 264
238 267
238 276
239 210
239 213
239 218
239 219
239 237
239 244
239 249
239 254
239 255
239 277
239 278
240 199
240 201
240 208
240 215
240 221
240 231
240 250
240 260
240 261
240 280
241 197
241 202
241 205
241 216
241 223
241 237
241 252
241 257
241 265
241 270
241 282
242 198
242 209
242 220
242 227
242 233
242 234
242 245
242 262
242 266
243 203
243 207
243 212
243 225
243 232
243 236
243 252
243 253
243 256
243 265
243 268
243 274
244 210
244 217
244 218
244 219
244 229
244 239
244 254
244 255
244 258
244 275
244 287
245 204
245 220
245 226
245 227
245 242
245 259
245 262
245 281
245 284
246 224
246 230
246 236
246 251
246 271
246 273
247 206
247 214
247 228
247 233
247 234
247 238
247 263
247 267
247 272
247 276
247 279
248 221
248 235
248 258
248 260
248 261
248 269
248 288
248 291
249 205
249 213
249 218
249 237
249 239
249 255
249 257
249 277
249 278
249 289
250 215
250 222
250 231
250 238
250 240
250 261
250 264
250 280
250 286
251 224
251 225
251 230
251 236
251 246
251 256
251 268
251 271
251 273
251 293
252 216
252 223
252 232
252 241
252 243
252 253
252 265
252 270
252 274
252 282
252 294
253 207
253 216
253 232
253 243
253 252
253 256
253 265
253 268
253 274
253 292
254 210
254 218
254 219
254 229
254 239
254 244
254 255
254 275
254 277
254 287
254 296
255 213
255 218
255 219
255 237
255 239
255 244
255 249
255 254
255 277
255 278
255 296
256 212
256 225
256 232
256 236
256 243
256 251
256 253
256 268
256 273
256 274
256 292
257 223
257 237
257 241
257 249
257 270
257 278
257 282
257 289
257 301
258 217
258 229
258 235
258 244
258 248
258 269
258 275
258 283
258 288
258 299
258 305
259 220
259 226
259 245
259 262
259 281
259 284
259 295
260 221
260 240
260 248
260 261
260 269
260 286
260 288
260 291
260 300
260 303
261 221
261 240
261 248
261 250
261 260
261 280
261 286
261 291
261 300
261 303
262 227
262 233
262 242
262 245
262 259
262 266
262 281
262 284
262 285
262 295
262 297
263 228
263 233
263 234
263 247
263 266
263 267
263 272
263 279
263 285
263 290
263 302
263 307
264 222
264 231
264 238
264 250
264 267
264 276
264 279
264 280
264 298
265 216
265 241
265 243
265 252
265 253
265 270
265 274
265 282
265 294
265 309
266 227
266 233
266 234
266 242
266 262
266 263
266 272
266 285
266 290
266 295
266 297
266 313
267 228
267 238
267 247
267 263
267 264
267 272
267 276
267 279
267 298
267 302
268 225
268 236
268 243
268 251
268 253
268 256
268 273
268 292
268 293
268 304
268 314
269 235
269 248
269 258
269 260
269 275
269 283
269 288
269 291
269 303
269 305
270 237
270 241
270 252
270 257
270 265
270 278
270 282
270 289
270 294
270 301
270 308
270 317
271 230
271 246
271 251
271 273
271 293
271 310
272 228
272 234
272 247
272 263
272 266
272 267
272 276
272 279
272 285
272 290
272 302
272 307
273 236
273 246
273 251
273 256
273 268
273 271
273 292
273 293
273 304
273 310
273 314
274 232
274 243
274 252
274 253
274 256
274 265
274 282
274 292
274 294
274 309
274 319
275 229
275 244
275 254
275 258
275 269
275 283
275 287
275 288
275 296
275 299
275 305
275 312
276 238
276 247
276 264
276 267
276 272
276 279
276 298
276 302
276 316
277 239
277 249
277 254
277 255
277 278
277 287
277 289
277 296
277 306
277 312
277 315
277 323
278 237
278 239
278 249
278 255
278 257
278 270
278 277
278 289
278 296
278 301
278 306
278 315
278 318
279 247
279 263
279 264
279 267
279 272
279 276
279 290
279 302
279 307
279 327
280 240
280 250
280 261
280 264
280 286
280 298
280 300
280 311
280 320
281 245
281 259
281 262
281 284
281 295
281 297
281 321
281 324
282 241
282 252
282 257
282 265
282 270
282 274
282 289
282 294
282 301
282 308
282 317
282 319
282 334
283 258
283 269
283 275
283 287
283 288
283 299
283 305
283 312
283 322
283 326
284 245
284 259
284 262
284 281
284 295
284 321
284 324
285 262
285 263
285 266
285 272
285 290
285 295
285 297
285 307
285 313
285 330
286 250
286 260
286 261
286 280
286 291
286 298
286 300
286 303
286 311
286 320
286 332
287 244
287 254
287 275
287 277
287 283
287 296
287 299
287 312
287 315
287 323
287 326
287 335
288 248
288 258
288 260
288 269
288 275
288 283
288 291
288 299
288 303
288 305
288 322
288 329
289 249
289 257
289 270
289 277
289 278
289 282
289 301
289 306
289 308
289 317
289 318
289 333
290 263
290 266
290 272
290 279
290 285
290 297
290 302
290 307
290 313
290 330
291 248
291 260
291 261
291 269
291 286
291 288
291 300
291 303
291 305
291 311
291 329
291 332
291 341
292 253
292 256
292 268
292 273
292 274
292 304
292 309
292 314
292 331
293 251
293 268
293 271
293 273
293 304
293 310
293 314
293 325
293 328
293 336
294 252
294 265
294 270
294 274
294 282
294 301
294 308
294 309
294 319
294 331
294 334
294 337
295 259
295 262
295 266
295 281
295 284
295 285
295 297
295 313
295 321
295 324
296 254
296 255
296 275
296 277
296 278
296 287
296 299
296 306
296 312
296 315
296 323
296 335
296 338
297 262
297 266
297 281
297 285
297 290
297 295
297 313
297 324
297 330
297 345
298 264
298 267
298 276
298 280
298 286
298 302
298 316
298 320
299 258
299 275
299 283
299 287
299 288
299 296
299 305
299 312
299 322
299 323
299 326
299 335
300 260
300 261
300 280
300 286
300 291
300 303
300 311
300 320
300 332
300 341
300 342
301 257
301 270
301 278
301 282
301 289
301 294
301 306
301 308
301 317
301 318
301 333
301 348
302 263
302 267
302 272
302 276
302 279
302 290
302 298
302 307
302 316
302 327
303 260
303 261
303 269
303 286
303 288
303 291
303 300
303 305
303 311
303 329
303 332
303 341
303 351
304 268
304 273
304 292
304 293
304 310
304 314
304 325
304 339
304 347
305 258
305 269
305 275
305 283
305 288
305 291
305 299
305 303
305 322
305 326
305 329
305 340
305 341
306 277
306 278
306 289
306 296
306 301
306 315
306 317
306 318
306 323
306 333
306 338
306 343
307 263
307 272
307 279
307 285
307 290
307 302
307 313
307 327
307 330
307 350
308 270
308 282
308 289
308 294
308 301
308 317
308 318
308 319
308 333
308 334
308 348
309 265
309 274
309 292
309 294
309 314
309 319
309 331
309 334
309 337
309 344
309 352
310 271
310 273
310 293
310 304
310 325
310 328
310 336
310 347
310 359
311 280
311 286
311 291
311 300
311 303
311 320
311 332
311 342
311 354
312 275
312 277
312 283
312 287
312 296
312 299
312 315
312 322
312 323
312 326
312 335
312 338
312 356
313 266
313 285
313 290
313 295
313 297
313 307
313 324
313 330
313 345
314 268
314 273
314 292
314 293
314 304
314 309
314 325
314 339
314 344
314 347
314 352
315 277
315 278
315 287
315 296
315 306
315 312
315 318
315 323
315 333
315 335
315 338
315 343
316 276
316 298
316 302
316 320
316 327
316 353
316 357
317 270
317 282
317 289
317 301
317 306
317 308
317 318
317 333
317 334
317 343
317 348
317 360
317 361
317 365
318 278
318 289
318 301
318 306
318 308
318 315
318 317
318 323
318 333
318 338
318 343
318 348
318 360
319 274
319 282
319 294
319 308
319 309
319 331
319 334
319 337
319 352
319 361
320 280
320 286
320 298
320 300
320 311
320 316
320 332
320 342
320 353
320 369
321 281
321 284
321 295
321 324
321 346
321 349
321 358
321 368
322 283
322 288
322 299
322 305
322 312
322 326
322 329
322 335
322 340
322 351
322 355
322 356
322 372
323 277
323 287
323 296
323 299
323 306
323 312
323 315
323 318
323 326
323 335
323 338
323 343
323 356
323 364
324 281
324 284
324 295
324 297
324 313
324 321
324 330
324 345
324 346
324 349
324 358
324 368
325 293
325 304
325 310
325 314
325 328
325 336
325 339
325 344
325 347
325 359
325 367
326 283
326 287
326 299
326 305
326 312
326 322
326 323
326 335
326 338
326 340
326 355
326 356
326 364
326 372
327 279
327 302
327 307
327 316
327 350
327 357
328 293
328 310
328 325
328 336
328 359
328 363
329 288
329 291
329 303
329 305
329 322
329 332
329 340
329 341
329 351
329 355
329 366
329 381
330 285
330 290
330 297
330 307
330 313
330 324
330 345
330 350
330 358
330 362
330 373
330 384
331 292
331 294
331 309
331 319
331 334
331 337
331 344
331 352
331 371
331 376
331 380
332 286
332 291
332 300
332 303
332 311
332 320
332 329
332 341
332 342
332 351
332 354
332 366
332 369
333 289
333 301
333 306
333 308
333 315
333 317
333 318
333 338
333 343
333 348
333 360
333 365
333 385
334 282
334 294
334 308
334 309
334 317
334 319
334 331
334 337
334 348
334 361
334 365
334 370
334 380
335 287
335 296
335 299
335 312
335 315
335 322
335 323
335 326
335 338
335 355
335 356
335 364
335 372
336 293
336 310
336 325
336 328
336 347
336 359
336 363
336 367
336 387
337 294
337 309
337 319
337 331
337 334
337 348
337 352
337 361
337 370
337 376
337 380
338 296
338 306
338 312
338 315
338 318
338 323
338 326
338 333
338 335
338 343
338 356
338 360
338 364
338 382
338 391
339 304
339 314
339 325
339 344
339 347
339 352
339 367
339 371
339 374
339 390
340 305
340 322
340 326
340 329
340 341
340 351
340 355
340 372
340 379
340 381
341 291
341 300
341 303
341 305
341 329
341 332
341 340
341 351
341 354
341 366
341 379
341 381
342 300
342 311
342 320
342 332
342 353
342 354
342 366
342 369
342 386
342 389
343 306
343 315
343 317
343 318
343 323
343 333
343 338
343 360
343 364
343 365
343 382
343 385
344 309
344 314
344 325
344 331
344 339
344 347
344 352
344 371
344 374
344 376
345 297
345 313
345 324
345 330
345 349
345 350
345 358
345 362
345 373
345 384
346 321
346 324
346 349
346 358
346 368
346 383
347 304
347 310
347 314
347 325
347 336
347 339
347 344
347 359
347 363
347 367
347 374
347 390
348 301
348 308
348 317
348 318
348 333
348 334
348 337
348 360
348 361
348 365
348 370
348 377
348 385
348 392
349 321
349 324
349 345
349 346
349 358
349 368
349 373
349 383
350 307
350 327
350 330
350 345
350 357
350 362
350 378
350 384
350 388
351 303
351 322
351 329
351 332
351 340
351 341
351 354
351 355
351 366
351 379
351 381
352 309
352 314
352 319
352 331
352 337
352 339
352 344
352 371
352 374
352 376
352 380
352 396
353 316
353 320
353 342
353 357
353 369
353 375
353 386
353 389
353 393
353 398
354 311
354 332
354 341
354 342
354 351
354 366
354 369
354 381
354 389
355 322
355 326
355 329
355 335
355 340
355 351
355 356
355 372
355 379
355 381
355 394
355 402
356 312
356 322
356 323
356 326
356 335
356 338
356 355
356 364
356 372
356 391
357 316
357 327
357 350
357 353
357 375
357 378
357 388
357 393
357 399
358 321
358 324
358 330
358 345
358 346
358 349
358 368
358 373
358 383
358 384
358 397
359 310
359 325
359 328
359 336
359 347
359 363
359 367
359 387
359 400
359 401
360 317
360 318
360 333
360 338
360 343
360 348
360 361
360 365
360 377
360 382
360 385
360 395
360 407
361 317
361 319
361 334
361 337
361 348
361 360
361 365
361 370
361 377
361 380
361 392
362 330
362 345
362 350
362 373
362 378
362 384
362 388
362 403
363 328
363 336
363 347
363 359
363 367
363 387
363 400
363 401
364 323
364 326
364 335
364 338
364 343
364 356
364 372
364 382
364 391
364 418
365 317
365 333
365 334
365 343
365 348
365 360
365 361
365 370
365 377
365 382
365 385
365 392
365 395
365 412
365 416
366 329
366 332
366 341
366 342
366 351
366 354
366 369
366 379
366 381
366 389
366 409
366 410
367 325
367 336
367 339
367 347
367 359
367 363
367 374
367 387
367 390
367 396
367 401
367 415
368 321
368 324
368 346
368 349
368 358
368 373
368 383
368 397
368 408
369 320
369 332
369 342
369 353
369 354
369 366
369 386
369 389
369 393
369 398
369 404
369 409
369 419
370 334
370 337
370 348
370 361
370 365
370 376
370 377
370 380
370 392
370 416
370 422
371 331
371 339
371 344
371 352
371 374
371 376
371 380
371 390
371 396
371 405
371 411
372 322
372 326
372 335
372 340
372 355
372 356
372 364
372 379
372 381
372 394
372 402
372 417
373 330
373 345
373 349
373 358
373 362
373 368
373 384
373 397
373 403
373 413
374 339
374 344
374 347
374 352
374 367
374 371
374 376
374 390
374 396
374 405
374 415
374 421
375 353
375 357
375 378
375 386
375 393
375 398
375 399
375 414
375 424
376 331
376 337
376 344
376 352
376 370
376 371
376 374
376 380
376 396
376 405
376 411
377 348
377 360
377 361
377 365
377 370
377 380
377 385
377 392
377 395
377 412
377 416
377 431
378 350
378 357
378 362
378 375
378 388
378 393
378 399
378 414
378 423
379 340
379 341
379 351
379 355
379 366
379 372
379 381
379 394
379 402
379 406
379 410
379 426
380 331
380 334
380 337
380 352
380 361
380 370
380 371
380 376
380 377
380 392
380 405
380 411
380 416
380 422
380 425
381 329
381 340
381 341
381 351
381 354
381 355
381 366
381 372
381 379
381 394
381 406
381 409
381 410
381 426
382 338
382 343
382 360
382 364
382 365
382 385
382 391
382 395
382 407
382 412
382 420
382 432
383 346
383 349
383 358
383 368
383 408
383 434
384 330
384 345
384 350
384 358
384 362
384 373
384 388
384 397
384 403
384 413
385 333
385 343
385 348
385 360
385 365
385 377
385 382
385 391
385 395
385 407
385 412
385 420
385 432
386 342
386 353
386 369
386 375
386 389
386 393
386 398
386 399
386 404
386 419
386 424
386 433
387 336
387 359
387 363
387 367
387 390
387 400
387 401
387 415
387 427
387 430
388 350
388 357
388 362
388 378
388 384
388 403
388 414
388 423
388 435
389 342
389 353
389 354
389 366
389 369
389 386
389 398
389 404
389 409
389 410
389 419
389 433
390 339
390 347
390 367
390 371
390 374
390 387
390 396
390 401
390 405
390 415
390 421
390 430
390 437
391 338
391 356
391 364
391 382
391 385
391 395
391 407
391 417
391 418
391 420
392 348
392 361
392 365
392 370
392 377
392 380
392 411
392 412
392 416
392 422
392 425
392 431
392 447
393 353
393 357
393 369
393 375
393 378
393 386
393 398
393 399
393 404
393 414
393 424
393 433
393 444
394 355
394 372
394 379
394 381
394 402
394 406
394 410
394 417
394 426
394 428
394 439
394 440
395 360
395 365
395 377
395 382
395 385
395 391
395 407
395 412
395 416
395 420
395 431
395 432
396 352
396 367
396 371
396 374
396 376
396 390
396 405
396 411
396 415
396 421
396 442
396 446
397 358
397 368
397 373
397 384
397 403
397 408
397 413
397 429
397 434
397 436
398 353
398 369
398 375
398 386
398 389
398 393
398 399
398 404
398 409
398 419
398 424
398 433
398 443
398 444
398 455
399 357
399 375
399 378
399 386
399 393
399 398
399 414
399 423
399 424
399 438
399 444
399 454
400 359
400 363
400 387
400 401
400 415
400 427
400 430
401 359
401 363
401 367
401 387
401 390
401 400
401 415
401 421
401 427
401 430
401 437
402 355
402 372
402 379
402 394
402 406
402 417
402 418
402 428
402 439
402 441
402 451
403 362
403 373
403 384
403 388
403 397
403 413
403 423
403 435
403 436
403 449
403 453
403 461
404 369
404 386
404 389
404 393
404 398
404 409
404 410
404 419
404 424
404 433
404 443
404 444
404 455
405 371
405 374
405 376
405 380
405 390
405 396
405 411
405 421
405 425
405 442
405 446
405 452
406 379
406 381
406 394
406 402
406 409
406 410
406 426
406 428
406 439
406 440
406 450
406 451
407 360
407 382
407 385
407 391
407 395
407 412
407 418
407 420
407 431
407 432
407 445
408 368
408 383
408 397
408 413
408 429
408 434
408 436
408 448
408 457
409 366
409 369
409 381
409 389
409 398
409 404
409 406
409 410
409 419
409 426
409 433
409 443
409 450
410 366
410 379
410 381
410 389
410 394
410 404
410 406
410 409
410 419
410 426
410 439
410 440
410 450
411 371
411 376
411 380
411 392
411 396
411 405
411 422
411 425
411 442
411 452
412 365
412 377
412 382
412 385
412 392
412 395
412 407
412 416
412 422
412 431
412 432
412 456
412 459
413 373
413 384
413 397
413 403
413 408
413 429
413 435
413 436
413 453
413 461
414 375
414 378
414 388
414 393
414 399
414 423
414 424
414 435
414 438
414 449
414 454
415 367
415 374
415 387
415 390
415 396
415 400
415 401
415 421
415 427
415 430
415 437
415 446
416 365
416 370
416 377
416 380
416 392
416 395
416 412
416 422
416 425
416 431
416 432
416 447
416 459
417 372
417 391
417 394
417 402
417 418
417 420
417 428
417 441
417 451
417 458
418 364
418 391
418 402
418 407
418 417
418 420
418 428
418 441
418 445
418 458
419 369
419 386
419 389
419 398
419 404
419 409
419 410
419 426
419 433
419 443
419 450
419 455
420 382
420 385
420 391
420 395
420 407
420 417
420 418
420 432
420 441
420 445
420 458
420 463
421 374
421 390
421 396
421 401
421 405
421 415
421 430
421 437
421 442
421 446
421 464
422 370
422 380
422 392
422 411
422 412
422 416
422 425
422 431
422 447
422 452
422 459
422 462
423 378
423 388
423 399
423 403
423 414
423 435
423 438
423 449
423 470
424 375
424 386
424 393
424 398
424 399
424 404
424 414
424 433
424 438
424 443
424 444
424 454
424 455
425 380
425 392
425 405
425 411
425 416
425 422
425 442
425 447
425 452
425 459
425 462
425 471
426 379
426 381
426 394
426 406
426 409
426 410
426 419
426 439
426 440
426 450
426 469
427 387
427 400
427 401
427 415
427 430
427 460
427 468
428 394
428 402
428 406
428 417
428 418
428 439
428 440
428 441
428 451
428 469
429 397
429 408
429 413
429 434
429 436
429 448
429 453
429 457
429 465
429 472
430 387
430 390
430 400
430 401
430 415
430 421
430 427
430 437
430 446
430 460
430 468
431 377
431 392
431 395
431 407
431 412
431 416
431 422
431 432
431 447
431 456
431 459
432 382
432 385
432 395
432 407
432 412
432 416
432 420
432 431
432 445
432 456
432 459
432 463
433 386
433 389
433 393
433 398
433 404
433 409
433 419
433 424
433 443
433 444
433 454
433 455
434 383
434 397
434 408
434 429
434 436
434 448
434 457
434 465
434 467
435 388
435 403
435 413
435 414
435 423
435 436
435 438
435 449
435 453
435 461
435 470
436 397
436 403
436 408
436 413
436 429
436 434
436 435
436 453
436 457
436 461
436 465
436 472
437 390
437 401
437 415
437 421
437 430
437 446
437 464
437 468
438 399
438 414
438 423
438 424
438 435
438 449
438 454
438 461
438 470
439 394
439 402
439 406
439 410
439 426
439 428
439 440
439 441
439 450
439 451
439 469
440 394
440 406
440 410
440 426
440 428
440 439
440 450
440 451
440 469
441 402
441 417
441 418
441 420
441 428
441 439
441 445
441 451
441 458
442 396
442 405
442 411
442 421
442 425
442 446
442 452
442 464
442 466
442 471
443 398
443 404
443 409
443 419
443 424
443 433
443 444
443 450
443 455
444 393
444 398
444 399
444 404
444 424
444 433
444 443
444 454
444 455
445 407
445 418
445 420
445 432
445 441
445 456
445 458
445 463
446 396
446 405
446 415
446 421
446 430
446 437
446 442
446 464
446 466
447 392
447 416
447 422
447 425
447 431
447 452
447 456
447 459
447 462
447 471
448 408
448 429
448 434
448 457
448 465
448 467
449 403
449 414
449 423
449 435
449 438
449 453
449 461
449 470
450 406
450 409
450 410
450 419
450 426
450 439
450 440
450 443
450 469
451 402
451 406
451 417
451 428
451 439
451 440
451 441
451 469
452 405
452 411
452 422
452 425
452 442
452 447
452 462
452 464
452 466
452 471
453 403
453 413
453 429
453 435
453 436
453 449
453 457
453 461
453 465
453 472
454 399
454 414
454 424
454 433
454 438
454 444
454 455
454 470
455 398
455 404
455 419
455 424
455 433
455 443
455 444
455 454
456 412
456 431
456 432
456 445
456 447
456 459
456 463
457 408
457 429
457 434
457 436
457 448
457 453
457 465
457 467
457 472
458 417
458 418
458 420
458 441
458 445
458 463
459 412
459 416
459 422
459 425
459 431
459 432
459 447
459 456
459 462
460 427
460 430
460 468
461 403
461 413
461 435
461 436
461 438
461 449
461 453
461 465
461 470
461 472
462 422
462 425
462 447
462 452
462 459
462 466
462 471
463 420
463 432
463 445
463 456
463 458
464 421
464 437
464 442
464 446
464 452
464 466
464 471
465 429
465 434
465 436
465 448
465 453
465 457
465 461
465 467
465 472
466 442
466 446
466 452
466 462
466 464
466 471
467 434
467 448
467 457
467 465
468 427
468 430
468 437
468 460
469 426
469 428
469 439
469 440
469 450
469 451
470 423
470 435
470 438
470 449
470 454
470 461
471 425
471 442
471 447
471 452
471 462
471 464
471 466
472 429
472 436
472 453
472 457
472 461
472 465
