1 2
1 18
1 19
1 32
2 1
2 16
2 18
2 20
2 35
2 45
3 10
3 22
3 23
3 26
3 31
3 43
4 14
4 29
4 30
4 39
4 51
5 11
5 12
5 15
5 37
5 40
6 13
6 25
6 33
6 34
6 36
6 44
7 8
7 17
7 24
7 25
7 34
7 38
8 7
8 14
8 17
8 24
8 28
8 38
8 50
9 12
9 19
9 41
9 49
10 3
10 23
10 26
10 31
10 43
10 58
11 5
11 12
11 15
11 40
11 49
11 64
12 5
12 9
12 11
12 40
12 41
12 49
13 6
13 16
13 25
13 33
13 36
13 44
13 52
13 53
14 4
14 8
14 28
14 29
14 30
14 39
14 50
14 51
15 5
15 11
15 37
15 40
15 42
15 61
16 2
16 13
16 18
16 20
16 33
16 35
16 36
16 45
16 52
16 53
17 7
17 8
17 24
17 28
17 38
17 50
17 57
17 62
18 1
18 2
18 16
18 19
18 20
18 32
18 35
18 45
18 54
18 60
19 1
19 9
19 18
19 32
19 41
19 59
19 60
20 2
20 16
20 18
20 33
20 35
20 45
20 52
20 54
20 77
21 22
21 46
21 48
22 3
22 21
22 26
22 31
22 46
22 48
22 55
22 71
23 3
23 10
23 26
23 27
23 43
23 56
23 58
23 68
24 7
24 8
24 17
24 25
24 28
24 34
24 38
24 57
24 62
24 65
24 74
25 6
25 7
25 13
25 24
25 33
25 34
25 36
25 44
25 53
25 63
25 65
25 69
26 3
26 10
26 22
26 23
26 31
26 43
26 55
26 58
26 68
26 75
27 23
27 37
27 42
27 43
27 56
27 58
27 72
27 76
28 8
28 14
28 17
28 24
28 38
28 39
28 50
28 62
28 67
29 4
29 14
29 30
29 39
29 47
29 51
29 80
30 4
30 14
30 29
30 39
30 47
30 51
30 67
30 70
31 3
31 10
31 22
31 26
31 43
31 46
31 55
31 68
31 75
32 1
32 18
32 19
32 35
32 54
32 59
32 60
32 82
33 6
33 13
33 16
33 20
33 25
33 36
33 44
33 45
33 52
33 53
33 69
34 6
34 7
34 24
34 25
34 36
34 44
34 57
34 63
34 65
34 88
35 2
35 16
35 18
35 20
35 32
35 45
35 52
35 54
35 60
35 77
35 79
35 89
36 6
36 13
36 16
36 25
36 33
36 34
36 44
36 52
36 53
36 63
36 69
37 5
37 15
37 27
37 42
37 61
37 66
37 72
37 76
37 78
37 93
38 7
38 8
38 17
38 24
38 28
38 50
38 57
38 62
38 67
38 74
38 91
39 4
39 14
39 28
39 29
39 30
39 47
39 50
39 51
39 67
39 70
40 5
40 11
40 12
40 15
40 41
40 49
40 61
40 64
40 66
40 81
41 9
41 12
41 19
41 40
41 49
41 59
41 73
41 81
42 15
42 27
42 37
42 56
42 61
42 72
42 76
42 78
42 93
43 3
43 10
43 23
43 26
43 27
43 31
43 55
43 56
43 58
43 68
43 75
43 90
44 6
44 13
44 25
44 33
44 34
44 36
44 53
44 63
44 65
44 69
44 85
44 88
44 98
45 2
45 16
45 18
45 20
45 33
45 35
45 52
45 53
45 54
45 77
45 79
45 83
45 89
46 21
46 22
46 31
46 48
46 55
46 71
46 84
46 86
46 94
47 29
47 30
47 39
47 51
47 70
47 80
47 103
48 21
48 22
48 46
48 71
48 86
48 94
49 9
49 11
49 12
49 40
49 41
49 61
49 64
49 66
49 73
49 81
49 96
49 107
50 8
50 14
50 17
50 28
50 38
50 39
50 57
50 62
50 67
50 70
50 74
50 91
50 101
50 109
51 4
51 14
51 29
51 30
51 39
51 47
51 67
51 70
51 80
51 99
51 103
52 13
52 16
52 20
52 33
52 35
52 36
52 45
52 53
52 54
52 69
52 77
52 79
52 83
52 89
52 111
53 13
53 16
53 25
53 33
53 36
53 44
53 45
53 52
53 63
53 69
53 77
53 83
53 97
53 98
53 111
54 18
54 20
54 32
54 35
54 45
54 52
54 59
54 60
54 77
54 79
54 82
54 87
54 89
54 105
54 110
55 22
55 26
55 31
55 43
55 46
55 68
55 71
55 75
55 84
55 86
55 102
56 23
56 27
56 42
56 43
56 58
56 68
56 72
56 76
56 78
56 90
56 92
57 17
57 24
57 34
57 38
57 50
57 62
57 63
57 65
57 74
57 88
57 91
57 95
57 100
57 108
58 10
58 23
58 26
58 27
58 43
58 56
58 68
58 75
58 76
58 90
58 92
58 112
59 19
59 32
59 41
59 54
59 60
59 73
59 82
59 87
59 110
60 18
60 19
60 32
60 35
60 54
60 59
60 79
60 82
60 87
60 110
61 15
61 37
61 40
61 42
61 49
61 64
61 66
61 72
61 78
61 93
61 104
61 120
62 17
62 24
62 28
62 38
62 50
62 57
62 67
62 74
62 91
62 95
62 100
62 101
62 109
62 119
63 25
63 34
63 36
63 44
63 53
63 57
63 65
63 69
63 85
63 88
63 97
63 98
63 108
63 121
64 11
64 40
64 49
64 61
64 66
64 73
64 81
64 93
64 96
64 104
64 107
64 115
64 117
65 24
65 25
65 34
65 44
65 57
65 63
65 74
65 85
65 88
65 95
65 100
65 108
66 37
66 40
66 49
66 61
66 64
66 78
66 81
66 93
66 96
66 104
66 115
66 117
66 120
67 28
67 30
67 38
67 39
67 50
67 51
67 62
67 70
67 91
67 99
67 101
67 109
67 119
68 23
68 26
68 31
68 43
68 55
68 56
68 58
68 75
68 84
68 90
68 92
68 102
68 112
69 25
69 33
69 36
69 44
69 52
69 53
69 63
69 77
69 83
69 85
69 97
69 98
69 111
69 123
70 30
70 39
70 47
70 50
70 51
70 67
70 80
70 99
70 101
70 103
70 109
71 22
71 46
71 48
71 55
71 75
71 84
71 86
71 94
71 102
71 113
72 27
72 37
72 42
72 56
72 61
72 76
72 78
72 92
72 93
72 116
72 118
73 41
73 49
73 59
73 64
73 81
73 87
73 96
73 106
73 107
73 122
74 24
74 38
74 50
74 57
74 62
74 65
74 88
74 91
74 95
74 100
74 108
74 119
74 127
75 26
75 31
75 43
75 55
75 58
75 68
75 71
75 84
75 90
75 102
75 112
75 126
76 27
76 37
76 42
76 56
76 58
76 72
76 78
76 90
76 92
76 93
76 116
76 118
77 20
77 35
77 45
77 52
77 53
77 54
77 69
77 79
77 83
77 89
77 105
77 111
77 114
78 37
78 42
78 56
78 61
78 66
78 72
78 76
78 92
78 93
78 104
78 116
78 118
78 120
79 35
79 45
79 52
79 54
79 60
79 77
79 82
79 83
79 89
79 105
79 110
79 114
79 132
80 29
80 47
80 51
80 70
80 99
80 103
80 124
81 40
81 41
81 49
81 64
81 66
81 73
81 96
81 106
81 107
81 115
81 117
81 122
81 138
82 32
82 54
82 59
82 60
82 79
82 87
82 105
82 110
82 125
82 145
83 45
83 52
83 53
83 69
83 77
83 79
83 89
83 97
83 98
83 105
83 111
83 114
83 123
83 129
83 139
84 46
84 55
84 68
84 71
84 75
84 86
84 94
84 102
84 112
84 113
84 126
84 128
85 44
85 63
85 65
85 69
85 88
85 95
85 97
85 98
85 108
85 121
85 130
85 131
85 141
85 148
86 46
86 48
86 55
86 71
86 84
86 94
86 102
86 113
86 128
86 133
87 54
87 59
87 60
87 73
87 82
87 106
87 110
87 122
87 125
88 34
88 44
88 57
88 63
88 65
88 74
88 85
88 95
88 97
88 98
88 100
88 108
88 121
88 130
88 141
88 148
89 35
89 45
89 52
89 54
89 77
89 79
89 83
89 105
89 110
89 111
89 114
89 129
89 132
89 139
90 43
90 56
90 58
90 68
90 75
90 76
90 92
90 102
90 112
90 126
90 134
90 136
91 38
91 50
91 57
91 62
91 67
91 74
91 95
91 100
91 101
91 109
91 119
91 127
91 142
92 56
92 58
92 68
92 72
92 76
92 78
92 90
92 112
92 116
92 118
92 134
92 136
92 143
93 37
93 42
93 61
93 64
93 66
93 72
93 76
93 78
93 104
93 115
93 116
93 118
93 120
93 137
93 144
93 151
94 46
94 48
94 71
94 84
94 86
94 113
94 133
94 135
95 57
95 62
95 65
95 74
95 85
95 88
95 91
95 100
95 108
95 119
95 121
95 127
95 130
95 141
96 49
96 64
96 66
96 73
96 81
96 104
96 106
96 107
96 115
96 117
96 122
96 138
96 150
96 156
97 53
97 63
97 69
97 83
97 85
97 88
97 98
97 111
97 121
97 123
97 129
97 131
97 155
98 44
98 53
98 63
98 69
98 83
98 85
98 88
98 97
98 111
98 121
98 123
98 129
98 131
98 148
99 51
99 67
99 70
99 80
99 101
99 103
99 109
99 124
99 140
99 147
99 152
99 157
100 57
100 62
100 65
100 74
100 88
100 91
100 95
100 108
100 109
100 119
100 127
100 130
100 142
100 159
101 50
101 62
101 67
101 70
101 91
101 99
101 103
101 109
101 119
101 124
101 140
101 142
101 152
102 55
102 68
102 71
102 75
102 84
102 86
102 90
102 112
102 126
102 128
102 149
103 47
103 51
103 70
103 80
103 99
103 101
103 124
103 147
103 152
103 157
104 61
104 64
104 66
104 78
104 93
104 96
104 115
104 116
104 117
104 120
104 137
104 150
104 151
105 54
105 77
105 79
105 82
105 83
105 89
105 110
105 111
105 114
105 132
105 139
105 145
105 146
105 158
106 73
106 81
106 87
106 96
106 107
106 115
106 117
106 122
106 125
106 138
106 153
106 156
107 49
107 64
107 73
107 81
107 96
107 106
107 115
107 117
107 122
107 138
107 150
107 153
107 156
108 57
108 63
108 65
108 74
108 85
108 88
108 95
108 100
108 121
108 127
108 130
108 141
108 148
108 159
109 50
109 62
109 67
109 70
109 91
109 99
109 100
109 101
109 119
109 127
109 140
109 142
109 152
110 54
110 59
110 60
110 79
110 82
110 87
110 89
110 105
110 114
110 125
110 132
110 145
110 146
111 52
111 53
111 69
111 77
111 83
111 89
111 97
111 98
111 105
111 114
111 123
111 129
111 131
111 132
111 139
111 155
111 162
112 58
112 68
112 75
112 84
112 90
112 92
112 102
112 126
112 128
112 136
112 149
112 161
113 71
113 84
113 86
113 94
113 128
113 133
113 135
113 154
114 77
114 79
114 83
114 89
114 105
114 110
114 111
114 123
114 129
114 132
114 139
114 145
114 146
114 158
115 64
115 66
115 81
115 93
115 96
115 104
115 106
115 107
115 117
115 120
115 137
115 138
115 150
115 156
115 167
116 72
116 76
116 78
116 92
116 93
116 104
116 118
116 120
116 134
116 137
116 143
116 144
116 151
117 64
117 66
117 81
117 96
117 104
117 106
117 107
117 115
117 120
117 122
117 137
117 138
117 150
117 153
117 156
118 72
118 76
118 78
118 92
118 93
118 116
118 120
118 134
118 136
118 143
118 144
118 151
118 166
119 62
119 67
119 74
119 91
119 95
119 100
119 101
119 109
119 127
119 140
119 142
119 159
119 163
119 165
119 173
120 61
120 66
120 78
120 93
120 104
120 115
120 116
120 117
120 118
120 137
120 144
120 150
120 151
120 167
120 179
121 63
121 85
121 88
121 95
121 97
121 98
121 108
121 123
121 130
121 131
121 141
121 148
121 155
121 160
121 164
121 180
122 73
122 81
122 87
122 96
122 106
122 107
122 117
122 125
122 138
122 153
122 156
122 169
123 69
123 83
123 97
123 98
123 111
123 114
123 121
123 129
123 131
123 139
123 148
123 155
123 160
123 162
123 181
124 80
124 99
124 101
124 103
124 140
124 147
124 152
124 157
124 183
125 82
125 87
125 106
125 110
125 122
125 145
125 146
125 153
125 169
125 182
126 75
126 84
126 90
126 102
126 112
126 128
126 149
126 154
126 161
126 168
126 172
126 175
127 74
127 91
127 95
127 100
127 108
127 109
127 119
127 130
127 141
127 142
127 159
127 163
127 176
128 84
128 86
128 102
128 112
128 113
128 126
128 133
128 149
128 154
128 168
128 172
128 175
129 83
129 89
129 97
129 98
129 111
129 114
129 123
129 131
129 132
129 139
129 155
129 158
129 160
129 162
129 177
129 181
129 189
130 85
130 88
130 95
130 100
130 108
130 121
130 127
130 141
130 148
130 159
130 163
130 164
130 176
131 85
131 97
131 98
131 111
131 121
131 123
131 129
131 141
131 148
131 155
131 160
131 162
131 164
131 180
131 181
132 79
132 89
132 105
132 110
132 111
132 114
132 129
132 139
132 145
132 146
132 158
132 170
132 177
133 86
133 94
133 113
133 128
133 135
133 154
133 168
133 171
133 174
133 196
133 197
134 90
134 92
134 116
134 118
134 136
134 143
134 144
134 151
134 161
134 166
134 178
134 188
135 94
135 113
135 133
135 154
135 171
135 174
135 196
136 90
136 92
136 112
136 118
136 134
136 143
136 144
136 149
136 161
136 166
136 178
136 188
136 192
137 93
137 104
137 115
137 116
137 117
137 120
137 144
137 150
137 151
137 156
137 167
137 179
137 187
138 81
138 96
138 106
138 107
138 115
138 117
138 122
138 150
138 153
138 156
138 184
138 185
138 186
139 83
139 89
139 105
139 111
139 114
139 123
139 129
139 132
139 146
139 155
139 158
139 162
139 170
139 177
139 189
139 202
140 99
140 101
140 109
140 119
140 124
140 142
140 152
140 157
140 163
140 165
140 173
140 199
141 85
141 88
141 95
141 108
141 121
141 127
141 130
141 131
141 148
141 159
141 160
141 164
141 176
141 180
141 193
141 205
142 91
142 100
142 101
142 109
142 119
142 127
142 140
142 152
142 159
142 163
142 165
142 173
142 190
142 194
142 204
143 92
143 116
143 118
143 134
143 136
143 144
143 151
143 166
143 178
143 179
143 188
144 93
144 116
144 118
144 120
144 134
144 136
144 137
144 143
144 151
144 166
144 167
144 178
144 179
145 82
145 105
145 110
145 114
145 125
145 132
145 146
145 158
145 169
145 170
145 182
145 195
146 105
146 110
146 114
146 125
146 132
146 139
146 145
146 158
146 169
146 170
146 177
146 182
146 195
146 200
147 99
147 103
147 124
147 152
147 157
147 183
147 207
148 85
148 88
148 98
148 108
148 121
148 123
148 130
148 131
148 141
148 155
148 159
148 160
148 164
148 176
148 180
148 181
148 193
148 205
149 102
149 112
149 126
149 128
149 136
149 161
149 166
149 168
149 172
149 175
149 191
149 192
150 96
150 104
150 107
150 115
150 117
150 120
150 137
150 138
150 156
150 167
150 185
150 187
150 210
151 93
151 104
151 116
151 118
151 120
151 134
151 137
151 143
151 144
151 167
151 178
151 179
151 206
151 208
151 209
152 99
152 101
152 103
152 109
152 124
152 140
152 142
152 147
152 157
152 165
152 173
152 183
152 199
152 203
153 106
153 107
153 117
153 122
153 125
153 138
153 156
153 169
153 184
153 185
153 186
153 211
154 113
154 126
154 128
154 133
154 135
154 168
154 171
154 172
154 174
154 175
154 196
154 197
154 212
155 97
155 111
155 121
155 123
155 129
155 131
155 139
155 148
155 160
155 162
155 164
155 177
155 180
155 181
155 189
156 96
156 106
156 107
156 115
156 117
156 122
156 137
156 138
156 150
156 153
156 167
156 184
156 185
156 186
156 187
156 210
157 99
157 103
157 124
157 140
157 147
157 152
157 165
157 183
157 199
157 203
157 207
158 105
158 114
158 129
158 132
158 139
158 145
158 146
158 162
158 170
158 177
158 182
158 195
158 200
158 202
159 100
159 108
159 119
159 127
159 130
159 141
159 142
159 148
159 163
159 164
159 176
159 190
159 194
159 198
159 205
160 121
160 123
160 129
160 131
160 141
160 148
160 155
160 162
160 164
160 180
160 181
160 189
160 193
160 217
161 112
161 126
161 134
161 136
161 149
161 166
161 172
161 175
161 188
161 191
161 192
162 111
162 123
162 129
162 131
162 139
162 155
162 158
162 160
162 177
162 180
162 181
162 189
162 200
162 202
163 119
163 127
163 130
163 140
163 142
163 159
163 165
163 173
163 176
163 190
163 194
163 198
163 204
163 221
164 121
164 130
164 131
164 141
164 148
164 155
164 159
164 160
164 176
164 180
164 181
164 193
164 198
164 205
164 216
165 119
165 140
165 142
165 152
165 157
165 163
165 173
165 183
165 194
165 199
165 203
165 204
166 118
166 134
166 136
166 143
166 144
166 149
166 161
166 178
166 188
166 192
166 215
166 222
166 223
167 115
167 120
167 137
167 144
167 150
167 151
167 156
167 179
167 185
167 187
167 206
167 209
167 210
168 126
168 128
168 133
168 149
168 154
168 171
168 172
168 175
168 191
168 196
168 197
168 212
168 214
169 122
169 125
169 145
169 146
169 153
169 170
169 182
169 184
169 186
169 195
169 201
169 213
169 219
170 132
170 139
170 145
170 146
170 158
170 169
170 177
170 182
170 195
170 200
170 201
170 202
170 213
170 219
170 220
171 133
171 135
171 154
171 168
171 174
171 196
171 197
171 212
171 218
172 126
172 128
172 149
172 154
172 161
172 168
172 175
172 191
172 192
172 214
172 228
173 119
173 140
173 142
173 152
173 163
173 165
173 190
173 194
173 199
173 203
173 204
173 230
174 133
174 135
174 154
174 171
174 196
174 197
174 218
175 126
175 128
175 149
175 154
175 161
175 168
175 172
175 191
175 192
175 197
175 212
175 214
176 127
176 130
176 141
176 148
176 159
176 163
176 164
176 180
176 190
176 193
176 194
176 198
176 205
176 216
176 221
176 226
177 129
177 132
177 139
177 146
177 155
177 158
177 162
177 170
177 181
177 189
177 195
177 200
177 202
177 220
177 225
178 134
178 136
178 143
178 144
178 151
178 166
178 179
178 188
178 208
178 209
178 215
178 222
178 242
179 120
179 137
179 143
179 144
179 151
179 167
179 178
179 187
179 206
179 208
179 209
179 241
180 121
180 131
180 141
180 148
180 155
180 160
180 162
180 164
180 176
180 181
180 189
180 193
180 205
180 216
180 217
181 123
181 129
181 131
181 148
181 155
181 160
181 162
181 164
181 177
181 180
181 189
181 193
181 202
181 217
181 229
182 125
182 145
182 146
182 158
182 169
182 170
182 186
182 195
182 200
182 201
182 213
182 219
182 220
182 244
183 124
183 147
183 152
183 157
183 165
183 199
183 203
183 207
183 224
183 232
184 138
184 153
184 156
184 169
184 185
184 186
184 187
184 201
184 210
184 211
184 227
184 234
184 239
185 138
185 150
185 153
185 156
185 167
185 184
185 186
185 187
185 206
185 210
185 211
185 234
185 236
185 243
186 138
186 153
186 156
186 169
186 182
186 184
186 185
186 201
186 211
186 227
186 239
187 137
187 150
187 156
187 167
187 179
187 184
187 185
187 206
187 209
187 210
187 233
187 236
187 243
188 134
188 136
188 143
188 161
188 166
188 178
188 192
188 208
188 215
188 222
188 223
188 228
188 250
188 252
189 129
189 139
189 155
189 160
189 162
189 177
189 180
189 181
189 200
189 202
189 217
189 225
189 229
190 142
190 159
190 163
190 173
190 176
190 194
190 198
190 204
190 205
190 221
190 226
190 237
191 149
191 161
191 168
191 172
191 175
191 192
191 197
191 212
191 214
191 228
191 235
191 238
192 136
192 149
192 161
192 166
192 172
192 175
192 188
192 191
192 214
192 222
192 223
192 228
192 238
192 256
193 141
193 148
193 160
193 164
193 176
193 180
193 181
193 198
193 205
193 216
193 217
193 240
193 246
193 255
194 142
194 159
194 163
194 165
194 173
194 176
194 190
194 198
194 199
194 204
194 221
194 226
194 230
194 237
195 145
195 146
195 158
195 169
195 170
195 177
195 182
195 200
195 201
195 202
195 213
195 219
195 220
195 225
195 244
195 245
195 249
196 133
196 135
196 154
196 168
196 171
196 174
196 197
196 212
196 218
196 248
196 254
197 133
197 154
197 168
197 171
197 174
197 175
197 191
197 196
197 212
197 214
197 218
197 235
197 238
197 248
197 254
198 159
198 163
198 164
198 176
198 190
198 193
198 194
198 205
198 216
198 221
198 226
198 237
198 240
198 257
199 140
199 152
199 157
199 165
199 173
199 183
199 194
199 203
199 204
199 207
199 224
199 230
199 231
199 232
199 251
199 258
200 146
200 158
200 162
200 170
200 177
200 182
200 189
200 195
200 202
200 213
200 220
200 225
200 244
200 245
200 249
201 169
201 170
201 182
201 184
201 186
201 195
201 211
201 213
201 219
201 227
201 244
201 247
201 253
202 139
202 158
202 162
202 170
202 177
202 181
202 189
202 195
202 200
202 213
202 220
202 225
202 229
202 245
202 249
202 262
203 152
203 157
203 165
203 173
203 183
203 199
203 204
203 207
203 224
203 230
203 231
203 232
203 251
203 258
204 142
204 163
204 165
204 173
204 190
204 194
204 199
204 203
204 221
204 230
204 231
204 232
204 237
204 267
205 141
205 148
205 159
205 164
205 176
205 180
205 190
205 193
205 198
205 216
205 221
205 226
205 240
205 246
205 257
205 264
206 151
206 167
206 179
206 185
206 187
206 208
206 209
206 210
206 233
206 236
206 241
206 243
207 147
207 157
207 183
207 199
207 203
207 224
207 232
207 251
208 151
208 178
208 179
208 188
208 206
208 209
208 215
208 222
208 233
208 241
208 242
208 250
208 263
209 151
209 167
209 178
209 179
209 187
209 206
209 208
209 215
209 233
209 241
209 242
209 263
209 275
210 150
210 156
210 167
210 184
210 185
210 187
210 206
210 211
210 233
210 234
210 236
210 239
210 243
210 268
211 153
211 184
211 185
211 186
211 201
211 210
211 227
211 234
211 236
211 239
211 243
211 247
211 261
212 154
212 168
212 171
212 175
212 191
212 196
212 197
212 214
212 218
212 235
212 238
212 248
212 254
212 266
212 277
213 169
213 170
213 182
213 195
213 200
213 201
213 202
213 219
213 220
213 225
213 244
213 245
213 247
213 249
213 253
213 276
214 168
214 172
214 175
214 191
214 192
214 197
214 212
214 228
214 235
214 238
214 254
214 256
214 259
214 277
215 166
215 178
215 188
215 208
215 209
215 222
215 223
215 241
215 242
215 250
215 252
215 263
215 279
216 164
216 176
216 180
216 193
216 198
216 205
216 217
216 226
216 240
216 246
216 255
216 257
216 264
216 270
216 271
217 160
217 180
217 181
217 189
217 193
217 216
217 225
217 229
217 246
217 255
217 262
217 265
217 270
218 171
218 174
218 196
218 197
218 212
218 235
218 248
218 254
218 266
219 169
219 170
219 182
219 195
219 201
219 213
219 220
219 227
219 244
219 247
219 249
219 253
219 261
219 276
219 282
220 170
220 177
220 182
220 195
220 200
220 202
220 213
220 219
220 225
220 244
220 245
220 249
220 253
220 262
220 276
220 280
221 163
221 176
221 190
221 194
221 198
221 204
221 205
221 226
221 230
221 237
221 240
221 257
221 260
221 267
222 166
222 178
222 188
222 192
222 208
222 215
222 223
222 228
222 242
222 250
222 252
222 256
222 263
222 273
222 279
223 166
223 188
223 192
223 215
223 222
223 228
223 242
223 250
223 252
223 256
223 259
223 273
223 279
224 183
224 199
224 203
224 207
224 231
224 232
224 251
224 258
224 274
225 177
225 189
225 195
225 200
225 202
225 213
225 217
225 220
225 229
225 244
225 245
225 249
225 262
225 265
225 280
226 176
226 190
226 194
226 198
226 205
226 216
226 221
226 237
226 240
226 246
226 257
226 260
226 264
227 184
227 186
227 201
227 211
227 219
227 234
227 236
227 239
227 247
227 253
227 261
227 272
227 281
227 282
227 288
228 172
228 188
228 191
228 192
228 214
228 222
228 223
228 235
228 238
228 252
228 256
228 259
228 273
228 283
229 181
229 189
229 202
229 217
229 225
229 245
229 255
229 262
229 265
229 270
229 280
229 293
230 173
230 194
230 199
230 203
230 204
230 221
230 231
230 232
230 237
230 258
230 260
230 267
230 269
230 284
230 289
231 199
231 203
231 204
231 224
231 230
231 232
231 237
231 251
231 258
231 267
231 269
231 274
231 284
231 289
232 183
232 199
232 203
232 204
232 207
232 224
232 230
232 231
232 251
232 258
232 267
232 269
232 274
232 284
233 187
233 206
233 208
233 209
233 210
233 234
233 236
233 241
233 243
233 268
233 275
233 278
233 291
234 184
234 185
234 210
234 211
234 227
234 233
234 236
234 239
234 243
234 261
234 268
234 272
234 288
234 297
235 191
235 197
235 212
235 214
235 218
235 228
235 238
235 248
235 254
235 259
235 266
235 277
235 283
235 290
236 185
236 187
236 206
236 210
236 211
236 227
236 233
236 234
236 239
236 243
236 268
236 272
236 297
236 300
237 190
237 194
237 198
237 204
237 221
237 226
237 230
237 231
237 240
237 257
237 260
237 267
237 269
237 289
237 294
237 296
238 191
238 192
238 197
238 212
238 214
238 228
238 235
238 254
238 256
238 259
238 277
238 283
238 290
239 184
239 186
239 210
239 211
239 227
239 234
239 236
239 243
239 247
239 261
239 268
239 272
239 281
239 288
239 297
240 193
240 198
240 205
240 216
240 221
240 226
240 237
240 246
240 255
240 257
240 260
240 264
240 270
240 271
240 292
240 295
241 179
241 206
241 208
241 209
241 215
241 233
241 242
241 243
241 250
241 263
241 275
241 278
241 291
242 178
242 208
242 209
242 215
242 222
242 223
242 241
242 250
242 252
242 263
242 275
242 278
242 279
242 291
242 301
243 185
243 187
243 206
243 210
243 211
243 233
243 234
243 236
243 239
243 241
243 268
243 272
243 278
243 300
244 182
244 195
244 200
244 201
244 213
244 219
244 220
244 225
244 245
244 247
244 249
244 253
244 276
244 282
244 285
244 299
245 195
245 200
245 202
245 213
245 220
245 225
245 229
245 244
245 249
245 262
245 265
245 276
245 280
245 299
245 304
246 193
246 205
246 216
246 217
246 226
246 240
246 255
246 257
246 264
246 270
246 271
246 287
246 292
246 295
247 201
247 211
247 213
247 219
247 227
247 239
247 244
247 253
247 261
247 276
247 281
247 282
247 285
247 288
248 196
248 197
248 212
248 218
248 235
248 254
248 266
248 277
248 286
248 290
249 195
249 200
249 202
249 213
249 219
249 220
249 225
249 244
249 245
249 253
249 262
249 276
249 280
249 285
249 299
250 188
250 208
250 215
250 222
250 223
250 241
250 242
250 252
250 256
250 263
250 273
250 275
250 279
250 301
250 303
251 199
251 203
251 207
251 224
251 231
251 232
251 258
251 269
251 274
251 284
251 298
252 188
252 215
252 222
252 223
252 228
252 242
252 250
252 256
252 259
252 263
252 273
252 279
252 303
252 308
253 201
253 213
253 219
253 220
253 227
253 244
253 247
253 249
253 261
253 276
253 281
253 282
253 285
253 299
254 196
254 197
254 212
254 214
254 218
254 235
254 238
254 248
254 266
254 277
254 286
254 290
255 193
255 216
255 217
255 229
255 240
255 246
255 264
255 265
255 270
255 271
255 287
255 293
255 295
255 309
256 192
256 214
256 222
256 223
256 228
256 238
256 250
256 252
256 259
256 273
256 279
256 283
256 307
256 308
256 313
257 198
257 205
257 216
257 221
257 226
257 237
257 240
257 246
257 260
257 264
257 271
257 292
257 294
257 295
257 296
257 314
258 199
258 203
258 224
258 230
258 231
258 232
258 251
258 267
258 269
258 274
258 284
258 289
258 298
258 302
259 214
259 223
259 228
259 235
259 238
259 252
259 256
259 273
259 277
259 283
259 307
259 308
259 313
260 221
260 226
260 230
260 237
260 240
260 257
260 264
260 267
260 269
260 289
260 292
260 294
260 296
261 211
261 219
261 227
261 234
261 239
261 247
261 253
261 268
261 272
261 281
261 282
261 288
261 297
261 315
261 318
262 202
262 217
262 220
262 225
262 229
262 245
262 249
262 265
262 270
262 280
262 287
262 293
262 304
263 208
263 209
263 215
263 222
263 241
263 242
263 250
263 252
263 275
263 278
263 279
263 291
263 301
263 303
263 317
264 205
264 216
264 226
264 240
264 246
264 255
264 257
264 260
264 270
264 271
264 287
264 292
264 294
264 295
264 314
265 217
265 225
265 229
265 245
265 255
265 262
265 270
265 280
265 287
265 293
265 304
265 309
265 321
266 212
266 218
266 235
266 248
266 254
266 277
266 286
266 290
266 312
266 320
267 204
267 221
267 230
267 231
267 232
267 237
267 258
267 260
267 269
267 284
267 289
267 294
267 296
267 302
268 210
268 233
268 234
268 236
268 239
268 243
268 261
268 272
268 278
268 288
268 297
268 300
268 305
268 310
268 315
269 230
269 231
269 232
269 237
269 251
269 258
269 260
269 267
269 274
269 284
269 289
269 296
269 302
269 322
270 216
270 217
270 229
270 240
270 246
270 255
270 262
270 264
270 265
270 271
270 287
270 293
270 295
270 309
270 321
271 216
271 240
271 246
271 255
271 257
271 264
271 270
271 287
271 292
271 295
271 309
271 314
271 324
272 227
272 234
272 236
272 239
272 243
272 261
272 268
272 281
272 288
272 297
272 300
272 310
272 315
272 318
273 222
273 223
273 228
273 250
273 252
273 256
273 259
273 279
273 283
273 303
273 307
273 308
273 313
273 332
274 224
274 231
274 232
274 251
274 258
274 269
274 284
274 298
274 302
274 319
275 209
275 233
275 241
275 242
275 250
275 263
275 278
275 279
275 291
275 301
275 303
275 305
275 317
275 323
275 325
276 213
276 219
276 220
276 244
276 245
276 247
276 249
276 253
276 280
276 282
276 285
276 299
276 304
276 311
276 316
276 327
277 212
277 214
277 235
277 238
277 248
277 254
277 259
277 266
277 283
277 286
277 290
277 306
277 307
277 320
277 333
278 233
278 241
278 242
278 243
278 263
278 268
278 275
278 291
278 300
278 301
278 305
278 323
279 215
279 222
279 223
279 242
279 250
279 252
279 256
279 263
279 273
279 275
279 301
279 303
279 308
279 317
279 329
280 220
280 225
280 229
280 245
280 249
280 262
280 265
280 276
280 285
280 293
280 299
280 304
280 326
280 327
280 331
281 227
281 239
281 247
281 253
281 261
281 272
281 282
281 285
281 288
281 297
281 311
281 315
281 318
282 219
282 227
282 244
282 247
282 253
282 261
282 276
282 281
282 285
282 288
282 299
282 311
282 316
282 318
283 228
283 235
283 238
283 256
283 259
283 273
283 277
283 290
283 306
283 307
283 308
283 313
283 330
283 334
284 230
284 231
284 232
284 251
284 258
284 267
284 269
284 274
284 289
284 298
284 302
284 319
284 322
284 328
284 342
285 244
285 247
285 249
285 253
285 276
285 280
285 281
285 282
285 299
285 304
285 311
285 316
285 327
286 248
286 254
286 266
286 277
286 290
286 306
286 312
286 320
286 333
286 339
287 246
287 255
287 262
287 264
287 265
287 270
287 271
287 293
287 295
287 309
287 321
287 324
287 336
288 227
288 234
288 239
288 247
288 261
288 268
288 272
288 281
288 282
288 297
288 310
288 311
288 315
288 318
288 343
288 346
289 230
289 231
289 237
289 258
289 260
289 267
289 269
289 284
289 294
289 296
289 302
289 322
289 328
289 337
290 235
290 238
290 248
290 254
290 266
290 277
290 283
290 286
290 306
290 307
290 312
290 320
290 333
290 334
291 233
291 241
291 242
291 263
291 275
291 278
291 300
291 301
291 305
291 317
291 323
291 325
291 335
292 240
292 246
292 257
292 260
292 264
292 271
292 294
292 295
292 296
292 314
292 324
292 344
292 345
293 229
293 255
293 262
293 265
293 270
293 280
293 287
293 304
293 309
293 321
293 326
293 331
293 336
293 348
294 237
294 257
294 260
294 264
294 267
294 289
294 292
294 295
294 296
294 314
294 337
294 344
294 345
295 240
295 246
295 255
295 257
295 264
295 270
295 271
295 287
295 292
295 294
295 309
295 314
295 324
295 336
295 344
295 347
296 237
296 257
296 260
296 267
296 269
296 289
296 292
296 294
296 302
296 314
296 322
296 328
296 337
296 351
297 234
297 236
297 239
297 261
297 268
297 272
297 281
297 288
297 300
297 310
297 315
297 318
297 338
297 341
297 343
298 251
298 258
298 274
298 284
298 302
298 319
298 322
298 342
298 354
299 244
299 245
299 249
299 253
299 276
299 280
299 282
299 285
299 304
299 311
299 316
299 326
299 327
299 331
299 352
299 355
300 236
300 243
300 268
300 272
300 278
300 291
300 297
300 305
300 310
300 315
300 323
300 335
300 338
300 341
300 343
301 242
301 250
301 263
301 275
301 278
301 279
301 291
301 303
301 308
301 317
301 323
301 325
301 329
301 340
301 349
302 258
302 267
302 269
302 274
302 284
302 289
302 296
302 298
302 319
302 322
302 328
302 342
302 351
302 357
303 250
303 252
303 263
303 273
303 275
303 279
303 301
303 308
303 313
303 317
303 325
303 329
303 332
303 340
304 245
304 262
304 265
304 276
304 280
304 285
304 293
304 299
304 316
304 321
304 326
304 327
304 331
304 353
305 268
305 275
305 278
305 291
305 300
305 310
305 323
305 325
305 335
305 338
305 341
305 349
305 350
306 277
306 283
306 286
306 290
306 307
306 312
306 313
306 320
306 330
306 333
306 334
306 356
306 358
307 256
307 259
307 273
307 277
307 283
307 290
307 306
307 308
307 313
307 330
307 332
307 333
307 334
307 359
308 252
308 256
308 259
308 273
308 279
308 283
308 301
308 303
308 307
308 313
308 317
308 329
308 330
308 332
308 359
308 364
308 367
309 255
309 265
309 270
309 271
309 287
309 293
309 295
309 321
309 324
309 336
309 347
309 348
309 365
310 268
310 272
310 288
310 297
310 300
310 305
310 315
310 318
310 335
310 338
310 341
310 343
310 346
310 360
310 373
310 376
311 276
311 281
311 282
311 285
311 288
311 299
311 316
311 318
311 327
311 346
311 352
311 369
312 266
312 286
312 290
312 306
312 320
312 333
312 339
312 356
312 363
312 372
313 256
313 259
313 273
313 283
313 303
313 306
313 307
313 308
313 329
313 330
313 332
313 334
313 359
313 364
313 367
314 257
314 264
314 271
314 292
314 294
314 295
314 296
314 324
314 337
314 344
314 345
314 347
315 261
315 268
315 272
315 281
315 288
315 297
315 300
315 310
315 318
315 338
315 341
315 343
315 346
315 360
315 373
316 276
316 282
316 285
316 299
316 304
316 311
316 326
316 327
316 352
316 355
316 369
316 375
317 263
317 275
317 279
317 291
317 301
317 303
317 308
317 323
317 325
317 329
317 340
317 349
317 350
317 368
317 377
318 261
318 272
318 281
318 282
318 288
318 297
318 310
318 311
318 315
318 338
318 343
318 346
318 360
318 373
318 374
319 274
319 284
319 298
319 302
319 322
319 342
319 354
319 357
320 266
320 277
320 286
320 290
320 306
320 312
320 333
320 334
320 339
320 356
320 358
320 363
320 372
320 383
321 265
321 270
321 287
321 293
321 304
321 309
321 326
321 331
321 336
321 348
321 353
321 361
321 365
322 269
322 284
322 289
322 296
322 298
322 302
322 319
322 328
322 342
322 351
322 354
322 357
322 366
322 371
323 275
323 278
323 291
323 300
323 301
323 305
323 317
323 325
323 335
323 340
323 341
323 349
323 350
323 368
323 370
323 379
324 271
324 287
324 292
324 295
324 309
324 314
324 336
324 344
324 345
324 347
324 365
324 381
324 382
325 275
325 291
325 301
325 303
325 305
325 317
325 323
325 329
325 335
325 340
325 349
325 350
325 368
325 370
325 377
325 379
326 280
326 293
326 299
326 304
326 316
326 321
326 327
326 331
326 348
326 352
326 353
326 355
326 361
326 388
327 276
327 280
327 285
327 299
327 304
327 311
327 316
327 326
327 331
327 352
327 353
327 355
327 375
327 380
328 284
328 289
328 296
328 302
328 322
328 337
328 342
328 351
328 357
328 362
328 366
328 371
328 386
329 279
329 301
329 303
329 308
329 313
329 317
329 325
329 332
329 340
329 349
329 364
329 367
329 368
329 377
330 283
330 306
330 307
330 308
330 313
330 332
330 333
330 334
330 358
330 359
330 364
330 367
330 384
330 390
331 280
331 293
331 299
331 304
331 321
331 326
331 327
331 348
331 353
331 355
331 361
331 388
332 273
332 303
332 307
332 308
332 313
332 329
332 330
332 340
332 359
332 364
332 367
332 377
333 277
333 286
333 290
333 306
333 307
333 312
333 320
333 330
333 334
333 339
333 356
333 358
333 363
333 383
333 384
333 387
334 283
334 290
334 306
334 307
334 313
334 320
334 330
334 333
334 356
334 358
334 359
334 364
334 383
334 384
334 387
334 390
335 291
335 300
335 305
335 310
335 323
335 325
335 338
335 341
335 349
335 350
335 370
335 376
335 379
335 385
335 395
336 287
336 293
336 295
336 309
336 321
336 324
336 344
336 347
336 348
336 361
336 365
336 381
336 382
337 289
337 294
337 296
337 314
337 328
337 344
337 345
337 351
337 362
337 366
337 386
337 389
338 297
338 300
338 305
338 310
338 315
338 318
338 335
338 341
338 343
338 346
338 360
338 370
338 373
338 376
338 385
339 286
339 312
339 320
339 333
339 356
339 358
339 363
339 372
339 383
339 403
340 301
340 303
340 317
340 323
340 325
340 329
340 332
340 349
340 350
340 367
340 368
340 377
340 379
340 394
340 400
341 297
341 300
341 305
341 310
341 315
341 323
341 335
341 338
341 343
341 350
341 370
341 373
341 376
341 385
341 395
342 284
342 298
342 302
342 319
342 322
342 328
342 351
342 354
342 357
342 366
342 371
342 386
342 393
343 288
343 297
343 300
343 310
343 315
343 318
343 338
343 341
343 346
343 360
343 373
343 374
343 376
343 385
344 292
344 294
344 295
344 314
344 324
344 336
344 337
344 345
344 347
344 362
344 365
344 381
344 382
344 389
344 391
344 404
345 292
345 294
345 314
345 324
345 337
345 344
345 347
345 362
345 366
345 381
345 382
345 389
345 391
345 404
346 288
346 310
346 311
346 315
346 318
346 338
346 343
346 360
346 369
346 373
346 374
346 378
346 409
347 295
347 309
347 314
347 324
347 336
347 344
347 345
347 365
347 381
347 382
347 391
347 404
348 293
348 309
348 321
348 326
348 331
348 336
348 353
348 361
348 365
348 382
348 388
348 396
348 397
349 301
349 305
349 317
349 323
349 325
349 329
349 335
349 340
349 350
349 368
349 370
349 377
349 379
349 394
349 395
349 408
350 305
350 317
350 323
350 325
350 335
350 340
350 341
350 349
350 368
350 370
350 379
350 385
350 394
350 395
350 408
351 296
351 302
351 322
351 328
351 337
351 342
351 357
351 362
351 366
351 371
351 386
351 389
351 393
351 405
351 417
352 299
352 311
352 316
352 326
352 327
352 353
352 355
352 369
352 375
352 378
352 380
352 401
352 406
352 413
353 304
353 321
353 326
353 327
353 331
353 348
353 352
353 355
353 361
353 375
353 380
353 388
353 396
353 398
353 413
354 298
354 319
354 322
354 342
354 357
354 371
354 392
354 393
354 414
354 418
355 299
355 316
355 326
355 327
355 331
355 352
355 353
355 361
355 369
355 375
355 380
355 388
355 398
355 401
355 413
356 306
356 312
356 320
356 333
356 334
356 339
356 358
356 363
356 372
356 383
356 384
356 387
356 403
356 407
357 302
357 319
357 322
357 328
357 342
357 351
357 354
357 366
357 371
357 386
357 392
357 393
357 418
358 306
358 320
358 330
358 333
358 334
358 339
358 356
358 359
358 363
358 383
358 384
358 387
358 390
358 407
358 410
358 419
359 307
359 308
359 313
359 330
359 332
359 334
359 358
359 364
359 367
359 384
359 387
359 390
359 399
359 410
359 420
360 310
360 315
360 318
360 338
360 343
360 346
360 369
360 373
360 374
360 376
360 378
360 409
360 415
361 321
361 326
361 331
361 336
361 348
361 353
361 355
361 365
361 388
361 396
361 397
361 398
362 328
362 337
362 344
362 345
362 351
362 366
362 386
362 389
362 391
362 402
362 405
363 312
363 320
363 333
363 339
363 356
363 358
363 372
363 383
363 387
363 403
363 407
364 308
364 313
364 329
364 330
364 332
364 334
364 359
364 367
364 377
364 384
364 390
364 399
364 400
364 410
364 420
365 309
365 321
365 324
365 336
365 344
365 347
365 348
365 361
365 381
365 382
365 397
365 404
365 411
365 426
366 322
366 328
366 337
366 342
366 345
366 351
366 357
366 362
366 371
366 386
366 389
366 393
366 402
366 405
366 417
367 308
367 313
367 329
367 330
367 332
367 340
367 359
367 364
367 368
367 377
367 384
367 390
367 394
367 399
367 400
367 420
368 317
368 323
368 325
368 329
368 340
368 349
368 350
368 367
368 377
368 379
368 394
368 399
368 400
368 408
368 416
369 311
369 316
369 346
369 352
369 355
369 360
369 374
369 375
369 378
369 380
369 401
369 406
369 409
369 423
370 323
370 325
370 335
370 338
370 341
370 349
370 350
370 376
370 379
370 385
370 395
370 408
370 412
370 422
370 431
371 322
371 328
371 342
371 351
371 354
371 357
371 366
371 386
371 392
371 393
371 405
371 417
371 418
371 421
371 425
372 312
372 320
372 339
372 356
372 363
372 383
372 403
372 407
372 430
373 310
373 315
373 318
373 338
373 341
373 343
373 346
373 360
373 374
373 376
373 378
373 385
373 409
373 412
373 415
374 318
374 343
374 346
374 360
374 369
374 373
374 375
374 376
374 378
374 406
374 409
374 423
375 316
375 327
375 352
375 353
375 355
375 369
375 374
375 378
375 380
375 398
375 401
375 406
375 413
375 423
375 433
376 310
376 335
376 338
376 341
376 343
376 360
376 370
376 373
376 374
376 385
376 395
376 409
376 412
376 415
376 432
377 317
377 325
377 329
377 332
377 340
377 349
377 364
377 367
377 368
377 379
377 394
377 399
377 400
377 408
377 416
377 435
378 346
378 352
378 360
378 369
378 373
378 374
378 375
378 401
378 406
378 409
378 423
379 323
379 325
379 335
379 340
379 349
379 350
379 368
379 370
379 377
379 394
379 395
379 400
379 408
379 416
379 422
379 431
380 327
380 352
380 353
380 355
380 369
380 375
380 388
380 398
380 401
380 406
380 413
380 433
381 324
381 336
381 344
381 345
381 347
381 365
381 382
381 389
381 391
381 404
381 411
381 424
381 434
381 439
382 324
382 336
382 344
382 345
382 347
382 348
382 365
382 381
382 391
382 397
382 404
382 411
382 424
382 426
382 439
382 442
383 320
383 333
383 334
383 339
383 356
383 358
383 363
383 372
383 384
383 387
383 403
383 407
383 410
383 419
383 430
383 440
383 447
384 330
384 333
384 334
384 356
384 358
384 359
384 364
384 367
384 383
384 387
384 390
384 407
384 410
384 419
384 420
384 443
385 335
385 338
385 341
385 343
385 350
385 370
385 373
385 376
385 395
385 412
385 415
385 422
385 431
385 432
386 328
386 337
386 342
386 351
386 357
386 362
386 366
386 371
386 389
386 393
386 402
386 405
386 417
386 421
386 429
386 437
387 333
387 334
387 356
387 358
387 359
387 363
387 383
387 384
387 390
387 403
387 407
387 410
387 419
387 443
387 447
388 326
388 331
388 348
388 353
388 355
388 361
388 380
388 396
388 397
388 398
388 401
388 413
388 427
388 428
388 444
388 450
389 337
389 344
389 345
389 351
389 362
389 366
389 381
389 386
389 391
389 402
389 404
389 405
389 429
389 434
389 437
390 330
390 334
390 358
390 359
390 364
390 367
390 384
390 387
390 399
390 410
390 419
390 420
390 443
390 452
391 344
391 345
391 347
391 362
391 381
391 382
391 389
391 402
391 404
391 424
391 429
391 434
391 439
392 354
392 357
392 371
392 393
392 414
392 418
392 421
392 425
392 441
392 455
393 342
393 351
393 354
393 357
393 366
393 371
393 386
393 392
393 405
393 417
393 418
393 421
393 425
393 437
394 340
394 349
394 350
394 367
394 368
394 377
394 379
394 399
394 400
394 408
394 416
394 422
394 435
394 445
394 448
394 449
395 335
395 341
395 349
395 350
395 370
395 376
395 379
395 385
395 408
395 412
395 415
395 422
395 431
395 432
395 449
395 453
396 348
396 353
396 361
396 388
396 397
396 398
396 411
396 413
396 426
396 427
396 428
396 444
396 450
396 460
397 348
397 361
397 365
397 382
397 388
397 396
397 411
397 424
397 426
397 427
397 428
397 442
397 450
398 353
398 355
398 361
398 375
398 380
398 388
398 396
398 401
398 413
398 427
398 428
398 433
398 444
398 450
398 460
399 359
399 364
399 367
399 368
399 377
399 390
399 394
399 400
399 416
399 420
399 435
399 445
399 448
399 451
400 340
400 364
400 367
400 368
400 377
400 379
400 394
400 399
400 408
400 416
400 435
400 445
400 448
401 352
401 355
401 369
401 375
401 378
401 380
401 388
401 398
401 406
401 413
401 423
401 428
401 433
401 438
401 444
401 459
402 362
402 366
402 386
402 389
402 391
402 404
402 405
402 417
402 429
402 434
402 437
402 439
402 457
403 339
403 356
403 363
403 372
403 383
403 387
403 407
403 419
403 430
403 440
403 447
404 344
404 345
404 347
404 365
404 381
404 382
404 389
404 391
404 402
404 411
404 424
404 429
404 434
404 439
404 442
404 454
404 462
405 351
405 362
405 366
405 371
405 386
405 389
405 393
405 402
405 417
405 421
405 429
405 434
405 437
405 457
405 461
406 352
406 369
406 374
406 375
406 378
406 380
406 401
406 409
406 413
406 423
406 433
406 438
406 456
406 459
407 356
407 358
407 363
407 372
407 383
407 384
407 387
407 403
407 410
407 419
407 430
407 440
407 443
407 447
408 349
408 350
408 368
408 370
408 377
408 379
408 394
408 395
408 400
408 416
408 422
408 431
408 435
408 445
408 449
408 453
408 469
409 346
409 360
409 369
409 373
409 374
409 376
409 378
409 406
409 415
409 423
409 436
409 438
409 446
409 456
409 458
410 358
410 359
410 364
410 383
410 384
410 387
410 390
410 407
410 419
410 420
410 443
410 447
410 451
410 452
410 466
411 365
411 381
411 382
411 396
411 397
411 404
411 424
411 426
411 427
411 439
411 442
411 454
411 468
412 370
412 373
412 376
412 385
412 395
412 415
412 422
412 431
412 432
412 436
412 446
412 453
412 464
412 467
413 352
413 353
413 355
413 375
413 380
413 388
413 396
413 398
413 401
413 406
413 428
413 433
413 438
413 444
413 450
413 459
413 460
413 465
414 354
414 392
414 418
414 425
414 441
414 455
414 463
415 360
415 373
415 376
415 385
415 395
415 409
415 412
415 431
415 432
415 436
415 446
415 464
415 467
416 368
416 377
416 379
416 394
416 399
416 400
416 408
416 422
416 435
416 445
416 448
416 449
416 453
416 471
416 472
417 351
417 366
417 371
417 386
417 393
417 402
417 405
417 418
417 421
417 425
417 429
417 437
417 455
417 461
417 470
418 354
418 357
418 371
418 392
418 393
418 414
418 417
418 421
418 425
418 441
418 455
418 463
419 358
419 383
419 384
419 387
419 390
419 403
419 407
419 410
419 420
419 430
419 440
419 443
419 447
419 452
419 466
419 476
420 359
420 364
420 367
420 384
420 390
420 399
420 410
420 419
420 443
420 448
420 451
420 452
420 466
420 477
420 478
421 371
421 386
421 392
421 393
421 405
421 417
421 418
421 425
421 437
421 455
421 461
422 370
422 379
422 385
422 394
422 395
422 408
422 412
422 416
422 431
422 432
422 445
422 449
422 453
422 469
422 472
422 483
423 369
423 374
423 375
423 378
423 401
423 406
423 409
423 433
423 436
423 438
423 456
423 458
423 459
423 473
423 487
424 381
424 382
424 391
424 397
424 404
424 411
424 426
424 434
424 439
424 442
424 454
424 462
424 468
424 480
425 371
425 392
425 393
425 414
425 417
425 418
425 421
425 441
425 455
425 461
425 463
425 481
426 365
426 382
426 396
426 397
426 411
426 424
426 427
426 428
426 442
426 450
426 454
426 468
426 475
426 490
427 388
427 396
427 397
427 398
427 411
427 426
427 428
427 442
427 450
427 460
427 468
427 475
427 490
428 388
428 396
428 397
428 398
428 401
428 413
428 426
428 427
428 433
428 444
428 450
428 460
428 465
428 475
428 484
429 386
429 389
429 391
429 402
429 404
429 405
429 417
429 434
429 437
429 439
429 457
429 462
429 470
429 486
430 372
430 383
430 403
430 407
430 419
430 440
430 447
430 474
430 476
430 485
431 370
431 379
431 385
431 395
431 408
431 412
431 415
431 422
431 432
431 449
431 453
431 464
431 467
431 469
431 483
432 376
432 385
432 395
432 412
432 415
432 422
432 431
432 436
432 446
432 453
432 464
432 467
432 479
433 375
433 380
433 398
433 401
433 406
433 413
433 423
433 428
433 438
433 444
433 456
433 459
433 460
433 465
433 473
433 489
434 381
434 389
434 391
434 402
434 404
434 405
434 424
434 429
434 437
434 439
434 454
434 457
434 462
434 486
435 377
435 394
435 399
435 400
435 408
435 416
435 445
435 448
435 449
435 451
435 471
435 472
435 478
435 482
436 409
436 412
436 415
436 423
436 432
436 446
436 456
436 458
436 464
436 479
437 386
437 389
437 393
437 402
437 405
437 417
437 421
437 429
437 434
437 457
437 461
437 470
437 488
437 497
438 401
438 406
438 409
438 413
438 423
438 433
438 444
438 456
438 458
438 459
438 465
438 473
438 487
438 489
439 381
439 382
439 391
439 402
439 404
439 411
439 424
439 429
439 434
439 442
439 454
439 457
439 462
439 480
439 486
439 492
440 383
440 403
440 407
440 419
440 430
440 443
440 447
440 474
440 476
440 485
440 491
441 392
441 414
441 418
441 425
441 455
441 463
441 481
441 496
442 382
442 397
442 404
442 411
442 424
442 426
442 427
442 439
442 450
442 454
442 462
442 468
442 480
442 490
442 495
443 384
443 387
443 390
443 407
443 410
443 419
443 420
443 440
443 447
443 451
443 452
443 466
443 476
443 477
443 491
443 493
443 500
444 388
444 396
444 398
444 401
444 413
444 428
444 433
444 438
444 450
444 459
444 460
444 465
444 475
444 484
444 489
445 394
445 399
445 400
445 408
445 416
445 422
445 435
445 448
445 449
445 453
445 469
445 471
445 472
445 482
445 498
445 499
446 409
446 412
446 415
446 432
446 436
446 456
446 458
446 464
446 467
446 479
447 383
447 387
447 403
447 407
447 410
447 419
447 430
447 440
447 443
447 452
447 466
447 474
447 476
447 485
447 491
447 500
448 394
448 399
448 400
448 416
448 420
448 435
448 445
448 451
448 471
448 472
448 478
448 482
448 498
449 394
449 395
449 408
449 416
449 422
449 431
449 435
449 445
449 453
449 469
449 471
449 472
449 483
449 498
449 499
450 388
450 396
450 397
450 398
450 413
450 426
450 427
450 428
450 442
450 444
450 460
450 465
450 468
450 475
450 484
450 490
450 505
451 399
451 410
451 420
451 435
451 443
451 448
451 452
451 466
451 471
451 477
451 478
451 482
451 493
451 508
452 390
452 410
452 419
452 420
452 443
452 447
452 451
452 466
452 476
452 477
452 478
452 493
452 500
453 395
453 408
453 412
453 416
453 422
453 431
453 432
453 445
453 449
453 467
453 469
453 471
453 472
453 483
453 499
453 501
454 404
454 411
454 424
454 426
454 434
454 439
454 442
454 462
454 468
454 480
454 486
454 492
454 495
454 513
455 392
455 414
455 417
455 418
455 421
455 425
455 441
455 461
455 463
455 481
455 488
455 496
455 511
456 406
456 409
456 423
456 433
456 436
456 438
456 446
456 458
456 459
456 473
456 479
456 487
456 502
456 503
456 514
457 402
457 405
457 429
457 434
457 437
457 439
457 461
457 462
457 470
457 486
457 488
457 492
457 494
457 497
457 510
458 409
458 423
458 436
458 438
458 446
458 456
458 464
458 473
458 479
458 487
458 502
459 401
459 406
459 413
459 423
459 433
459 438
459 444
459 456
459 460
459 465
459 473
459 487
459 489
459 503
459 509
460 396
460 398
460 413
460 427
460 428
460 433
460 444
460 450
460 459
460 465
460 475
460 484
460 489
460 490
460 505
460 512
461 405
461 417
461 421
461 425
461 437
461 455
461 457
461 470
461 481
461 488
461 496
461 497
461 511
462 404
462 424
462 429
462 434
462 439
462 442
462 454
462 457
462 468
462 480
462 486
462 492
462 494
462 510
462 513
463 414
463 418
463 425
463 441
463 455
463 481
463 496
463 521
464 412
464 415
464 431
464 432
464 436
464 446
464 458
464 467
464 479
464 501
464 502
464 507
464 518
464 520
465 413
465 428
465 433
465 438
465 444
465 450
465 459
465 460
465 473
465 475
465 484
465 489
465 503
465 505
465 509
465 512
466 410
466 419
466 420
466 443
466 447
466 451
466 452
466 474
466 476
466 477
466 478
466 491
466 493
466 500
466 515
466 523
466 526
467 412
467 415
467 431
467 432
467 446
467 453
467 464
467 479
467 483
467 501
467 507
467 518
468 411
468 424
468 426
468 427
468 442
468 450
468 454
468 462
468 475
468 480
468 490
468 492
468 495
468 524
468 530
469 408
469 422
469 431
469 445
469 449
469 453
469 471
469 472
469 482
469 483
469 498
469 499
469 501
469 506
469 517
470 417
470 429
470 437
470 457
470 461
470 486
470 488
470 494
470 497
470 527
471 416
471 435
471 445
471 448
471 449
471 451
471 453
471 469
471 472
471 478
471 482
471 483
471 498
471 499
471 506
471 516
471 517
471 531
472 416
472 422
472 435
472 445
472 448
472 449
472 453
472 469
472 471
472 482
472 483
472 498
472 499
472 501
472 506
472 517
472 531
473 423
473 433
473 438
473 456
473 458
473 459
473 465
473 487
473 489
473 503
473 509
473 512
473 514
474 430
474 440
474 447
474 466
474 476
474 485
474 491
474 504
474 525
475 426
475 427
475 428
475 444
475 450
475 460
475 465
475 468
475 484
475 490
475 495
475 505
475 528
475 533
476 419
476 430
476 440
476 443
476 447
476 452
476 466
476 474
476 477
476 485
476 491
476 493
476 500
476 504
476 515
476 523
476 526
476 535
477 420
477 443
477 451
477 452
477 466
477 476
477 478
477 493
477 500
477 508
477 515
477 519
477 526
478 420
478 435
478 448
478 451
478 452
478 466
478 471
478 477
478 482
478 493
478 506
478 508
478 515
478 516
478 519
478 537
479 432
479 436
479 446
479 456
479 458
479 464
479 467
479 487
479 502
479 507
479 518
479 520
480 424
480 439
480 442
480 454
480 462
480 468
480 486
480 492
480 495
480 510
480 513
480 524
480 530
481 425
481 441
481 455
481 461
481 463
481 488
481 496
481 511
481 521
481 522
482 435
482 445
482 448
482 451
482 469
482 471
482 472
482 478
482 498
482 506
482 508
482 516
482 531
482 537
483 422
483 431
483 449
483 453
483 467
483 469
483 471
483 472
483 498
483 499
483 501
483 507
483 517
483 529
483 536
484 428
484 444
484 450
484 460
484 465
484 475
484 489
484 490
484 505
484 509
484 512
484 528
484 533
485 430
485 440
485 447
485 474
485 476
485 491
485 504
485 525
485 535
486 429
486 434
486 439
486 454
486 457
486 462
486 470
486 480
486 492
486 494
486 497
486 510
486 513
486 532
486 541
487 423
487 438
487 456
487 458
487 459
487 473
487 479
487 489
487 502
487 503
487 514
487 520
487 538
488 437
488 455
488 457
488 461
488 470
488 481
488 494
488 496
488 497
488 511
488 522
488 527
488 534
489 433
489 438
489 444
489 459
489 460
489 465
489 473
489 484
489 487
489 503
489 505
489 509
489 512
489 514
489 542
489 543
490 426
490 427
490 442
490 450
490 460
490 468
490 475
490 484
490 495
490 505
490 528
490 530
490 533
490 546
491 440
491 443
491 447
491 466
491 474
491 476
491 485
491 493
491 500
491 504
491 515
491 523
491 525
491 526
491 535
491 545
492 439
492 454
492 457
492 462
492 468
492 480
492 486
492 494
492 495
492 510
492 513
492 524
492 530
492 532
492 541
493 443
493 451
493 452
493 466
493 476
493 477
493 478
493 491
493 500
493 508
493 515
493 519
493 523
493 526
493 544
494 457
494 462
494 470
494 486
494 488
494 492
494 497
494 510
494 513
494 527
494 532
494 541
494 551
495 442
495 454
495 468
495 475
495 480
495 490
495 492
495 513
495 524
495 528
495 530
495 546
496 441
496 455
496 461
496 463
496 481
496 488
496 511
496 521
496 522
496 552
497 437
497 457
497 461
497 470
497 486
497 488
497 494
497 510
497 511
497 527
497 532
497 534
497 551
497 553
498 445
498 448
498 449
498 469
498 471
498 472
498 482
498 483
498 499
498 506
498 516
498 517
498 531
498 539
498 550
499 445
499 449
499 453
499 469
499 471
499 472
499 483
499 498
499 501
499 506
499 517
499 529
499 531
499 536
499 539
500 443
500 447
500 452
500 466
500 476
500 477
500 491
500 493
500 508
500 515
500 519
500 523
500 526
500 535
500 544
500 555
500 557
501 453
501 464
501 467
501 469
501 472
501 483
501 499
501 507
501 517
501 518
501 529
501 536
501 540
501 554
502 456
502 458
502 464
502 479
502 487
502 503
502 514
502 518
502 520
502 538
502 547
502 559
502 564
503 456
503 459
503 465
503 473
503 487
503 489
503 502
503 509
503 512
503 514
503 542
503 543
503 560
504 474
504 476
504 485
504 491
504 523
504 525
504 535
504 545
504 549
505 450
505 460
505 465
505 475
505 484
505 489
505 490
505 509
505 512
505 528
505 533
505 543
505 561
505 565
505 566
506 469
506 471
506 472
506 478
506 482
506 498
506 499
506 508
506 516
506 517
506 531
506 537
506 539
506 548
506 550
506 576
507 464
507 467
507 479
507 483
507 501
507 518
507 520
507 529
507 536
507 540
507 547
507 554
507 567
507 571
508 451
508 477
508 478
508 482
508 493
508 500
508 506
508 515
508 516
508 519
508 526
508 531
508 537
508 544
508 548
508 556
508 558
508 574
509 459
509 465
509 473
509 484
509 489
509 503
509 505
509 512
509 514
509 533
509 542
509 543
509 565
510 457
510 462
510 480
510 486
510 492
510 494
510 497
510 513
510 524
510 527
510 532
510 541
510 551
510 573
510 581
511 455
511 461
511 481
511 488
511 496
511 497
511 521
511 522
511 527
511 534
511 552
511 553
511 563
511 570
511 578
512 460
512 465
512 473
512 484
512 489
512 503
512 505
512 509
512 533
512 542
512 543
512 565
512 566
513 454
513 462
513 480
513 486
513 492
513 494
513 495
513 510
513 524
513 530
513 532
513 541
513 562
513 572
513 581
514 456
514 473
514 487
514 489
514 502
514 503
514 509
514 520
514 538
514 542
514 559
514 560
514 564
515 466
515 476
515 477
515 478
515 491
515 493
515 500
515 508
515 519
515 523
515 526
515 535
515 537
515 544
515 555
515 556
515 557
515 574
516 471
516 478
516 482
516 498
516 506
516 508
516 519
516 531
516 537
516 539
516 548
516 550
516 556
516 558
516 576
517 469
517 471
517 472
517 483
517 498
517 499
517 501
517 506
517 529
517 531
517 536
517 539
517 550
517 554
517 577
517 580
518 464
518 467
518 479
518 501
518 502
518 507
518 520
518 529
518 538
518 540
518 547
518 554
518 567
518 571
519 477
519 478
519 493
519 500
519 508
519 515
519 516
519 523
519 526
519 537
519 544
519 548
519 556
519 557
519 558
519 574
520 464
520 479
520 487
520 502
520 507
520 514
520 518
520 538
520 540
520 547
520 559
520 564
520 567
520 571
521 463
521 481
521 496
521 511
521 522
521 552
521 568
521 570
521 578
521 590
522 481
522 488
522 496
522 511
522 521
522 534
522 552
522 563
522 568
522 570
522 578
522 590
523 466
523 476
523 491
523 493
523 500
523 504
523 515
523 519
523 525
523 526
523 535
523 544
523 545
523 549
523 555
523 557
523 575
523 588
524 468
524 480
524 492
524 495
524 510
524 513
524 530
524 541
524 546
524 562
524 572
524 581
524 591
525 474
525 485
525 491
525 504
525 523
525 535
525 545
525 549
525 555
525 575
525 579
525 582
526 466
526 476
526 477
526 491
526 493
526 500
526 508
526 515
526 519
526 523
526 535
526 544
526 545
526 555
526 556
526 557
526 574
526 575
526 585
526 588
527 470
527 488
527 494
527 497
527 510
527 511
527 532
527 534
527 551
527 553
527 563
527 569
527 570
527 573
527 589
527 596
528 475
528 484
528 490
528 495
528 505
528 530
528 533
528 546
528 561
528 565
528 566
528 594
529 483
529 499
529 501
529 507
529 517
529 518
529 536
529 539
529 540
529 554
529 567
529 571
529 577
529 583
530 468
530 480
530 490
530 492
530 495
530 513
530 524
530 528
530 546
530 561
530 562
530 572
530 591
531 471
531 472
531 482
531 498
531 499
531 506
531 508
531 516
531 517
531 537
531 539
531 548
531 550
531 558
531 576
531 580
531 592
532 486
532 492
532 494
532 497
532 510
532 513
532 527
532 541
532 551
532 553
532 569
532 572
532 573
532 581
532 602
533 475
533 484
533 490
533 505
533 509
533 512
533 528
533 543
533 546
533 561
533 565
533 566
533 594
533 598
534 488
534 497
534 511
534 522
534 527
534 551
534 552
534 553
534 563
534 569
534 570
534 578
534 589
534 597
535 476
535 485
535 491
535 500
535 504
535 515
535 523
535 525
535 526
535 545
535 549
535 555
535 557
535 575
535 582
535 588
536 483
536 499
536 501
536 507
536 517
536 529
536 539
536 540
536 550
536 554
536 567
536 577
536 580
536 583
537 478
537 482
537 506
537 508
537 515
537 516
537 519
537 531
537 544
537 548
537 550
537 556
537 557
537 558
537 574
537 592
537 600
538 487
538 502
538 514
538 518
538 520
538 542
538 547
538 559
538 560
538 564
538 571
538 586
538 593
538 595
539 498
539 499
539 506
539 516
539 517
539 529
539 531
539 536
539 548
539 550
539 554
539 576
539 577
539 580
540 501
540 507
540 518
540 520
540 529
540 536
540 547
540 554
540 567
540 571
540 583
540 593
540 608
541 486
541 492
541 494
541 510
541 513
541 524
541 532
541 551
541 562
541 569
541 572
541 573
541 581
541 599
541 602
542 489
542 503
542 509
542 512
542 514
542 538
542 543
542 559
542 560
542 564
542 565
542 584
542 587
542 595
543 489
543 503
543 505
543 509
543 512
543 533
543 542
543 560
543 565
543 566
543 584
543 587
543 598
543 601
544 493
544 500
544 508
544 515
544 519
544 523
544 526
544 537
544 548
544 555
544 556
544 557
544 558
544 574
544 585
544 588
544 600
545 491
545 504
545 523
545 525
545 526
545 535
545 549
545 555
545 575
545 579
545 582
545 588
545 604
545 605
545 612
546 490
546 495
546 524
546 528
546 530
546 533
546 561
546 562
546 566
546 591
546 594
546 603
547 502
547 507
547 518
547 520
547 538
547 540
547 559
547 564
547 567
547 571
547 586
547 593
547 608
548 506
548 508
548 516
548 519
548 531
548 537
548 539
548 544
548 550
548 556
548 558
548 574
548 576
548 592
548 600
548 610
548 611
548 620
549 504
549 523
549 525
549 535
549 545
549 555
549 575
549 579
549 582
549 604
549 605
550 498
550 506
550 516
550 517
550 531
550 536
550 537
550 539
550 548
550 558
550 576
550 577
550 580
550 592
550 610
550 620
551 494
551 497
551 510
551 527
551 532
551 534
551 541
551 553
551 563
551 569
551 573
551 581
551 589
551 596
551 602
551 621
552 496
552 511
552 521
552 522
552 534
552 563
552 568
552 570
552 578
552 590
552 597
552 606
552 609
552 622
553 497
553 511
553 527
553 532
553 534
553 551
553 563
553 569
553 570
553 573
553 578
553 589
553 596
553 597
553 602
553 621
554 501
554 507
554 517
554 518
554 529
554 536
554 539
554 540
554 567
554 571
554 577
554 580
554 583
554 607
554 608
554 613
555 500
555 515
555 523
555 525
555 526
555 535
555 544
555 545
555 549
555 557
555 574
555 575
555 582
555 585
555 588
555 605
555 612
555 623
556 508
556 515
556 516
556 519
556 526
556 537
556 544
556 548
556 557
556 558
556 574
556 585
556 592
556 600
556 611
556 615
556 619
557 500
557 515
557 519
557 523
557 526
557 535
557 537
557 544
557 555
557 556
557 558
557 574
557 575
557 585
557 588
557 600
557 615
557 619
557 623
558 508
558 516
558 519
558 531
558 537
558 544
558 548
558 550
558 556
558 557
558 574
558 576
558 585
558 592
558 600
558 611
558 615
558 620
559 502
559 514
559 520
559 538
559 542
559 547
559 560
559 564
559 584
559 586
559 593
559 595
559 614
559 618
560 503
560 514
560 538
560 542
560 543
560 559
560 564
560 584
560 586
560 587
560 595
560 614
560 617
560 618
561 505
561 528
561 530
561 533
561 546
561 562
561 565
561 566
561 594
561 598
561 603
561 616
562 513
562 524
562 530
562 541
562 546
562 561
562 572
562 581
562 591
562 594
562 599
562 603
563 511
563 522
563 527
563 534
563 551
563 552
563 553
563 569
563 570
563 578
563 589
563 596
563 597
563 609
563 626
564 502
564 514
564 520
564 538
564 542
564 547
564 559
564 560
564 571
564 584
564 586
564 593
564 595
564 614
564 618
565 505
565 509
565 512
565 528
565 533
565 542
565 543
565 561
565 566
565 584
565 587
565 594
565 598
565 601
565 624
566 505
566 512
566 528
566 533
566 543
566 546
566 561
566 565
566 587
566 594
566 598
566 601
566 616
566 624
567 507
567 518
567 520
567 529
567 536
567 540
567 547
567 554
567 571
567 577
567 583
567 593
567 608
567 613
568 521
568 522
568 552
568 570
568 578
568 590
568 606
568 609
568 622
569 527
569 532
569 534
569 541
569 551
569 553
569 563
569 570
569 573
569 581
569 589
569 596
569 597
569 602
569 621
569 626
570 511
570 521
570 522
570 527
570 534
570 552
570 553
570 563
570 568
570 569
570 578
570 589
570 590
570 596
570 597
570 606
570 609
570 622
570 626
571 507
571 518
571 520
571 529
571 538
571 540
571 547
571 554
571 564
571 567
571 583
571 586
571 593
571 608
572 513
572 524
572 530
572 532
572 541
572 562
572 573
572 581
572 591
572 599
572 602
572 625
573 510
573 527
573 532
573 541
573 551
573 553
573 569
573 572
573 581
573 589
573 596
573 599
573 602
573 621
573 625
574 508
574 515
574 519
574 526
574 537
574 544
574 548
574 555
574 556
574 557
574 558
574 585
574 588
574 600
574 611
574 615
574 619
574 623
575 523
575 525
575 526
575 535
575 545
575 549
575 555
575 557
575 579
575 582
575 585
575 588
575 604
575 605
575 612
575 623
576 506
576 516
576 531
576 539
576 548
576 550
576 558
576 577
576 580
576 592
576 600
576 607
576 610
576 611
576 620
577 517
577 529
577 536
577 539
577 550
577 554
577 567
577 576
577 580
577 583
577 607
577 610
577 613
578 511
578 521
578 522
578 534
578 552
578 553
578 563
578 568
578 570
578 589
578 590
578 597
578 606
578 609
578 622
578 626
579 525
579 545
579 549
579 575
579 582
579 604
579 605
580 517
580 531
580 536
580 539
580 550
580 554
580 576
580 577
580 583
580 592
580 607
580 610
580 613
580 620
581 510
581 513
581 524
581 532
581 541
581 551
581 562
581 569
581 572
581 573
581 591
581 596
581 599
581 602
581 621
581 625
582 525
582 535
582 545
582 549
582 555
582 575
582 579
582 588
582 604
582 605
582 612
582 623
583 529
583 536
583 540
583 554
583 567
583 571
583 577
583 580
583 607
583 608
583 613
584 542
584 543
584 559
584 560
584 564
584 565
584 586
584 587
584 595
584 601
584 614
584 617
584 624
585 526
585 544
585 555
585 556
585 557
585 558
585 574
585 575
585 588
585 600
585 612
585 615
585 619
585 623
586 538
586 547
586 559
586 560
586 564
586 571
586 584
586 593
586 595
586 614
586 618
587 542
587 543
587 560
587 565
587 566
587 584
587 598
587 601
587 614
587 617
587 624
588 523
588 526
588 535
588 544
588 545
588 555
588 557
588 574
588 575
588 582
588 585
588 605
588 612
588 619
588 623
589 527
589 534
589 551
589 553
589 563
589 569
589 570
589 573
589 578
589 596
589 597
589 602
589 609
589 621
589 626
590 521
590 522
590 552
590 568
590 570
590 578
590 597
590 606
590 609
590 622
590 626
591 524
591 530
591 546
591 562
591 572
591 581
591 599
591 603
592 531
592 537
592 548
592 550
592 556
592 558
592 576
592 580
592 600
592 610
592 611
592 615
592 620
593 538
593 540
593 547
593 559
593 564
593 567
593 571
593 586
593 595
593 608
593 618
594 528
594 533
594 546
594 561
594 562
594 565
594 566
594 598
594 601
594 603
594 616
595 538
595 542
595 559
595 560
595 564
595 584
595 586
595 593
595 614
595 617
595 618
596 527
596 551
596 553
596 563
596 569
596 570
596 573
596 581
596 589
596 597
596 602
596 621
596 625
596 626
597 534
597 552
597 553
597 563
597 569
597 570
597 578
597 589
597 590
597 596
597 606
597 609
597 621
597 622
597 626
598 533
598 543
598 561
598 565
598 566
598 587
598 594
598 601
598 603
598 616
598 624
599 541
599 562
599 572
599 573
599 581
599 591
599 602
599 603
599 625
600 537
600 544
600 548
600 556
600 557
600 558
600 574
600 576
600 585
600 592
600 610
600 611
600 615
600 619
600 620
601 543
601 565
601 566
601 584
601 587
601 594
601 598
601 616
601 617
601 624
602 532
602 541
602 551
602 553
602 569
602 572
602 573
602 581
602 589
602 596
602 599
602 621
602 625
603 546
603 561
603 562
603 591
603 594
603 598
603 599
603 616
604 545
604 549
604 575
604 579
604 582
604 605
604 612
605 545
605 549
605 555
605 575
605 579
605 582
605 588
605 604
605 612
605 623
606 552
606 568
606 570
606 578
606 590
606 597
606 609
606 622
607 554
607 576
607 577
607 580
607 583
607 608
607 610
607 613
608 540
608 547
608 554
608 567
608 571
608 583
608 593
608 607
608 613
609 552
609 563
609 568
609 570
609 578
609 589
609 590
609 597
609 606
609 622
609 626
610 548
610 550
610 576
610 577
610 580
610 592
610 600
610 607
610 611
610 620
611 548
611 556
611 558
611 574
611 576
611 592
611 600
611 610
611 615
611 619
611 620
612 545
612 555
612 575
612 582
612 585
612 588
612 604
612 605
612 619
612 623
613 554
613 567
613 577
613 580
613 583
613 607
613 608
614 559
614 560
614 564
614 584
614 586
614 587
614 595
614 617
614 618
615 556
615 557
615 558
615 574
615 585
615 592
615 600
615 611
615 619
615 620
615 623
616 561
616 566
616 594
616 598
616 601
616 603
616 624
617 560
617 584
617 587
617 595
617 601
617 614
617 618
617 624
618 559
618 560
618 564
618 586
618 593
618 595
618 614
618 617
619 556
619 557
619 574
619 585
619 588
619 600
619 611
619 612
619 615
619 623
620 548
620 550
620 558
620 576
620 580
620 592
620 600
620 610
620 611
620 615
621 551
621 553
621 569
621 573
621 581
621 589
621 596
621 597
621 602
621 625
621 626
622 552
622 568
622 570
622 578
622 590
622 597
622 606
622 609
622 626
623 555
623 557
623 574
623 575
623 582
623 585
623 588
623 605
623 612
623 615
623 619
624 565
624 566
624 584
624 587
624 598
624 601
624 616
624 617
625 572
625 573
625 581
625 596
625 599
625 602
625 621
626 563
626 569
626 570
626 578
626 589
626 590
626 596
626 597
626 609
626 621
626 622
