1 7
1 16
1 20
1 31
2 5
2 13
2 17
2 21
3 8
3 15
3 32
3 33
4 6
4 8
4 18
4 25
5 2
5 17
5 21
5 34
5 40
6 4
6 10
6 18
6 23
6 25
7 1
7 19
7 20
7 29
7 42
8 3
8 4
8 15
8 18
8 32
8 33
8 39
8 44
9 14
9 47
10 6
10 19
10 23
10 25
10 36
11 24
11 28
12 27
12 30
12 35
13 2
13 17
13 22
13 28
13 37
13 43
14 9
14 30
14 45
14 47
15 3
15 8
15 32
15 33
15 39
16 1
16 20
16 31
16 38
16 46
17 2
17 5
17 13
17 21
17 22
17 34
17 37
17 40
18 4
18 6
18 8
18 23
18 25
18 32
18 44
18 49
19 7
19 10
19 23
19 36
19 42
20 1
20 7
20 16
20 29
20 31
20 46
20 48
21 2
21 5
21 17
21 34
21 40
21 41
21 60
22 13
22 17
22 28
22 37
22 43
22 59
23 6
23 10
23 18
23 19
23 25
23 36
23 52
23 54
24 11
24 26
24 50
25 4
25 6
25 10
25 18
25 23
25 44
25 49
25 52
25 54
26 24
26 50
27 12
27 30
27 35
27 51
27 53
27 57
28 11
28 13
28 22
28 43
28 55
28 65
29 7
29 20
29 31
29 42
29 48
29 62
30 12
30 14
30 27
30 35
30 45
30 51
30 53
31 1
31 16
31 20
31 29
31 38
31 46
31 48
31 61
32 3
32 8
32 15
32 18
32 33
32 39
32 44
32 49
32 58
32 64
33 3
33 8
33 15
33 32
33 39
33 56
33 58
34 5
34 17
34 21
34 37
34 40
34 60
34 67
34 68
35 12
35 27
35 30
35 51
35 57
36 10
36 19
36 23
36 42
36 52
36 54
36 63
36 73
37 13
37 17
37 22
37 34
37 40
37 43
37 59
37 60
37 67
38 16
38 31
38 46
38 61
39 8
39 15
39 32
39 33
39 44
39 56
39 58
39 64
39 72
39 77
40 5
40 17
40 21
40 34
40 37
40 41
40 60
40 67
40 68
41 21
41 40
41 47
41 66
41 68
42 7
42 19
42 29
42 36
42 48
42 62
42 63
43 13
43 22
43 28
43 37
43 55
43 59
43 65
43 85
44 8
44 18
44 25
44 32
44 39
44 49
44 58
44 64
44 69
45 14
45 30
45 47
45 51
45 53
45 71
45 74
45 90
46 16
46 20
46 31
46 38
46 48
46 61
46 70
46 82
47 9
47 14
47 41
47 45
47 53
47 66
47 71
47 74
47 75
47 88
48 20
48 29
48 31
48 42
48 46
48 61
48 62
48 70
48 84
49 18
49 25
49 32
49 44
49 52
49 64
49 69
49 80
50 24
50 26
50 78
50 83
51 27
51 30
51 35
51 45
51 53
51 57
51 74
51 76
52 23
52 25
52 36
52 49
52 54
52 69
52 73
52 80
52 86
52 89
53 27
53 30
53 45
53 47
53 51
53 71
53 74
53 76
53 90
54 23
54 25
54 36
54 52
54 63
54 73
54 86
54 89
54 96
55 28
55 43
55 65
55 79
55 85
56 33
56 39
56 57
56 58
56 64
56 72
56 77
56 81
57 27
57 35
57 51
57 56
57 76
57 81
57 95
58 32
58 33
58 39
58 44
58 56
58 64
58 72
58 77
58 87
58 104
59 22
59 37
59 43
59 60
59 65
59 67
59 85
59 92
59 93
60 21
60 34
60 37
60 40
60 59
60 67
60 68
60 93
60 101
61 31
61 38
61 46
61 48
61 70
61 82
61 94
62 29
62 42
62 48
62 63
62 70
62 84
63 36
63 42
63 54
63 62
63 73
63 96
63 106
64 32
64 39
64 44
64 49
64 56
64 58
64 69
64 72
64 77
64 87
64 104
64 109
65 28
65 43
65 55
65 59
65 79
65 85
65 92
65 98
66 41
66 47
66 71
66 75
66 88
67 34
67 37
67 40
67 59
67 60
67 68
67 92
67 93
67 101
67 108
68 34
68 40
68 41
68 60
68 67
68 99
68 101
69 44
69 49
69 52
69 64
69 80
69 86
69 87
69 102
70 46
70 48
70 61
70 62
70 82
70 84
70 94
71 45
71 47
71 53
71 66
71 74
71 75
71 88
71 90
71 97
72 39
72 56
72 58
72 64
72 77
72 81
72 87
72 103
72 104
73 36
73 52
73 54
73 63
73 86
73 89
73 96
73 106
73 116
73 119
74 45
74 47
74 51
74 53
74 71
74 76
74 88
74 90
74 97
74 100
74 124
75 47
75 66
75 71
75 88
75 90
75 99
75 112
75 120
75 121
76 51
76 53
76 57
76 74
76 81
76 95
76 97
76 100
76 126
77 39
77 56
77 58
77 64
77 72
77 87
77 103
77 104
77 109
78 50
78 83
78 91
78 107
78 110
78 114
79 55
79 65
79 85
79 91
79 98
79 105
80 49
80 52
80 69
80 86
80 87
80 89
80 102
80 111
81 56
81 57
81 72
81 76
81 95
81 100
81 103
81 118
81 128
82 46
82 61
82 70
82 94
82 113
83 50
83 78
83 91
83 107
83 110
83 114
84 48
84 62
84 70
84 94
84 106
84 117
84 122
85 43
85 55
85 59
85 65
85 79
85 92
85 98
85 105
85 108
85 125
85 127
86 52
86 54
86 69
86 73
86 80
86 89
86 96
86 102
86 111
86 116
87 58
87 64
87 69
87 72
87 77
87 80
87 102
87 103
87 104
87 109
87 135
88 47
88 66
88 71
88 74
88 75
88 90
88 112
88 120
88 124
88 134
89 52
89 54
89 73
89 80
89 86
89 96
89 111
89 116
89 119
90 45
90 53
90 71
90 74
90 75
90 88
90 97
90 112
90 120
90 124
91 78
91 79
91 83
91 105
91 107
91 114
91 130
91 136
92 59
92 65
92 67
92 85
92 93
92 98
92 108
92 115
92 125
92 127
93 59
93 60
93 67
93 92
93 101
93 108
93 115
93 123
93 125
93 129
94 61
94 70
94 82
94 84
94 113
94 117
94 137
95 57
95 76
95 81
95 97
95 100
95 118
95 126
95 128
96 54
96 63
96 73
96 86
96 89
96 106
96 116
96 119
97 71
97 74
97 76
97 90
97 95
97 100
97 120
97 124
97 126
97 128
98 65
98 79
98 85
98 92
98 105
98 108
98 125
98 127
99 68
99 75
99 101
99 112
99 121
99 123
99 133
99 144
100 74
100 76
100 81
100 95
100 97
100 118
100 124
100 126
100 128
100 154
101 60
101 67
101 68
101 93
101 99
101 108
101 115
101 121
101 123
101 129
101 133
101 146
102 69
102 80
102 86
102 87
102 104
102 109
102 111
102 141
102 147
103 72
103 77
103 81
103 87
103 104
103 109
103 118
103 131
103 135
104 58
104 64
104 72
104 77
104 87
104 102
104 103
104 109
104 131
104 135
105 79
105 85
105 91
105 98
105 114
105 127
105 130
105 136
105 138
106 63
106 73
106 84
106 96
106 116
106 119
106 122
106 139
106 148
107 78
107 83
107 91
107 110
107 114
107 130
107 132
107 136
107 140
107 145
108 67
108 85
108 92
108 93
108 98
108 101
108 115
108 123
108 125
108 127
108 129
108 149
108 157
109 64
109 77
109 87
109 102
109 103
109 104
109 111
109 131
109 135
109 147
109 150
109 160
110 78
110 83
110 107
110 114
110 132
110 140
110 145
111 80
111 86
111 89
111 102
111 109
111 116
111 141
111 147
112 75
112 88
112 90
112 99
112 120
112 121
112 134
112 144
112 163
113 82
113 94
113 137
114 78
114 83
114 91
114 105
114 107
114 110
114 130
114 132
114 136
114 138
114 140
114 145
114 164
115 92
115 93
115 101
115 108
115 123
115 125
115 129
115 146
115 149
115 157
115 159
116 73
116 86
116 89
116 96
116 106
116 111
116 119
116 141
116 148
116 151
116 153
117 84
117 94
117 122
117 137
117 139
117 142
117 161
117 162
118 81
118 95
118 100
118 103
118 126
118 128
118 143
118 154
119 73
119 89
119 96
119 106
119 116
119 122
119 139
119 148
119 151
119 153
120 75
120 88
120 90
120 97
120 112
120 124
120 134
120 152
120 155
121 75
121 99
121 101
121 112
121 123
121 133
121 134
121 144
121 163
122 84
122 106
122 117
122 119
122 139
122 142
122 148
122 162
122 171
123 93
123 99
123 101
123 108
123 115
123 121
123 129
123 133
123 144
123 146
123 159
123 165
123 172
124 74
124 88
124 90
124 97
124 100
124 120
124 126
124 134
124 152
124 154
124 155
125 85
125 92
125 93
125 98
125 108
125 115
125 127
125 129
125 149
125 157
125 158
126 76
126 95
126 97
126 100
126 118
126 124
126 128
126 143
126 154
126 155
127 85
127 92
127 98
127 105
127 108
127 125
127 130
127 138
127 149
127 156
127 158
127 170
128 81
128 95
128 97
128 100
128 118
128 126
128 143
128 154
128 174
129 93
129 101
129 108
129 115
129 123
129 125
129 133
129 146
129 149
129 157
129 159
129 172
130 91
130 105
130 107
130 114
130 127
130 136
130 138
130 140
130 156
130 164
130 166
131 103
131 104
131 109
131 135
131 143
131 150
131 160
132 107
132 110
132 114
132 140
132 145
132 169
132 173
133 99
133 101
133 121
133 123
133 129
133 144
133 146
133 165
133 172
133 177
134 88
134 112
134 120
134 121
134 124
134 144
134 152
134 163
134 175
135 87
135 103
135 104
135 109
135 131
135 150
135 160
136 91
136 105
136 107
136 114
136 130
136 138
136 140
136 145
136 164
136 166
136 173
136 184
137 94
137 113
137 117
137 142
137 161
137 168
138 105
138 114
138 127
138 130
138 136
138 156
138 164
138 166
138 170
139 106
139 117
139 119
139 122
139 148
139 151
139 162
139 171
139 186
140 107
140 110
140 114
140 130
140 132
140 136
140 145
140 164
140 169
140 173
140 184
141 102
141 111
141 116
141 147
141 150
141 153
141 167
142 117
142 122
142 137
142 161
142 162
142 168
142 179
142 188
143 118
143 126
143 128
143 131
143 154
143 174
143 176
143 190
144 99
144 112
144 121
144 123
144 133
144 134
144 146
144 163
144 165
144 172
144 177
144 185
145 107
145 110
145 114
145 132
145 136
145 140
145 164
145 169
145 173
146 101
146 115
146 123
146 129
146 133
146 144
146 157
146 159
146 165
146 172
146 177
147 102
147 109
147 111
147 141
147 150
147 153
147 160
147 167
147 180
147 194
148 106
148 116
148 119
148 122
148 139
148 151
148 153
148 171
148 178
148 186
149 108
149 115
149 125
149 127
149 129
149 157
149 158
149 159
149 170
149 182
150 109
150 131
150 135
150 141
150 147
150 160
150 180
150 189
151 116
151 119
151 139
151 148
151 153
151 178
151 186
151 200
152 120
152 124
152 134
152 155
152 163
152 175
152 181
153 116
153 119
153 141
153 147
153 148
153 151
153 167
153 178
153 199
154 100
154 118
154 124
154 126
154 128
154 143
154 155
154 174
154 176
154 181
154 183
154 190
155 120
155 124
155 126
155 152
155 154
155 175
155 181
155 183
155 201
156 127
156 130
156 138
156 158
156 166
156 170
156 191
156 193
157 108
157 115
157 125
157 129
157 146
157 149
157 158
157 159
157 172
157 182
157 203
158 125
158 127
158 149
158 156
158 157
158 170
158 182
158 193
159 115
159 123
159 129
159 146
159 149
159 157
159 165
159 172
159 182
159 203
160 109
160 131
160 135
160 147
160 150
160 180
160 187
160 189
161 117
161 137
161 142
161 162
161 168
161 179
161 188
161 192
161 198
162 117
162 122
162 139
162 142
162 161
162 171
162 179
162 186
162 197
162 198
163 112
163 121
163 134
163 144
163 152
163 165
163 175
163 177
163 185
163 204
163 212
164 114
164 130
164 136
164 138
164 140
164 145
164 166
164 169
164 173
164 184
164 191
164 196
165 123
165 133
165 144
165 146
165 159
165 163
165 172
165 177
165 202
165 205
165 207
166 130
166 136
166 138
166 156
166 164
166 170
166 184
166 191
166 193
166 211
167 141
167 147
167 153
167 178
167 180
167 194
167 199
167 208
168 137
168 142
168 161
168 179
168 188
168 192
168 195
168 215
169 132
169 140
169 145
169 164
169 173
169 184
169 196
169 206
170 127
170 138
170 149
170 156
170 158
170 166
170 182
170 191
170 193
170 211
171 122
171 139
171 148
171 162
171 179
171 186
171 197
171 198
171 221
172 123
172 129
172 133
172 144
172 146
172 157
172 159
172 165
172 177
172 202
172 203
172 205
173 132
173 136
173 140
173 145
173 164
173 169
173 184
173 191
173 196
173 206
173 218
173 219
174 128
174 143
174 154
174 176
174 183
174 190
174 209
174 210
174 217
175 134
175 152
175 155
175 163
175 181
175 185
175 204
175 212
175 213
176 143
176 154
176 174
176 183
176 187
176 190
176 209
176 210
176 217
177 133
177 144
177 146
177 163
177 165
177 172
177 185
177 202
177 205
177 207
177 212
178 148
178 151
178 153
178 167
178 199
178 200
178 208
178 223
179 142
179 161
179 162
179 168
179 171
179 188
179 192
179 197
179 198
179 215
179 225
180 147
180 150
180 160
180 167
180 187
180 189
180 194
180 208
180 220
180 226
181 152
181 154
181 155
181 175
181 183
181 190
181 201
181 204
181 213
181 217
182 149
182 157
182 158
182 159
182 170
182 193
182 203
182 214
182 222
182 235
183 154
183 155
183 174
183 176
183 181
183 190
183 201
183 210
183 217
184 136
184 140
184 164
184 166
184 169
184 173
184 191
184 196
184 218
184 219
185 144
185 163
185 175
185 177
185 204
185 207
185 212
185 213
185 233
185 237
186 139
186 148
186 151
186 162
186 171
186 197
186 198
186 200
186 221
186 224
187 160
187 176
187 180
187 189
187 209
187 216
188 142
188 161
188 168
188 179
188 192
188 195
188 198
188 215
188 225
189 150
189 160
189 180
189 187
189 194
189 216
189 220
189 226
190 143
190 154
190 174
190 176
190 181
190 183
190 201
190 209
190 210
190 217
190 230
191 156
191 164
191 166
191 170
191 173
191 184
191 193
191 196
191 211
191 218
191 231
191 236
192 161
192 168
192 179
192 188
192 195
192 215
193 156
193 158
193 166
193 170
193 182
193 191
193 211
193 214
193 222
193 236
194 147
194 167
194 180
194 189
194 199
194 208
194 220
194 226
194 232
195 168
195 188
195 192
195 215
196 164
196 169
196 173
196 184
196 191
196 206
196 218
196 219
196 227
196 240
196 242
197 162
197 171
197 179
197 186
197 198
197 200
197 221
197 224
197 225
197 247
198 161
198 162
198 171
198 179
198 186
198 188
198 197
198 215
198 221
198 224
198 225
198 247
199 153
199 167
199 178
199 194
199 200
199 208
199 223
199 232
200 151
200 178
200 186
200 197
200 199
200 223
200 224
200 245
201 155
201 181
201 183
201 190
201 204
201 213
201 217
201 234
201 238
201 239
201 244
202 165
202 172
202 177
202 203
202 205
202 207
202 228
202 229
202 246
203 157
203 159
203 172
203 182
203 202
203 205
203 214
203 228
203 235
203 251
204 163
204 175
204 181
204 185
204 201
204 212
204 213
204 233
204 234
204 237
204 238
205 165
205 172
205 177
205 202
205 203
205 207
205 212
205 228
205 229
205 246
206 169
206 173
206 196
206 219
206 227
206 240
207 165
207 177
207 185
207 202
207 205
207 212
207 228
207 229
207 237
207 246
207 252
208 167
208 178
208 180
208 194
208 199
208 220
208 223
208 232
208 255
209 174
209 176
209 187
209 190
209 210
209 216
209 217
209 230
209 243
209 253
210 174
210 176
210 183
210 190
210 209
210 217
210 230
210 243
210 244
210 253
211 166
211 170
211 191
211 193
211 214
211 222
211 231
211 236
211 241
211 249
212 163
212 175
212 177
212 185
212 204
212 205
212 207
212 213
212 229
212 233
212 234
212 237
212 252
212 254
213 175
213 181
213 185
213 201
213 204
213 212
213 233
213 234
213 237
213 238
213 239
213 259
214 182
214 193
214 203
214 211
214 222
214 235
214 241
214 249
215 168
215 179
215 188
215 192
215 195
215 198
215 225
215 250
216 187
216 189
216 209
216 226
216 230
216 248
216 260
216 267
217 174
217 176
217 181
217 183
217 190
217 201
217 209
217 210
217 230
217 238
217 239
217 243
217 244
218 173
218 184
218 191
218 196
218 219
218 227
218 231
218 236
218 240
218 242
218 262
219 173
219 184
219 196
219 206
219 218
219 227
219 231
219 240
219 242
219 266
220 180
220 189
220 194
220 208
220 226
220 232
220 248
220 255
220 264
221 171
221 186
221 197
221 198
221 224
221 225
221 247
221 250
221 256
222 182
222 193
222 211
222 214
222 235
222 236
222 241
222 249
222 269
222 273
223 178
223 199
223 200
223 208
223 245
223 258
223 265
223 271
224 186
224 197
224 198
224 200
224 221
224 225
224 245
224 247
224 256
225 179
225 188
225 197
225 198
225 215
225 221
225 224
225 247
225 250
226 180
226 189
226 194
226 216
226 220
226 232
226 248
226 255
226 260
226 264
226 278
227 196
227 206
227 218
227 219
227 240
227 242
227 266
228 202
228 203
228 205
228 207
228 229
228 235
228 246
228 251
228 252
228 257
228 274
229 202
229 205
229 207
229 212
229 228
229 233
229 237
229 246
229 252
229 254
229 257
229 274
229 275
230 190
230 209
230 210
230 216
230 217
230 243
230 244
230 253
230 270
230 279
231 191
231 211
231 218
231 219
231 236
231 240
231 242
231 249
231 261
231 262
231 272
231 286
232 194
232 199
232 208
232 220
232 226
232 255
232 258
232 264
232 281
233 185
233 204
233 212
233 213
233 229
233 234
233 237
233 238
233 252
233 254
233 259
233 263
233 276
234 201
234 204
234 212
234 213
234 233
234 237
234 238
234 239
234 254
234 259
234 263
235 182
235 203
235 214
235 222
235 228
235 241
235 249
235 251
235 257
235 268
235 269
236 191
236 193
236 211
236 218
236 222
236 231
236 242
236 249
236 261
236 262
236 273
236 286
237 185
237 204
237 207
237 212
237 213
237 229
237 233
237 234
237 246
237 252
237 254
237 259
237 275
237 276
238 201
238 204
238 213
238 217
238 233
238 234
238 239
238 244
238 259
238 263
238 277
239 201
239 213
239 217
239 234
239 238
239 243
239 244
239 259
239 263
239 270
239 277
240 196
240 206
240 218
240 219
240 227
240 231
240 242
240 262
240 266
240 272
240 284
241 211
241 214
241 222
241 235
241 249
241 251
241 268
241 269
241 273
242 196
242 218
242 219
242 227
242 231
242 236
242 240
242 261
242 262
242 266
242 272
242 284
243 209
243 210
243 217
243 230
243 239
243 244
243 253
243 270
243 277
243 279
244 201
244 210
244 217
244 230
244 238
244 239
244 243
244 253
244 263
244 270
244 277
244 279
244 300
245 200
245 223
245 224
245 247
245 256
245 265
245 271
245 283
245 298
246 202
246 205
246 207
246 228
246 229
246 237
246 252
246 254
246 257
246 274
246 275
246 288
247 197
247 198
247 221
247 224
247 225
247 245
247 250
247 256
247 280
247 282
247 283
248 216
248 220
248 226
248 260
248 264
248 267
248 278
248 292
249 211
249 214
249 222
249 231
249 235
249 236
249 241
249 261
249 268
249 269
249 273
249 286
249 290
249 297
250 215
250 221
250 225
250 247
250 280
250 282
250 285
251 203
251 228
251 235
251 241
251 257
251 268
251 269
251 287
251 288
251 294
252 207
252 212
252 228
252 229
252 233
252 237
252 246
252 254
252 257
252 274
252 275
252 276
252 302
253 209
253 210
253 230
253 243
253 244
253 267
253 270
253 279
253 304
254 212
254 229
254 233
254 234
254 237
254 246
254 252
254 259
254 274
254 275
254 276
254 291
254 302
254 310
255 208
255 220
255 226
255 232
255 258
255 264
255 271
255 281
255 289
255 292
256 221
256 224
256 245
256 247
256 265
256 280
256 283
256 298
257 228
257 229
257 235
257 246
257 251
257 252
257 268
257 274
257 275
257 287
257 288
257 306
258 223
258 232
258 255
258 264
258 265
258 271
258 281
258 289
259 213
259 233
259 234
259 237
259 238
259 239
259 254
259 263
259 276
259 277
259 291
259 296
260 216
260 226
260 248
260 264
260 267
260 278
260 303
260 308
261 231
261 236
261 242
261 249
261 262
261 272
261 273
261 286
261 297
261 299
262 218
262 231
262 236
262 240
262 242
262 261
262 272
262 284
262 286
262 299
263 233
263 234
263 238
263 239
263 244
263 259
263 270
263 277
263 291
263 296
263 307
264 220
264 226
264 232
264 248
264 255
264 258
264 260
264 278
264 281
264 292
264 308
265 223
265 245
265 256
265 258
265 271
265 289
265 298
265 312
266 219
266 227
266 240
266 242
266 272
266 284
266 293
267 216
267 248
267 253
267 260
267 278
267 279
267 303
268 235
268 241
268 249
268 251
268 257
268 269
268 273
268 287
268 288
268 290
268 294
268 301
269 222
269 235
269 241
269 249
269 251
269 268
269 273
269 287
269 290
269 294
269 297
269 301
270 230
270 239
270 243
270 244
270 253
270 263
270 277
270 279
270 296
270 300
270 304
270 307
270 324
271 223
271 245
271 255
271 258
271 265
271 281
271 289
271 298
271 312
271 315
271 325
272 231
272 240
272 242
272 261
272 262
272 266
272 284
272 286
272 293
272 299
272 317
272 319
273 222
273 236
273 241
273 249
273 261
273 268
273 269
273 286
273 290
273 297
273 299
273 301
273 321
274 228
274 229
274 246
274 252
274 254
274 257
274 275
274 276
274 288
274 302
274 306
274 313
274 320
275 229
275 237
275 246
275 252
275 254
275 257
275 274
275 276
275 288
275 302
275 306
275 310
275 320
276 233
276 237
276 252
276 254
276 259
276 274
276 275
276 291
276 302
276 310
276 314
277 238
277 239
277 243
277 244
277 259
277 263
277 270
277 296
277 300
277 307
277 323
277 324
278 226
278 248
278 260
278 264
278 267
278 292
278 303
278 308
279 230
279 243
279 244
279 253
279 267
279 270
279 300
279 303
279 304
280 247
280 250
280 256
280 282
280 283
280 309
280 311
280 316
281 232
281 255
281 258
281 264
281 271
281 289
281 292
281 315
281 325
282 247
282 250
282 280
282 283
282 285
282 309
282 316
282 318
283 245
283 247
283 256
283 280
283 282
283 298
283 309
283 311
283 332
283 340
284 240
284 242
284 262
284 266
284 272
284 293
284 299
284 317
284 331
285 250
285 282
285 295
285 305
285 316
285 318
285 327
286 231
286 236
286 249
286 261
286 262
286 272
286 273
286 290
286 297
286 299
286 319
286 321
287 251
287 257
287 268
287 269
287 288
287 294
287 301
287 313
287 322
287 326
288 246
288 251
288 257
288 268
288 274
288 275
288 287
288 294
288 302
288 306
288 313
288 326
288 341
289 255
289 258
289 265
289 271
289 281
289 292
289 312
289 315
289 325
289 328
289 344
290 249
290 268
290 269
290 273
290 286
290 294
290 297
290 301
290 321
290 334
290 335
291 254
291 259
291 263
291 276
291 296
291 302
291 310
291 314
291 323
291 342
291 349
292 248
292 255
292 264
292 278
292 281
292 289
292 308
292 315
292 330
292 350
293 266
293 272
293 284
293 317
293 331
293 337
294 251
294 268
294 269
294 287
294 288
294 290
294 301
294 313
294 322
294 326
294 335
295 285
295 305
295 318
295 327
295 345
295 346
296 259
296 263
296 270
296 277
296 291
296 300
296 307
296 314
296 323
296 324
296 352
297 249
297 261
297 269
297 273
297 286
297 290
297 299
297 301
297 319
297 321
297 334
298 245
298 256
298 265
298 271
298 283
298 311
298 312
298 328
298 332
298 351
299 261
299 262
299 272
299 273
299 284
299 286
299 297
299 317
299 319
299 321
300 244
300 270
300 277
300 279
300 296
300 304
300 307
300 324
300 333
300 336
301 268
301 269
301 273
301 287
301 290
301 294
301 297
301 321
301 322
301 326
301 334
301 335
302 252
302 254
302 274
302 275
302 276
302 288
302 291
302 306
302 310
302 313
302 314
302 320
302 339
302 342
303 260
303 267
303 278
303 279
303 304
303 308
303 329
303 338
303 348
304 253
304 270
304 279
304 300
304 303
304 329
304 333
304 336
304 338
305 285
305 295
305 318
305 327
305 345
306 257
306 274
306 275
306 288
306 302
306 310
306 313
306 320
306 339
306 341
307 263
307 270
307 277
307 296
307 300
307 323
307 324
307 336
307 352
308 260
308 264
308 278
308 292
308 303
308 329
308 330
308 348
308 350
309 280
309 282
309 283
309 311
309 316
309 332
309 340
309 343
310 254
310 275
310 276
310 291
310 302
310 306
310 314
310 320
310 339
310 342
310 349
310 364
311 280
311 283
311 298
311 309
311 312
311 316
311 332
311 340
311 343
311 351
312 265
312 271
312 289
312 298
312 311
312 325
312 328
312 332
312 351
312 353
312 362
312 365
313 274
313 287
313 288
313 294
313 302
313 306
313 320
313 322
313 326
313 339
313 341
313 360
313 366
314 276
314 291
314 296
314 302
314 310
314 320
314 323
314 342
314 349
314 356
314 364
315 271
315 281
315 289
315 292
315 325
315 328
315 330
315 344
315 350
315 353
315 374
316 280
316 282
316 285
316 309
316 311
316 318
316 340
316 343
316 346
316 367
317 272
317 284
317 293
317 299
317 319
317 331
317 337
317 347
317 354
317 358
318 282
318 285
318 295
318 305
318 316
318 327
318 345
318 346
318 367
319 272
319 286
319 297
319 299
319 317
319 321
319 347
319 354
319 355
319 358
320 274
320 275
320 302
320 306
320 310
320 313
320 314
320 339
320 341
320 342
320 349
320 363
320 364
321 273
321 286
321 290
321 297
321 299
321 301
321 319
321 334
321 335
321 354
321 355
321 359
322 287
322 294
322 301
322 313
322 326
322 334
322 335
322 341
322 359
322 360
322 361
323 277
323 291
323 296
323 307
323 314
323 324
323 349
323 352
323 356
323 371
323 376
324 270
324 277
324 296
324 300
324 307
324 323
324 333
324 336
324 352
324 368
324 376
325 271
325 281
325 289
325 312
325 315
325 328
325 344
325 351
325 353
325 362
326 287
326 288
326 294
326 301
326 313
326 322
326 335
326 341
326 360
326 361
326 366
326 379
327 285
327 295
327 305
327 318
327 345
327 346
327 370
328 289
328 298
328 312
328 315
328 325
328 332
328 344
328 351
328 353
328 362
328 365
329 303
329 304
329 308
329 330
329 338
329 348
329 357
329 375
330 292
330 308
330 315
330 329
330 344
330 348
330 350
330 372
330 373
330 375
331 284
331 293
331 317
331 337
331 347
331 358
331 378
331 383
332 283
332 298
332 309
332 311
332 312
332 328
332 340
332 343
332 351
332 362
332 365
332 369
333 300
333 304
333 324
333 336
333 338
333 368
333 380
333 390
334 290
334 297
334 301
334 321
334 322
334 335
334 355
334 359
334 361
335 290
335 294
335 301
335 321
335 322
335 326
335 334
335 355
335 359
335 360
335 361
336 300
336 304
336 307
336 324
336 333
336 338
336 352
336 368
336 376
336 390
337 293
337 317
337 331
337 347
337 378
337 383
338 303
338 304
338 329
338 333
338 336
338 357
338 368
338 380
339 302
339 306
339 310
339 313
339 320
339 341
339 342
339 363
339 364
339 366
339 389
340 283
340 309
340 311
340 316
340 332
340 343
340 351
340 365
340 369
340 377
340 381
341 288
341 306
341 313
341 320
341 322
341 326
341 339
341 360
341 363
341 366
341 379
341 396
342 291
342 302
342 310
342 314
342 320
342 339
342 349
342 356
342 363
342 364
342 382
342 385
343 309
343 311
343 316
343 332
343 340
343 346
343 367
343 369
343 377
343 381
344 289
344 315
344 325
344 328
344 330
344 350
344 353
344 372
344 374
344 393
345 295
345 305
345 318
345 327
345 346
345 370
346 295
346 316
346 318
346 327
346 343
346 345
346 367
346 370
346 377
346 387
347 317
347 319
347 331
347 337
347 354
347 358
347 383
347 388
348 303
348 308
348 329
348 330
348 350
348 357
348 372
348 373
348 375
349 291
349 310
349 314
349 320
349 323
349 342
349 352
349 356
349 364
349 371
349 382
349 385
350 292
350 308
350 315
350 330
350 344
350 348
350 372
350 373
350 374
350 375
351 298
351 311
351 312
351 325
351 328
351 332
351 340
351 353
351 362
351 365
351 369
351 386
351 394
352 296
352 307
352 323
352 324
352 336
352 349
352 356
352 371
352 376
352 399
353 312
353 315
353 325
353 328
353 344
353 351
353 362
353 365
353 374
353 386
353 393
353 403
354 317
354 319
354 321
354 347
354 355
354 358
354 384
354 388
354 391
355 319
355 321
355 334
355 335
355 354
355 359
355 384
355 391
355 395
356 314
356 323
356 342
356 349
356 352
356 364
356 371
356 376
356 382
356 385
356 399
356 407
357 329
357 338
357 348
357 373
357 375
357 380
357 397
358 317
358 319
358 331
358 347
358 354
358 383
358 384
358 388
358 402
359 321
359 322
359 334
359 335
359 355
359 361
359 391
359 392
359 395
359 409
360 313
360 322
360 326
360 335
360 341
360 361
360 366
360 379
360 392
360 396
360 410
361 322
361 326
361 334
361 335
361 359
361 360
361 366
361 379
361 392
361 395
361 409
362 312
362 325
362 328
362 332
362 351
362 353
362 365
362 369
362 386
362 393
362 394
362 403
362 417
363 320
363 339
363 341
363 342
363 364
363 366
363 385
363 389
363 396
363 415
364 310
364 314
364 320
364 339
364 342
364 349
364 356
364 363
364 382
364 385
364 389
364 407
364 412
365 312
365 328
365 332
365 340
365 351
365 353
365 362
365 369
365 381
365 386
365 394
365 403
365 417
366 313
366 326
366 339
366 341
366 360
366 361
366 363
366 379
366 389
366 396
366 410
367 316
367 318
367 343
367 346
367 377
367 381
367 387
367 398
367 401
367 413
368 324
368 333
368 336
368 338
368 376
368 380
368 390
368 400
368 414
368 416
369 332
369 340
369 343
369 351
369 362
369 365
369 377
369 381
369 394
369 411
369 420
369 424
370 327
370 345
370 346
370 387
370 398
371 323
371 349
371 352
371 356
371 376
371 382
371 385
371 399
371 406
371 407
372 330
372 344
372 348
372 350
372 373
372 374
372 375
372 393
372 404
372 408
372 422
372 423
373 330
373 348
373 350
373 357
373 372
373 374
373 375
373 397
373 408
373 422
374 315
374 344
374 350
374 353
374 372
374 373
374 386
374 393
374 404
374 423
375 329
375 330
375 348
375 350
375 357
375 372
375 373
375 397
375 408
376 323
376 324
376 336
376 352
376 356
376 368
376 371
376 382
376 390
376 399
376 400
376 406
377 340
377 343
377 346
377 367
377 369
377 381
377 387
377 401
377 411
377 413
378 331
378 337
378 383
378 405
378 425
379 326
379 341
379 360
379 361
379 366
379 392
379 396
379 409
379 410
379 421
380 333
380 338
380 357
380 368
380 390
380 397
380 414
380 416
381 340
381 343
381 365
381 367
381 369
381 377
381 394
381 401
381 411
381 413
381 424
382 342
382 349
382 356
382 364
382 371
382 376
382 385
382 399
382 407
382 412
382 426
383 331
383 337
383 347
383 358
383 378
383 388
383 402
383 405
383 425
383 433
384 354
384 355
384 358
384 388
384 391
384 395
384 402
384 419
384 428
384 430
385 342
385 349
385 356
385 363
385 364
385 371
385 382
385 389
385 399
385 407
385 412
385 415
385 426
386 351
386 353
386 362
386 365
386 374
386 393
386 394
386 403
386 404
386 417
386 431
387 346
387 367
387 370
387 377
387 398
387 401
387 413
387 434
387 435
387 436
388 347
388 354
388 358
388 383
388 384
388 391
388 402
388 405
388 419
388 430
388 433
389 339
389 363
389 364
389 366
389 385
389 396
389 412
389 415
389 418
389 437
389 441
390 333
390 336
390 368
390 376
390 380
390 400
390 414
390 416
390 446
391 354
391 355
391 359
391 384
391 388
391 395
391 419
391 428
391 429
392 359
392 360
392 361
392 379
392 395
392 396
392 409
392 410
392 421
392 438
392 439
393 344
393 353
393 362
393 372
393 374
393 386
393 403
393 404
393 417
393 423
393 431
393 447
394 351
394 362
394 365
394 369
394 381
394 386
394 403
394 411
394 417
394 420
394 424
394 445
395 355
395 359
395 361
395 384
395 391
395 392
395 409
395 428
395 429
395 439
396 341
396 360
396 363
396 366
396 379
396 389
396 392
396 410
396 415
396 418
396 421
396 437
396 443
397 357
397 373
397 375
397 380
397 408
397 414
397 444
398 367
398 370
398 387
398 401
398 427
398 434
398 435
398 436
399 352
399 356
399 371
399 376
399 382
399 385
399 400
399 406
399 407
399 412
399 426
399 432
400 368
400 376
400 390
400 399
400 406
400 414
400 416
400 432
400 446
400 454
401 367
401 377
401 381
401 387
401 398
401 413
401 434
401 435
401 436
401 440
402 358
402 383
402 384
402 388
402 405
402 419
402 425
402 430
402 433
402 442
403 353
403 362
403 365
403 386
403 393
403 394
403 417
403 420
403 431
403 445
404 372
404 374
404 386
404 393
404 422
404 423
404 431
404 447
405 378
405 383
405 388
405 402
405 419
405 425
405 430
405 433
405 451
406 371
406 376
406 399
406 400
406 407
406 416
406 432
406 454
407 356
407 364
407 371
407 382
407 385
407 399
407 406
407 412
407 426
407 432
407 450
408 372
408 373
408 375
408 397
408 422
408 423
408 444
408 448
409 359
409 361
409 379
409 392
409 395
409 410
409 421
409 429
409 438
409 439
409 443
409 449
409 460
410 360
410 366
410 379
410 392
410 396
410 409
410 418
410 421
410 437
410 438
410 443
410 449
411 369
411 377
411 381
411 394
411 413
411 417
411 420
411 424
411 440
411 455
412 364
412 382
412 385
412 389
412 399
412 407
412 415
412 426
412 441
412 450
413 367
413 377
413 381
413 387
413 401
413 411
413 424
413 434
413 436
413 440
413 455
413 457
413 466
414 368
414 380
414 390
414 397
414 400
414 416
414 446
414 453
415 363
415 385
415 389
415 396
415 412
415 418
415 426
415 437
415 441
415 450
415 463
415 468
416 368
416 380
416 390
416 400
416 406
416 414
416 446
416 453
416 454
417 362
417 365
417 386
417 393
417 394
417 403
417 411
417 420
417 424
417 431
417 445
417 470
418 389
418 396
418 410
418 415
418 437
418 441
418 443
418 463
419 384
419 388
419 391
419 402
419 405
419 428
419 429
419 430
419 433
419 442
419 452
419 467
420 369
420 394
420 403
420 411
420 417
420 424
420 445
420 455
420 470
420 473
420 476
421 379
421 392
421 396
421 409
421 410
421 437
421 438
421 439
421 443
421 449
421 460
422 372
422 373
422 404
422 408
422 423
422 447
422 448
422 465
423 372
423 374
423 393
423 404
423 408
423 422
423 431
423 447
423 448
423 465
423 474
424 369
424 381
424 394
424 411
424 413
424 417
424 420
424 440
424 445
424 455
424 473
424 476
425 378
425 383
425 402
425 405
425 430
425 433
425 451
425 471
426 382
426 385
426 399
426 407
426 412
426 415
426 432
426 441
426 450
426 469
426 472
427 398
427 434
427 435
427 436
427 458
428 384
428 391
428 395
428 419
428 429
428 430
428 439
428 442
428 452
428 459
428 467
428 477
429 391
429 395
429 409
429 419
429 428
429 438
429 439
429 442
429 452
429 459
429 477
430 384
430 388
430 402
430 405
430 419
430 425
430 428
430 433
430 442
430 451
430 452
430 467
430 471
430 475
431 386
431 393
431 403
431 404
431 417
431 423
431 445
431 447
431 462
431 470
431 474
432 399
432 400
432 406
432 407
432 426
432 454
432 464
432 480
433 383
433 388
433 402
433 405
433 419
433 425
433 430
433 442
433 451
433 467
433 471
433 475
434 387
434 398
434 401
434 413
434 427
434 435
434 436
434 440
434 455
434 457
434 458
434 466
434 490
435 387
435 398
435 401
435 427
435 434
435 436
435 457
435 458
435 489
436 387
436 398
436 401
436 413
436 427
436 434
436 435
436 440
436 457
436 458
436 489
436 490
437 389
437 396
437 410
437 415
437 418
437 421
437 441
437 443
437 449
437 463
437 468
437 478
437 491
438 392
438 409
438 410
438 421
438 429
438 439
438 443
438 449
438 459
438 460
438 479
439 392
439 395
439 409
439 421
439 428
439 429
439 438
439 449
439 452
439 459
439 460
439 477
440 401
440 411
440 413
440 424
440 434
440 436
440 455
440 457
440 466
440 473
440 485
441 389
441 412
441 415
441 418
441 426
441 437
441 450
441 463
441 468
441 472
441 492
442 402
442 419
442 428
442 429
442 430
442 433
442 452
442 467
442 475
442 477
442 483
442 488
443 396
443 409
443 410
443 418
443 421
443 437
443 438
443 449
443 460
443 463
443 478
443 479
444 397
444 408
444 448
444 453
444 456
444 461
444 482
444 486
445 394
445 403
445 417
445 420
445 424
445 431
445 462
445 470
445 473
445 476
445 500
446 390
446 400
446 414
446 416
446 453
446 454
446 480
446 481
446 494
446 498
447 393
447 404
447 422
447 423
447 431
447 462
447 465
447 474
448 408
448 422
448 423
448 444
448 456
448 461
448 465
448 484
448 486
449 409
449 410
449 421
449 437
449 438
449 439
449 443
449 459
449 460
449 478
449 479
449 502
450 407
450 412
450 415
450 426
450 441
450 463
450 468
450 469
450 472
450 492
451 405
451 425
451 430
451 433
451 471
451 475
451 493
452 419
452 428
452 429
452 430
452 439
452 442
452 459
452 467
452 477
452 483
452 488
452 499
453 414
453 416
453 444
453 446
453 456
453 461
453 481
453 482
453 486
454 400
454 406
454 416
454 432
454 446
454 464
454 480
454 481
454 494
454 498
455 411
455 413
455 420
455 424
455 434
455 440
455 457
455 466
455 473
455 476
455 485
455 496
456 444
456 448
456 453
456 461
456 482
456 484
456 486
457 413
457 434
457 435
457 436
457 440
457 455
457 458
457 466
457 489
457 490
457 496
458 427
458 434
458 435
458 436
458 457
458 487
458 489
458 490
459 428
459 429
459 438
459 439
459 449
459 452
459 460
459 477
459 488
459 497
459 499
459 502
460 409
460 421
460 438
460 439
460 443
460 449
460 459
460 478
460 479
460 497
460 502
461 444
461 448
461 453
461 456
461 481
461 482
461 484
461 486
461 508
461 516
462 431
462 445
462 447
462 470
462 474
462 500
462 509
462 515
463 415
463 418
463 437
463 441
463 443
463 450
463 468
463 472
463 478
463 479
463 491
463 492
464 432
464 454
464 469
464 480
464 498
464 503
465 422
465 423
465 447
465 448
465 474
465 484
465 495
465 511
466 413
466 434
466 440
466 455
466 457
466 473
466 485
466 490
466 496
467 419
467 428
467 430
467 433
467 442
467 452
467 471
467 475
467 483
467 488
467 493
467 504
467 512
468 415
468 437
468 441
468 450
468 463
468 469
468 472
468 491
468 492
468 501
468 514
469 426
469 450
469 464
469 468
469 472
469 501
469 503
469 514
470 417
470 420
470 431
470 445
470 462
470 473
470 476
470 500
470 506
470 509
471 425
471 430
471 433
471 451
471 467
471 475
471 493
471 505
471 512
471 518
472 426
472 441
472 450
472 463
472 468
472 469
472 491
472 492
472 501
472 514
473 420
473 424
473 440
473 445
473 455
473 466
473 470
473 476
473 485
473 500
473 506
473 507
474 423
474 431
474 447
474 462
474 465
474 495
474 509
474 515
474 520
475 430
475 433
475 442
475 451
475 467
475 471
475 483
475 493
475 504
475 512
475 518
476 420
476 424
476 445
476 455
476 470
476 473
476 485
476 500
476 506
476 507
477 428
477 429
477 439
477 442
477 452
477 459
477 483
477 488
477 497
477 499
477 510
477 523
478 437
478 443
478 449
478 460
478 463
478 479
478 491
478 492
478 502
478 513
478 526
479 438
479 443
479 449
479 460
479 463
479 478
479 491
479 497
479 502
479 513
479 525
480 432
480 446
480 454
480 464
480 494
480 498
480 503
480 517
481 446
481 453
481 454
481 461
481 482
481 494
481 498
481 508
481 521
482 444
482 453
482 456
482 461
482 481
482 486
482 494
482 508
482 516
482 521
483 442
483 452
483 467
483 475
483 477
483 488
483 499
483 504
483 510
483 512
484 448
484 456
484 461
484 465
484 486
484 495
484 511
484 516
484 519
484 520
485 440
485 455
485 466
485 473
485 476
485 496
485 500
485 506
485 507
485 529
486 444
486 448
486 453
486 456
486 461
486 482
486 484
486 508
486 511
486 516
486 519
487 458
487 489
487 531
488 442
488 452
488 459
488 467
488 477
488 483
488 497
488 499
488 504
488 510
488 512
488 523
488 536
489 435
489 436
489 457
489 458
489 487
489 490
489 496
489 522
489 531
489 532
490 434
490 436
490 457
490 458
490 466
490 489
490 496
490 522
490 529
490 532
490 533
491 437
491 463
491 468
491 472
491 478
491 479
491 492
491 513
491 514
491 526
491 527
492 441
492 450
492 463
492 468
492 472
492 478
492 491
492 501
492 514
492 526
492 527
492 534
493 451
493 467
493 471
493 475
493 504
493 505
493 512
493 518
493 541
493 545
494 446
494 454
494 480
494 481
494 482
494 498
494 508
494 517
494 521
494 540
495 465
495 474
495 484
495 511
495 515
495 519
495 520
495 538
496 455
496 457
496 466
496 485
496 489
496 490
496 507
496 522
496 529
496 533
497 459
497 460
497 477
497 479
497 488
497 499
497 502
497 510
497 523
497 524
497 525
497 548
498 446
498 454
498 464
498 480
498 481
498 494
498 503
498 517
498 521
498 540
499 452
499 459
499 477
499 483
499 488
499 497
499 504
499 510
499 523
499 524
499 536
499 547
499 551
500 445
500 462
500 470
500 473
500 476
500 485
500 506
500 507
500 509
500 515
500 535
500 543
501 468
501 469
501 472
501 492
501 503
501 514
501 528
501 530
501 539
502 449
502 459
502 460
502 478
502 479
502 497
502 513
502 524
502 525
502 548
502 549
503 464
503 469
503 480
503 498
503 501
503 517
503 528
503 530
504 467
504 475
504 483
504 488
504 493
504 499
504 510
504 512
504 518
504 536
504 544
505 471
505 493
505 518
505 541
506 470
506 473
506 476
506 485
506 500
506 507
506 509
506 535
506 543
506 546
507 473
507 476
507 485
507 496
507 500
507 506
507 529
507 543
507 546
508 461
508 481
508 482
508 486
508 494
508 516
508 521
508 537
509 462
509 470
509 474
509 500
509 506
509 515
509 535
509 557
510 477
510 483
510 488
510 497
510 499
510 504
510 512
510 523
510 524
510 536
510 547
510 551
511 465
511 484
511 486
511 495
511 516
511 519
511 520
511 538
511 555
511 562
512 467
512 471
512 475
512 483
512 488
512 493
512 504
512 510
512 518
512 536
512 541
512 544
512 545
513 478
513 479
513 491
513 502
513 525
513 526
513 527
513 542
513 549
513 558
514 468
514 469
514 472
514 491
514 492
514 501
514 527
514 528
514 534
514 539
514 552
514 554
514 566
515 462
515 474
515 495
515 500
515 509
515 520
515 535
515 550
515 557
516 461
516 482
516 484
516 486
516 508
516 511
516 519
516 537
516 538
516 556
517 480
517 494
517 498
517 503
517 521
517 530
517 540
517 559
517 561
518 471
518 475
518 493
518 504
518 505
518 512
518 541
518 544
518 545
518 568
519 484
519 486
519 495
519 511
519 516
519 538
519 556
519 562
519 575
520 474
520 484
520 495
520 511
520 515
520 538
520 550
520 555
520 557
521 481
521 482
521 494
521 498
521 508
521 517
521 537
521 540
521 563
521 573
522 489
522 490
522 496
522 529
522 531
522 532
522 533
522 564
522 571
522 572
523 477
523 488
523 497
523 499
523 510
523 524
523 536
523 547
523 548
523 551
524 497
524 499
524 502
524 510
524 523
524 525
524 547
524 548
524 549
524 551
525 479
525 497
525 502
525 513
525 524
525 526
525 542
525 548
525 549
525 574
526 478
526 491
526 492
526 513
526 525
526 527
526 534
526 542
526 549
526 554
526 558
527 491
527 492
527 513
527 514
527 526
527 534
527 539
527 542
527 554
527 558
527 566
527 577
528 501
528 503
528 514
528 530
528 534
528 539
528 552
528 561
528 567
529 485
529 490
529 496
529 507
529 522
529 533
529 543
529 546
529 553
529 571
529 579
530 501
530 503
530 517
530 528
530 539
530 552
530 559
530 561
531 487
531 489
531 522
531 532
531 533
531 560
531 564
531 572
532 489
532 490
532 522
532 531
532 533
532 560
532 564
532 571
532 572
533 490
533 496
533 522
533 529
533 531
533 532
533 553
533 564
533 571
533 572
533 579
534 492
534 514
534 526
534 527
534 528
534 539
534 552
534 554
534 558
534 566
534 567
534 577
535 500
535 506
535 509
535 515
535 543
535 550
535 557
535 569
535 576
535 578
536 488
536 499
536 504
536 510
536 512
536 523
536 544
536 547
536 551
536 565
537 508
537 516
537 521
537 540
537 556
537 563
537 573
537 581
538 495
538 511
538 516
538 519
538 520
538 550
538 555
538 556
538 562
538 575
538 586
539 501
539 514
539 527
539 528
539 530
539 534
539 552
539 554
539 566
539 567
539 577
540 494
540 498
540 517
540 521
540 537
540 559
540 563
540 573
540 582
540 584
541 493
541 505
541 512
541 518
541 544
541 545
541 568
542 513
542 525
542 526
542 527
542 549
542 554
542 558
542 574
542 577
542 583
543 500
543 506
543 507
543 529
543 535
543 546
543 553
543 569
543 570
544 504
544 512
544 518
544 536
544 541
544 545
544 547
544 565
544 568
545 493
545 512
545 518
545 541
545 544
545 568
546 506
546 507
546 529
546 543
546 553
546 569
546 570
546 579
547 499
547 510
547 523
547 524
547 536
547 544
547 548
547 551
547 565
548 497
548 502
548 523
548 524
548 525
548 547
548 549
548 551
548 574
548 580
549 502
549 513
549 524
549 525
549 526
549 542
549 548
549 558
549 574
549 580
550 515
550 520
550 535
550 538
550 555
550 557
550 576
550 578
551 499
551 510
551 523
551 524
551 536
551 547
551 548
551 565
551 580
552 514
552 528
552 530
552 534
552 539
552 561
552 566
552 567
553 529
553 533
553 543
553 546
553 570
553 571
553 572
553 579
554 514
554 526
554 527
554 534
554 539
554 542
554 558
554 566
554 567
554 577
554 583
555 511
555 520
555 538
555 550
555 557
555 562
555 575
555 578
555 586
556 516
556 519
556 537
556 538
556 562
556 575
556 581
556 585
556 586
557 509
557 515
557 520
557 535
557 550
557 555
557 576
557 578
558 513
558 526
558 527
558 534
558 542
558 549
558 554
558 566
558 574
558 577
558 583
559 517
559 530
559 540
559 561
559 563
559 582
559 584
560 531
560 532
560 564
560 572
561 517
561 528
561 530
561 552
561 559
561 582
561 584
562 511
562 519
562 538
562 555
562 556
562 575
562 585
562 586
563 521
563 537
563 540
563 559
563 573
563 581
563 582
563 584
564 522
564 531
564 532
564 533
564 560
564 571
564 572
565 536
565 544
565 547
565 551
566 514
566 527
566 534
566 539
566 552
566 554
566 558
566 567
566 577
566 583
567 528
567 534
567 539
567 552
567 554
567 566
567 577
568 518
568 541
568 544
568 545
569 535
569 543
569 546
569 570
569 576
570 543
570 546
570 553
570 569
570 579
571 522
571 529
571 532
571 533
571 553
571 564
571 572
571 579
572 522
572 531
572 532
572 533
572 553
572 560
572 564
572 571
572 579
573 521
573 537
573 540
573 563
573 581
573 582
573 585
574 525
574 542
574 548
574 549
574 558
574 580
574 583
575 519
575 538
575 555
575 556
575 562
575 581
575 585
575 586
576 535
576 550
576 557
576 569
576 578
577 527
577 534
577 539
577 542
577 554
577 558
577 566
577 567
577 583
578 535
578 550
578 555
578 557
578 576
578 586
579 529
579 533
579 546
579 553
579 570
579 571
579 572
580 548
580 549
580 551
580 574
581 537
581 556
581 563
581 573
581 575
581 585
582 540
582 559
582 561
582 563
582 573
582 584
583 542
583 554
583 558
583 566
583 574
583 577
584 540
584 559
584 561
584 563
584 582
585 556
585 562
585 573
585 575
585 581
585 586
586 538
586 555
586 556
586 562
586 575
586 578
586 585
