1 5
1 10
1 11
1 19
1 22
1 23
1 27
1 35
1 36
1 41
1 50
1 55
1 69
1 70
1 72
1 74
2 3
2 4
2 7
2 12
2 24
2 25
2 33
2 46
2 52
2 63
2 64
2 66
2 90
3 2
3 4
3 7
3 12
3 24
3 25
3 28
3 46
3 52
3 63
3 64
3 65
3 66
3 88
3 89
3 90
4 2
4 3
4 7
4 24
4 25
4 28
4 31
4 48
4 52
4 63
4 64
4 65
4 88
4 89
5 1
5 10
5 11
5 22
5 23
5 26
5 31
5 35
5 41
5 50
5 56
5 58
5 70
5 74
5 91
6 8
6 15
6 16
6 30
6 34
6 37
6 39
6 43
6 47
6 49
6 57
6 62
6 67
6 85
7 2
7 3
7 4
7 24
7 25
7 26
7 28
7 31
7 48
7 52
7 58
7 64
7 65
7 75
7 87
7 88
8 6
8 16
8 29
8 30
8 37
8 39
8 43
8 47
8 51
8 57
8 62
8 67
8 85
9 13
9 17
9 18
9 32
9 34
9 44
9 45
9 54
9 61
9 71
9 73
9 83
9 86
10 1
10 5
10 11
10 22
10 23
10 27
10 35
10 41
10 50
10 56
10 69
10 70
10 74
10 91
10 93
11 1
11 5
11 10
11 19
11 27
11 35
11 36
11 41
11 50
11 55
11 69
11 72
11 74
11 96
12 2
12 3
12 14
12 17
12 24
12 33
12 40
12 46
12 60
12 61
12 63
12 66
12 79
12 82
12 84
13 9
13 15
13 17
13 18
13 30
13 32
13 34
13 44
13 45
13 49
13 54
13 71
13 80
13 83
13 86
14 12
14 17
14 32
14 33
14 40
14 44
14 46
14 60
14 61
14 73
14 79
14 82
14 84
15 6
15 13
15 18
15 30
15 34
15 37
15 43
15 45
15 49
15 54
15 57
15 67
15 78
15 80
15 95
16 6
16 8
16 21
16 29
16 37
16 39
16 43
16 47
16 51
16 53
16 62
16 67
16 76
16 85
16 94
17 9
17 12
17 13
17 14
17 32
17 33
17 40
17 44
17 60
17 61
17 71
17 73
17 82
17 83
17 84
17 100
18 9
18 13
18 15
18 30
18 32
18 34
18 37
18 45
18 49
18 54
18 57
18 71
18 78
18 80
18 86
19 1
19 11
19 27
19 35
19 36
19 50
19 55
19 69
19 72
19 74
19 96
20 21
20 38
20 42
20 53
20 59
20 68
20 77
20 81
20 97
21 16
21 20
21 29
21 38
21 39
21 42
21 51
21 53
21 62
21 68
21 76
21 92
21 97
22 1
22 5
22 10
22 23
22 26
22 28
22 31
22 35
22 41
22 48
22 50
22 56
22 58
22 70
22 75
22 91
22 98
22 99
23 1
23 5
23 10
23 22
23 26
23 27
23 31
23 35
23 41
23 50
23 56
23 58
23 70
23 74
23 91
23 93
23 98
23 99
24 2
24 3
24 4
24 7
24 12
24 25
24 33
24 46
24 52
24 60
24 63
24 64
24 66
24 79
24 82
24 89
24 90
24 102
24 107
25 2
25 3
25 4
25 7
25 24
25 28
25 31
25 46
25 48
25 52
25 63
25 64
25 65
25 66
25 87
25 88
25 89
25 90
26 5
26 7
26 22
26 23
26 28
26 31
26 41
26 48
26 52
26 56
26 58
26 65
26 70
26 75
26 87
26 91
26 98
26 99
26 111
27 1
27 10
27 11
27 19
27 23
27 35
27 36
27 41
27 50
27 55
27 69
27 70
27 72
27 74
27 93
27 96
28 3
28 4
28 7
28 22
28 25
28 26
28 31
28 48
28 52
28 58
28 64
28 65
28 75
28 87
28 88
28 89
28 98
28 113
29 8
29 16
29 21
29 38
29 39
29 47
29 51
29 53
29 62
29 68
29 76
29 92
29 94
29 105
30 6
30 8
30 13
30 15
30 18
30 34
30 37
30 43
30 45
30 47
30 49
30 54
30 57
30 67
30 78
30 80
30 95
30 101
30 109
31 4
31 5
31 7
31 22
31 23
31 25
31 26
31 28
31 48
31 52
31 56
31 58
31 65
31 75
31 87
31 88
31 98
31 111
32 9
32 13
32 14
32 17
32 18
32 34
32 40
32 44
32 45
32 54
32 61
32 71
32 73
32 83
32 86
32 100
32 103
32 104
33 2
33 12
33 14
33 17
33 24
33 40
33 44
33 46
33 60
33 61
33 63
33 66
33 73
33 79
33 82
33 84
33 102
34 6
34 9
34 13
34 15
34 18
34 30
34 32
34 37
34 45
34 49
34 54
34 57
34 67
34 71
34 78
34 80
34 86
34 95
34 103
34 106
34 109
34 115
35 1
35 5
35 10
35 11
35 19
35 22
35 23
35 27
35 36
35 41
35 50
35 55
35 56
35 69
35 70
35 72
35 74
35 91
35 93
35 96
36 1
36 11
36 19
36 27
36 35
36 50
36 55
36 69
36 72
36 74
36 96
36 112
37 6
37 8
37 15
37 16
37 18
37 30
37 34
37 39
37 43
37 47
37 49
37 57
37 62
37 67
37 78
37 80
37 85
37 95
37 101
37 109
38 20
38 21
38 29
38 42
38 51
38 53
38 59
38 68
38 76
38 77
38 81
38 92
38 97
39 6
39 8
39 16
39 21
39 29
39 37
39 43
39 47
39 51
39 53
39 62
39 67
39 76
39 85
39 92
39 94
40 12
40 14
40 17
40 32
40 33
40 44
40 46
40 60
40 61
40 66
40 73
40 79
40 82
40 84
40 100
40 102
40 110
41 1
41 5
41 10
41 11
41 22
41 23
41 26
41 27
41 35
41 50
41 56
41 58
41 69
41 70
41 74
41 91
41 93
41 98
41 99
41 117
42 20
42 21
42 38
42 53
42 59
42 68
42 77
42 81
42 97
42 108
43 6
43 8
43 15
43 16
43 30
43 37
43 39
43 47
43 49
43 51
43 57
43 62
43 67
43 78
43 85
43 94
43 95
43 101
43 119
44 9
44 13
44 14
44 17
44 32
44 33
44 40
44 45
44 60
44 61
44 71
44 73
44 82
44 83
44 84
44 86
44 100
44 104
44 110
44 116
44 120
45 9
45 13
45 15
45 18
45 30
45 32
45 34
45 44
45 49
45 54
45 57
45 71
45 78
45 80
45 83
45 86
45 103
45 104
45 106
45 115
46 2
46 3
46 12
46 14
46 24
46 25
46 33
46 40
46 60
46 61
46 63
46 64
46 66
46 79
46 82
46 84
46 90
46 102
46 107
46 125
47 6
47 8
47 16
47 29
47 30
47 37
47 39
47 43
47 51
47 57
47 62
47 67
47 76
47 85
47 94
47 101
47 119
47 126
48 4
48 7
48 22
48 25
48 26
48 28
48 31
48 52
48 56
48 58
48 64
48 65
48 75
48 87
48 88
48 89
48 98
48 99
48 111
48 113
48 114
48 124
48 130
49 6
49 13
49 15
49 18
49 30
49 34
49 37
49 43
49 45
49 54
49 57
49 67
49 71
49 78
49 80
49 86
49 95
49 101
49 103
49 106
49 109
49 115
49 127
49 135
50 1
50 5
50 10
50 11
50 19
50 22
50 23
50 27
50 35
50 36
50 41
50 55
50 56
50 69
50 70
50 72
50 74
50 91
50 93
50 96
50 99
50 117
50 121
50 123
51 8
51 16
51 21
51 29
51 38
51 39
51 43
51 47
51 53
51 62
51 68
51 76
51 85
51 92
51 94
51 97
51 105
51 122
51 126
51 137
52 2
52 3
52 4
52 7
52 24
52 25
52 26
52 28
52 31
52 48
52 58
52 63
52 64
52 65
52 66
52 75
52 87
52 88
52 89
52 90
52 107
52 113
52 118
52 136
53 16
53 20
53 21
53 29
53 38
53 39
53 42
53 51
53 62
53 68
53 76
53 77
53 81
53 92
53 94
53 97
53 105
53 122
54 9
54 13
54 15
54 18
54 30
54 32
54 34
54 45
54 49
54 57
54 71
54 78
54 80
54 83
54 86
54 95
54 103
54 104
54 106
54 109
54 115
54 135
54 138
55 1
55 11
55 19
55 27
55 35
55 36
55 50
55 69
55 72
55 74
55 93
55 96
55 112
55 123
55 131
56 5
56 10
56 22
56 23
56 26
56 31
56 35
56 41
56 48
56 50
56 58
56 70
56 74
56 75
56 91
56 93
56 98
56 99
56 111
56 114
56 117
56 121
57 6
57 8
57 15
57 18
57 30
57 34
57 37
57 43
57 45
57 47
57 49
57 54
57 62
57 67
57 78
57 80
57 85
57 95
57 101
57 106
57 109
57 115
57 119
57 127
57 133
58 5
58 7
58 22
58 23
58 26
58 28
58 31
58 41
58 48
58 52
58 56
58 65
58 70
58 75
58 87
58 88
58 91
58 98
58 99
58 111
58 114
58 117
58 124
58 130
59 20
59 38
59 42
59 68
59 77
59 81
59 97
59 108
59 129
60 12
60 14
60 17
60 24
60 33
60 40
60 44
60 46
60 61
60 63
60 66
60 73
60 79
60 82
60 84
60 100
60 102
60 110
60 116
60 125
60 132
61 9
61 12
61 14
61 17
61 32
61 33
61 40
61 44
61 46
61 60
61 71
61 73
61 79
61 82
61 83
61 84
61 100
61 104
61 110
61 116
61 120
61 132
61 134
62 6
62 8
62 16
62 21
62 29
62 37
62 39
62 43
62 47
62 51
62 53
62 57
62 67
62 76
62 85
62 92
62 94
62 101
62 105
62 119
62 126
62 137
62 145
63 2
63 3
63 4
63 12
63 24
63 25
63 33
63 46
63 52
63 60
63 64
63 65
63 66
63 79
63 82
63 88
63 89
63 90
63 102
63 107
63 113
63 118
63 125
63 128
63 136
63 148
64 2
64 3
64 4
64 7
64 24
64 25
64 28
64 46
64 48
64 52
64 63
64 65
64 66
64 79
64 87
64 88
64 89
64 90
64 102
64 107
64 113
64 118
64 128
64 136
65 3
65 4
65 7
65 25
65 26
65 28
65 31
65 48
65 52
65 58
65 63
65 64
65 75
65 87
65 88
65 89
65 90
65 98
65 111
65 113
65 118
65 124
65 130
65 136
65 144
66 2
66 3
66 12
66 24
66 25
66 33
66 40
66 46
66 52
66 60
66 63
66 64
66 79
66 82
66 84
66 88
66 89
66 90
66 102
66 107
66 118
66 125
66 128
66 148
67 6
67 8
67 15
67 16
67 30
67 34
67 37
67 39
67 43
67 47
67 49
67 57
67 62
67 78
67 80
67 85
67 94
67 95
67 101
67 109
67 119
67 126
67 127
67 133
68 20
68 21
68 29
68 38
68 42
68 51
68 53
68 59
68 76
68 77
68 81
68 92
68 97
68 105
68 108
68 122
69 1
69 10
69 11
69 19
69 27
69 35
69 36
69 41
69 50
69 55
69 70
69 72
69 74
69 91
69 93
69 96
69 112
69 121
69 123
69 131
69 143
69 149
69 150
70 1
70 5
70 10
70 22
70 23
70 26
70 27
70 35
70 41
70 50
70 56
70 58
70 69
70 74
70 75
70 91
70 93
70 98
70 99
70 114
70 117
70 121
70 142
70 143
70 146
71 9
71 13
71 17
71 18
71 32
71 34
71 44
71 45
71 49
71 54
71 61
71 73
71 80
71 83
71 86
71 100
71 103
71 104
71 106
71 115
71 116
71 120
71 134
71 138
71 147
71 153
72 1
72 11
72 19
72 27
72 35
72 36
72 50
72 55
72 69
72 74
72 93
72 96
72 112
72 123
72 131
72 149
72 150
73 9
73 14
73 17
73 32
73 33
73 40
73 44
73 60
73 61
73 71
73 82
73 83
73 84
73 86
73 100
73 103
73 104
73 110
73 116
73 120
73 132
73 134
73 147
73 159
74 1
74 5
74 10
74 11
74 19
74 23
74 27
74 35
74 36
74 41
74 50
74 55
74 56
74 69
74 70
74 72
74 91
74 93
74 96
74 99
74 112
74 117
74 121
74 123
74 131
74 143
74 146
74 149
75 7
75 22
75 26
75 28
75 31
75 48
75 52
75 56
75 58
75 65
75 70
75 87
75 88
75 89
75 91
75 98
75 99
75 111
75 113
75 114
75 117
75 124
75 130
75 139
75 141
75 158
76 16
76 21
76 29
76 38
76 39
76 47
76 51
76 53
76 62
76 68
76 85
76 92
76 94
76 97
76 105
76 119
76 122
76 126
76 137
76 145
76 151
76 157
77 20
77 38
77 42
77 53
77 59
77 68
77 81
77 97
77 108
77 129
77 140
78 15
78 18
78 30
78 34
78 37
78 43
78 45
78 49
78 54
78 57
78 67
78 80
78 85
78 86
78 95
78 101
78 103
78 106
78 109
78 115
78 119
78 127
78 133
78 135
78 156
79 12
79 14
79 24
79 33
79 40
79 46
79 60
79 61
79 63
79 64
79 66
79 82
79 84
79 89
79 90
79 102
79 107
79 110
79 125
79 128
79 132
79 148
79 152
79 154
80 13
80 15
80 18
80 30
80 34
80 37
80 45
80 49
80 54
80 57
80 67
80 71
80 78
80 83
80 86
80 95
80 101
80 103
80 104
80 106
80 109
80 115
80 127
80 135
80 138
80 156
80 161
80 165
81 20
81 38
81 42
81 53
81 59
81 68
81 77
81 92
81 97
81 105
81 108
81 122
81 129
81 140
81 162
82 12
82 14
82 17
82 24
82 33
82 40
82 44
82 46
82 60
82 61
82 63
82 66
82 73
82 79
82 84
82 90
82 100
82 102
82 107
82 110
82 116
82 125
82 128
82 132
82 134
82 152
82 154
83 9
83 13
83 17
83 32
83 44
83 45
83 54
83 61
83 71
83 73
83 80
83 84
83 86
83 100
83 103
83 104
83 106
83 110
83 116
83 120
83 134
83 138
83 147
83 153
83 160
83 164
84 12
84 14
84 17
84 33
84 40
84 44
84 46
84 60
84 61
84 66
84 73
84 79
84 82
84 83
84 100
84 102
84 104
84 110
84 116
84 120
84 125
84 132
84 134
84 152
84 154
84 159
85 6
85 8
85 16
85 37
85 39
85 43
85 47
85 51
85 57
85 62
85 67
85 76
85 78
85 94
85 95
85 101
85 105
85 109
85 119
85 126
85 127
85 133
85 137
85 145
85 155
85 163
86 9
86 13
86 18
86 32
86 34
86 44
86 45
86 49
86 54
86 71
86 73
86 78
86 80
86 83
86 95
86 100
86 103
86 104
86 106
86 109
86 115
86 116
86 120
86 135
86 138
86 147
86 153
86 161
86 164
87 7
87 25
87 26
87 28
87 31
87 48
87 52
87 58
87 64
87 65
87 75
87 88
87 89
87 90
87 98
87 99
87 111
87 113
87 114
87 118
87 124
87 130
87 136
87 141
87 144
87 158
88 3
88 4
88 7
88 25
88 28
88 31
88 48
88 52
88 58
88 63
88 64
88 65
88 66
88 75
88 87
88 89
88 90
88 98
88 107
88 111
88 113
88 118
88 124
88 128
88 130
88 136
88 144
88 158
88 170
88 171
89 3
89 4
89 24
89 25
89 28
89 48
89 52
89 63
89 64
89 65
89 66
89 75
89 79
89 87
89 88
89 90
89 102
89 107
89 113
89 118
89 124
89 128
89 130
89 136
89 144
89 148
89 171
90 2
90 3
90 24
90 25
90 46
90 52
90 63
90 64
90 65
90 66
90 79
90 82
90 87
90 88
90 89
90 102
90 107
90 113
90 118
90 125
90 128
90 136
90 144
90 148
90 152
90 177
91 5
91 10
91 22
91 23
91 26
91 35
91 41
91 50
91 56
91 58
91 69
91 70
91 74
91 75
91 93
91 98
91 99
91 111
91 114
91 117
91 121
91 123
91 139
91 142
91 143
91 146
91 175
92 21
92 29
92 38
92 39
92 51
92 53
92 62
92 68
92 76
92 81
92 94
92 97
92 105
92 122
92 126
92 137
92 151
92 157
92 162
92 168
93 10
93 23
93 27
93 35
93 41
93 50
93 55
93 56
93 69
93 70
93 72
93 74
93 91
93 96
93 98
93 99
93 114
93 117
93 121
93 123
93 131
93 142
93 143
93 146
93 149
93 167
93 175
94 16
94 29
94 39
94 43
94 47
94 51
94 53
94 62
94 67
94 76
94 85
94 92
94 101
94 105
94 119
94 122
94 126
94 133
94 137
94 145
94 157
94 163
95 15
95 30
95 34
95 37
95 43
95 49
95 54
95 57
95 67
95 78
95 80
95 85
95 86
95 101
95 106
95 109
95 115
95 119
95 127
95 133
95 135
95 155
95 156
95 165
95 176
95 181
96 11
96 19
96 27
96 35
96 36
96 50
96 55
96 69
96 72
96 74
96 93
96 112
96 121
96 123
96 131
96 143
96 149
96 150
96 169
96 174
97 20
97 21
97 38
97 42
97 51
97 53
97 59
97 68
97 76
97 77
97 81
97 92
97 105
97 108
97 122
97 129
97 137
97 140
97 151
97 162
97 172
98 22
98 23
98 26
98 28
98 31
98 41
98 48
98 56
98 58
98 65
98 70
98 75
98 87
98 88
98 91
98 93
98 99
98 111
98 113
98 114
98 117
98 124
98 130
98 139
98 141
98 142
98 158
98 166
98 173
99 22
99 23
99 26
99 41
99 48
99 50
99 56
99 58
99 70
99 74
99 75
99 87
99 91
99 93
99 98
99 111
99 114
99 117
99 121
99 124
99 130
99 139
99 141
99 142
99 143
99 146
99 166
99 173
99 175
100 17
100 32
100 40
100 44
100 60
100 61
100 71
100 73
100 82
100 83
100 84
100 86
100 103
100 104
100 106
100 110
100 116
100 120
100 132
100 134
100 138
100 147
100 153
100 154
100 159
100 160
100 164
100 180
101 30
101 37
101 43
101 47
101 49
101 57
101 62
101 67
101 78
101 80
101 85
101 94
101 95
101 109
101 115
101 119
101 126
101 127
101 133
101 135
101 145
101 155
101 156
101 163
101 176
101 181
101 185
102 24
102 33
102 40
102 46
102 60
102 63
102 64
102 66
102 79
102 82
102 84
102 89
102 90
102 107
102 110
102 118
102 125
102 128
102 132
102 148
102 152
102 154
102 177
102 178
102 179
103 32
103 34
103 45
103 49
103 54
103 71
103 73
103 78
103 80
103 83
103 86
103 100
103 104
103 106
103 109
103 115
103 116
103 120
103 134
103 135
103 138
103 147
103 153
103 160
103 161
103 164
103 165
103 186
104 32
104 44
104 45
104 54
104 61
104 71
104 73
104 80
104 83
104 84
104 86
104 100
104 103
104 106
104 110
104 115
104 116
104 120
104 132
104 134
104 135
104 138
104 147
104 153
104 159
104 160
104 161
104 164
104 180
104 186
105 29
105 51
105 53
105 62
105 68
105 76
105 81
105 85
105 92
105 94
105 97
105 122
105 126
105 137
105 145
105 151
105 157
105 162
105 168
105 188
105 190
106 34
106 45
106 49
106 54
106 57
106 71
106 78
106 80
106 83
106 86
106 95
106 100
106 103
106 104
106 109
106 115
106 120
106 127
106 135
106 138
106 147
106 153
106 156
106 161
106 164
106 165
106 186
106 187
106 191
107 24
107 46
107 52
107 63
107 64
107 66
107 79
107 82
107 88
107 89
107 90
107 102
107 113
107 118
107 125
107 128
107 136
107 144
107 148
107 152
107 171
107 177
107 178
108 42
108 59
108 68
108 77
108 81
108 97
108 122
108 129
108 140
108 162
108 172
109 30
109 34
109 37
109 49
109 54
109 57
109 67
109 78
109 80
109 85
109 86
109 95
109 101
109 103
109 106
109 115
109 119
109 127
109 133
109 135
109 138
109 155
109 156
109 161
109 165
109 176
109 181
109 187
109 191
110 40
110 44
110 60
110 61
110 73
110 79
110 82
110 83
110 84
110 100
110 102
110 104
110 116
110 120
110 125
110 132
110 134
110 147
110 152
110 154
110 159
110 160
110 179
110 180
110 183
110 202
111 26
111 31
111 48
111 56
111 58
111 65
111 75
111 87
111 88
111 91
111 98
111 99
111 113
111 114
111 117
111 124
111 130
111 139
111 141
111 142
111 144
111 158
111 166
111 170
111 173
111 182
111 196
112 36
112 55
112 69
112 72
112 74
112 96
112 121
112 123
112 131
112 143
112 149
112 150
112 169
112 174
112 195
113 28
113 48
113 52
113 63
113 64
113 65
113 75
113 87
113 88
113 89
113 90
113 98
113 107
113 111
113 114
113 118
113 124
113 128
113 130
113 136
113 141
113 144
113 158
113 170
113 171
113 173
113 182
113 201
114 48
114 56
114 58
114 70
114 75
114 87
114 91
114 93
114 98
114 99
114 111
114 113
114 117
114 121
114 124
114 130
114 139
114 141
114 142
114 146
114 158
114 166
114 173
114 175
114 182
115 34
115 45
115 49
115 54
115 57
115 71
115 78
115 80
115 86
115 95
115 101
115 103
115 104
115 106
115 109
115 127
115 133
115 135
115 138
115 153
115 155
115 156
115 161
115 165
115 176
115 181
115 186
115 187
115 191
116 44
116 60
116 61
116 71
116 73
116 82
116 83
116 84
116 86
116 100
116 103
116 104
116 110
116 120
116 132
116 134
116 138
116 147
116 153
116 154
116 159
116 160
116 164
116 179
116 180
116 183
116 189
116 203
117 41
117 50
117 56
117 58
117 70
117 74
117 75
117 91
117 93
117 98
117 99
117 111
117 114
117 121
117 124
117 130
117 139
117 141
117 142
117 143
117 146
117 158
117 166
117 167
117 173
117 175
117 205
118 52
118 63
118 64
118 65
118 66
118 87
118 88
118 89
118 90
118 102
118 107
118 113
118 124
118 125
118 128
118 130
118 136
118 144
118 148
118 158
118 170
118 171
118 177
118 182
118 200
119 43
119 47
119 57
119 62
119 67
119 76
119 78
119 85
119 94
119 95
119 101
119 109
119 126
119 127
119 133
119 137
119 145
119 155
119 156
119 157
119 163
119 176
119 181
119 184
119 185
120 44
120 61
120 71
120 73
120 83
120 84
120 86
120 100
120 103
120 104
120 106
120 110
120 116
120 132
120 134
120 135
120 138
120 147
120 153
120 159
120 160
120 161
120 164
120 180
120 186
120 189
120 193
121 50
121 56
121 69
121 70
121 74
121 91
121 93
121 96
121 99
121 112
121 114
121 117
121 123
121 131
121 139
121 142
121 143
121 146
121 149
121 150
121 166
121 167
121 169
121 174
121 175
121 197
121 198
122 51
122 53
122 68
122 76
122 81
122 92
122 94
122 97
122 105
122 108
122 126
122 137
122 140
122 151
122 157
122 162
122 168
122 188
122 190
122 192
123 50
123 55
123 69
123 72
123 74
123 91
123 93
123 96
123 112
123 121
123 131
123 143
123 146
123 149
123 150
123 167
123 169
123 174
123 195
123 198
124 48
124 58
124 65
124 75
124 87
124 88
124 89
124 98
124 99
124 111
124 113
124 114
124 117
124 118
124 130
124 136
124 139
124 141
124 142
124 144
124 158
124 166
124 170
124 171
124 173
124 182
124 196
124 201
125 46
125 60
125 63
125 66
125 79
125 82
125 84
125 90
125 102
125 107
125 110
125 118
125 128
125 132
125 136
125 148
125 152
125 154
125 159
125 177
125 178
125 179
125 183
125 204
126 47
126 51
126 62
126 67
126 76
126 85
126 92
126 94
126 101
126 105
126 119
126 122
126 133
126 137
126 145
126 151
126 155
126 157
126 163
126 168
126 176
126 184
126 185
126 190
126 207
126 213
127 49
127 57
127 67
127 78
127 80
127 85
127 95
127 101
127 106
127 109
127 115
127 119
127 133
127 135
127 138
127 145
127 155
127 156
127 161
127 163
127 165
127 176
127 181
127 185
127 187
127 191
127 199
127 208
128 63
128 64
128 66
128 79
128 82
128 88
128 89
128 90
128 102
128 107
128 113
128 118
128 125
128 132
128 136
128 144
128 148
128 152
128 154
128 171
128 177
128 178
128 179
128 200
128 204
128 214
128 215
129 59
129 77
129 81
129 97
129 108
129 140
129 162
129 172
129 206
130 48
130 58
130 65
130 75
130 87
130 88
130 89
130 98
130 99
130 111
130 113
130 114
130 117
130 118
130 124
130 136
130 139
130 141
130 144
130 158
130 166
130 170
130 171
130 173
130 182
130 196
130 201
130 217
131 55
131 69
131 72
131 74
131 93
131 96
131 112
131 121
131 123
131 143
131 146
131 149
131 150
131 167
131 169
131 174
131 195
131 198
131 211
132 60
132 61
132 73
132 79
132 82
132 84
132 100
132 102
132 104
132 110
132 116
132 120
132 125
132 128
132 134
132 147
132 152
132 154
132 159
132 160
132 178
132 179
132 180
132 183
132 189
132 202
132 203
132 204
132 219
133 57
133 67
133 78
133 85
133 94
133 95
133 101
133 109
133 115
133 119
133 126
133 127
133 135
133 145
133 155
133 156
133 157
133 163
133 176
133 181
133 184
133 185
133 187
133 199
133 208
133 216
134 61
134 71
134 73
134 82
134 83
134 84
134 100
134 103
134 104
134 110
134 116
134 120
134 132
134 138
134 147
134 152
134 153
134 154
134 159
134 160
134 164
134 179
134 180
134 183
134 189
134 193
134 202
134 203
135 49
135 54
135 78
135 80
135 86
135 95
135 101
135 103
135 104
135 106
135 109
135 115
135 120
135 127
135 133
135 138
135 153
135 155
135 156
135 161
135 164
135 165
135 176
135 181
135 186
135 187
135 191
135 193
135 194
135 199
135 222
136 52
136 63
136 64
136 65
136 87
136 88
136 89
136 90
136 107
136 113
136 118
136 124
136 125
136 128
136 130
136 144
136 148
136 152
136 158
136 170
136 171
136 177
136 178
136 182
136 200
136 201
136 214
137 51
137 62
137 76
137 85
137 92
137 94
137 97
137 105
137 119
137 122
137 126
137 145
137 151
137 157
137 162
137 163
137 168
137 184
137 185
137 188
137 190
137 207
137 213
138 54
138 71
138 80
138 83
138 86
138 100
138 103
138 104
138 106
138 109
138 115
138 116
138 120
138 127
138 134
138 135
138 147
138 153
138 156
138 160
138 161
138 164
138 165
138 180
138 186
138 187
138 189
138 191
138 193
138 194
138 221
139 75
139 91
139 98
139 99
139 111
139 114
139 117
139 121
139 124
139 130
139 141
139 142
139 143
139 146
139 158
139 166
139 167
139 173
139 175
139 182
139 196
139 197
139 205
139 209
139 210
139 224
140 77
140 81
140 97
140 108
140 122
140 129
140 151
140 162
140 172
140 192
140 206
140 212
141 75
141 87
141 98
141 99
141 111
141 113
141 114
141 117
141 124
141 130
141 139
141 142
141 144
141 158
141 166
141 170
141 171
141 173
141 175
141 182
141 196
141 201
141 209
141 210
141 217
142 70
142 91
142 93
142 98
142 99
142 111
142 114
142 117
142 121
142 124
142 139
142 141
142 143
142 146
142 149
142 158
142 166
142 167
142 173
142 174
142 175
142 196
142 197
142 205
142 209
142 210
142 224
142 227
143 69
143 70
143 74
143 91
143 93
143 96
143 99
143 112
143 117
143 121
143 123
143 131
143 139
143 142
143 146
143 149
143 150
143 166
143 167
143 169
143 174
143 175
143 195
143 197
143 198
143 205
143 220
143 230
144 65
144 87
144 88
144 89
144 90
144 107
144 111
144 113
144 118
144 124
144 128
144 130
144 136
144 141
144 148
144 158
144 170
144 171
144 173
144 177
144 182
144 196
144 200
144 201
144 217
144 229
144 233
145 62
145 76
145 85
145 94
145 101
145 105
145 119
145 126
145 127
145 133
145 137
145 151
145 155
145 157
145 163
145 168
145 176
145 181
145 184
145 185
145 190
145 207
145 208
145 213
145 216
145 232
146 70
146 74
146 91
146 93
146 99
146 114
146 117
146 121
146 123
146 131
146 139
146 142
146 143
146 149
146 150
146 166
146 167
146 169
146 173
146 174
146 175
146 197
146 198
146 205
146 210
146 220
146 227
146 230
147 71
147 73
147 83
147 86
147 100
147 103
147 104
147 106
147 110
147 116
147 120
147 132
147 134
147 138
147 153
147 154
147 159
147 160
147 161
147 164
147 180
147 183
147 186
147 189
147 193
147 194
147 202
147 203
147 218
147 221
147 225
148 63
148 66
148 79
148 89
148 90
148 102
148 107
148 118
148 125
148 128
148 136
148 144
148 152
148 154
148 170
148 171
148 177
148 178
148 179
148 200
148 204
148 214
148 215
148 234
149 69
149 72
149 74
149 93
149 96
149 112
149 121
149 123
149 131
149 142
149 143
149 146
149 150
149 167
149 169
149 174
149 175
149 195
149 197
149 198
149 211
149 220
149 231
150 69
150 72
150 96
150 112
150 121
150 123
150 131
150 143
150 146
150 149
150 167
150 169
150 174
150 195
150 197
150 198
150 211
150 220
150 231
151 76
151 92
151 97
151 105
151 122
151 126
151 137
151 140
151 145
151 157
151 162
151 168
151 172
151 184
151 188
151 190
151 192
151 207
151 212
151 226
151 240
152 79
152 82
152 84
152 90
152 102
152 107
152 110
152 125
152 128
152 132
152 134
152 136
152 148
152 154
152 159
152 177
152 178
152 179
152 183
152 202
152 204
152 214
152 215
152 219
152 238
153 71
153 83
153 86
153 100
153 103
153 104
153 106
153 115
153 116
153 120
153 134
153 135
153 138
153 147
153 159
153 160
153 161
153 164
153 165
153 180
153 186
153 187
153 189
153 191
153 193
153 194
153 218
153 221
153 228
153 241
154 79
154 82
154 84
154 100
154 102
154 110
154 116
154 125
154 128
154 132
154 134
154 147
154 148
154 152
154 159
154 160
154 178
154 179
154 180
154 183
154 189
154 202
154 203
154 204
154 219
154 223
154 225
155 85
155 95
155 101
155 109
155 115
155 119
155 126
155 127
155 133
155 135
155 145
155 156
155 157
155 163
155 165
155 176
155 181
155 184
155 185
155 187
155 191
155 199
155 208
155 213
155 216
155 222
155 237
156 78
156 80
156 95
156 101
156 106
156 109
156 115
156 119
156 127
156 133
156 135
156 138
156 155
156 161
156 163
156 165
156 176
156 181
156 185
156 186
156 187
156 191
156 194
156 199
156 208
156 222
156 228
157 76
157 92
157 94
157 105
157 119
157 122
157 126
157 133
157 137
157 145
157 151
157 155
157 162
157 163
157 168
157 176
157 184
157 185
157 188
157 190
157 207
157 213
157 216
157 226
157 232
157 243
158 75
158 87
158 88
158 98
158 111
158 113
158 114
158 117
158 118
158 124
158 130
158 136
158 139
158 141
158 142
158 144
158 166
158 170
158 171
158 173
158 182
158 196
158 200
158 201
158 209
158 210
158 217
158 229
158 233
158 239
159 73
159 84
159 100
159 104
159 110
159 116
159 120
159 125
159 132
159 134
159 147
159 152
159 153
159 154
159 160
159 164
159 178
159 179
159 180
159 183
159 189
159 193
159 202
159 203
159 204
159 218
159 219
159 223
159 225
159 244
160 83
160 100
160 103
160 104
160 110
160 116
160 120
160 132
160 134
160 138
160 147
160 153
160 154
160 159
160 161
160 164
160 179
160 180
160 183
160 186
160 189
160 193
160 194
160 202
160 203
160 218
160 221
160 223
160 225
161 80
161 86
161 103
161 104
161 106
161 109
161 115
161 120
161 127
161 135
161 138
161 147
161 153
161 156
161 160
161 164
161 165
161 180
161 181
161 186
161 187
161 189
161 191
161 193
161 194
161 199
161 218
161 221
161 222
161 228
161 241
162 81
162 92
162 97
162 105
162 108
162 122
162 129
162 137
162 140
162 151
162 157
162 168
162 172
162 188
162 190
162 192
162 206
162 207
162 212
162 236
162 240
163 85
163 94
163 101
163 119
163 126
163 127
163 133
163 137
163 145
163 155
163 156
163 157
163 176
163 181
163 184
163 185
163 190
163 199
163 207
163 208
163 213
163 216
163 232
163 237
164 83
164 86
164 100
164 103
164 104
164 106
164 116
164 120
164 134
164 135
164 138
164 147
164 153
164 159
164 160
164 161
164 165
164 180
164 183
164 186
164 189
164 191
164 193
164 194
164 203
164 218
164 221
164 225
164 241
165 80
165 95
165 103
165 106
165 109
165 115
165 127
165 135
165 138
165 153
165 155
165 156
165 161
165 164
165 176
165 181
165 186
165 187
165 191
165 193
165 194
165 199
165 221
165 222
165 228
165 241
166 98
166 99
166 111
166 114
166 117
166 121
166 124
166 130
166 139
166 141
166 142
166 143
166 146
166 158
166 167
166 173
166 175
166 182
166 196
166 197
166 205
166 209
166 210
166 217
166 224
166 227
166 230
166 239
166 245
167 93
167 117
167 121
167 123
167 131
167 139
167 142
167 143
167 146
167 149
167 150
167 166
167 169
167 174
167 175
167 195
167 197
167 198
167 205
167 210
167 211
167 220
167 227
167 230
167 231
167 242
168 92
168 105
168 122
168 126
168 137
168 145
168 151
168 157
168 162
168 184
168 188
168 190
168 192
168 207
168 212
168 213
168 226
168 232
168 240
168 243
169 96
169 112
169 121
169 123
169 131
169 143
169 146
169 149
169 150
169 167
169 174
169 195
169 197
169 198
169 211
169 220
169 231
169 242
170 88
170 111
170 113
170 118
170 124
170 130
170 136
170 141
170 144
170 148
170 158
170 171
170 173
170 177
170 182
170 196
170 200
170 201
170 209
170 214
170 217
170 229
170 233
170 235
170 239
170 248
170 250
171 88
171 89
171 107
171 113
171 118
171 124
171 128
171 130
171 136
171 141
171 144
171 148
171 158
171 170
171 177
171 182
171 196
171 200
171 201
171 214
171 215
171 217
171 229
171 233
171 234
171 235
171 248
172 97
172 108
172 129
172 140
172 151
172 162
172 188
172 192
172 206
172 212
172 236
172 246
173 98
173 99
173 111
173 113
173 114
173 117
173 124
173 130
173 139
173 141
173 142
173 144
173 146
173 158
173 166
173 170
173 175
173 182
173 196
173 201
173 205
173 209
173 210
173 217
173 224
173 227
173 229
173 239
173 245
174 96
174 112
174 121
174 123
174 131
174 142
174 143
174 146
174 149
174 150
174 167
174 169
174 175
174 195
174 197
174 198
174 205
174 211
174 220
174 230
174 231
174 242
175 91
175 93
175 99
175 114
175 117
175 121
175 139
175 141
175 142
175 143
175 146
175 149
175 166
175 167
175 173
175 174
175 196
175 197
175 198
175 205
175 209
175 210
175 220
175 224
175 227
175 230
175 245
176 95
176 101
176 109
176 115
176 119
176 126
176 127
176 133
176 135
176 145
176 155
176 156
176 157
176 163
176 165
176 181
176 184
176 185
176 187
176 191
176 199
176 208
176 213
176 216
176 222
176 232
176 237
176 249
176 260
177 90
177 102
177 107
177 118
177 125
177 128
177 136
177 144
177 148
177 152
177 170
177 171
177 178
177 179
177 200
177 201
177 204
177 214
177 215
177 233
177 234
177 235
177 238
177 251
177 252
178 102
178 107
178 125
178 128
178 132
178 136
178 148
178 152
178 154
178 159
178 177
178 179
178 183
178 200
178 202
178 204
178 214
178 215
178 219
178 223
178 234
178 235
178 238
178 247
178 252
178 256
179 102
179 110
179 116
179 125
179 128
179 132
179 134
179 148
179 152
179 154
179 159
179 160
179 177
179 178
179 180
179 183
179 189
179 202
179 203
179 204
179 215
179 219
179 223
179 225
179 238
179 247
179 256
180 100
180 104
180 110
180 116
180 120
180 132
180 134
180 138
180 147
180 153
180 154
180 159
180 160
180 161
180 164
180 179
180 183
180 186
180 189
180 193
180 194
180 202
180 203
180 218
180 219
180 221
180 223
180 225
180 244
180 254
180 264
181 95
181 101
181 109
181 115
181 119
181 127
181 133
181 135
181 145
181 155
181 156
181 161
181 163
181 165
181 176
181 184
181 185
181 187
181 191
181 199
181 208
181 213
181 216
181 222
181 228
181 237
181 249
181 260
182 111
182 113
182 114
182 118
182 124
182 130
182 136
182 139
182 141
182 144
182 158
182 166
182 170
182 171
182 173
182 196
182 200
182 201
182 209
182 210
182 217
182 224
182 229
182 233
182 239
182 245
182 248
182 250
183 110
183 116
183 125
183 132
183 134
183 147
183 152
183 154
183 159
183 160
183 164
183 178
183 179
183 180
183 189
183 193
183 202
183 203
183 204
183 218
183 219
183 223
183 225
183 238
183 244
183 247
183 264
184 119
184 126
184 133
184 137
184 145
184 151
184 155
184 157
184 163
184 168
184 176
184 181
184 185
184 188
184 190
184 207
184 208
184 213
184 216
184 226
184 232
184 237
184 243
184 257
185 101
185 119
185 126
185 127
185 133
185 137
185 145
185 155
185 156
185 157
185 163
185 176
185 181
185 184
185 187
185 190
185 199
185 207
185 208
185 213
185 216
185 226
185 232
185 237
185 243
185 257
185 260
186 103
186 104
186 106
186 115
186 120
186 135
186 138
186 147
186 153
186 156
186 160
186 161
186 164
186 165
186 180
186 187
186 189
186 191
186 193
186 194
186 203
186 218
186 221
186 222
186 228
186 241
186 254
186 262
187 106
187 109
187 115
187 127
187 133
187 135
187 138
187 153
187 155
187 156
187 161
187 165
187 176
187 181
187 185
187 186
187 191
187 193
187 194
187 199
187 208
187 216
187 221
187 222
187 228
187 237
187 241
187 249
187 255
187 265
188 105
188 122
188 137
188 151
188 157
188 162
188 168
188 172
188 184
188 190
188 192
188 206
188 207
188 212
188 213
188 226
188 232
188 236
188 240
188 243
188 253
188 259
188 267
189 116
189 120
189 132
189 134
189 138
189 147
189 153
189 154
189 159
189 160
189 161
189 164
189 179
189 180
189 183
189 186
189 193
189 194
189 202
189 203
189 218
189 219
189 221
189 223
189 225
189 241
189 244
189 254
189 264
189 271
190 105
190 122
190 126
190 137
190 145
190 151
190 157
190 162
190 163
190 168
190 184
190 185
190 188
190 192
190 207
190 212
190 213
190 216
190 226
190 232
190 240
190 243
190 257
190 259
190 275
191 106
191 109
191 115
191 127
191 135
191 138
191 153
191 155
191 156
191 161
191 164
191 165
191 176
191 181
191 186
191 187
191 193
191 194
191 199
191 208
191 221
191 222
191 228
191 241
191 249
191 255
191 262
191 265
192 122
192 140
192 151
192 162
192 168
192 172
192 188
192 190
192 206
192 207
192 212
192 226
192 236
192 240
192 246
192 253
192 259
192 267
193 120
193 134
193 135
193 138
193 147
193 153
193 159
193 160
193 161
193 164
193 165
193 180
193 183
193 186
193 187
193 189
193 191
193 194
193 203
193 218
193 221
193 225
193 228
193 241
193 244
193 254
193 262
193 271
193 278
194 135
194 138
194 147
194 153
194 156
194 160
194 161
194 164
194 165
194 180
194 186
194 187
194 189
194 191
194 193
194 199
194 218
194 221
194 222
194 228
194 241
194 249
194 254
194 255
194 262
194 265
194 278
195 112
195 123
195 131
195 143
195 149
195 150
195 167
195 169
195 174
195 197
195 198
195 211
195 220
195 230
195 231
195 242
195 258
195 261
195 269
196 111
196 124
196 130
196 139
196 141
196 142
196 144
196 158
196 166
196 170
196 171
196 173
196 175
196 182
196 200
196 201
196 205
196 209
196 210
196 217
196 224
196 227
196 229
196 233
196 239
196 245
196 248
196 250
196 266
196 276
196 279
197 121
197 139
197 142
197 143
197 146
197 149
197 150
197 166
197 167
197 169
197 174
197 175
197 195
197 198
197 205
197 209
197 210
197 211
197 220
197 224
197 227
197 230
197 231
197 242
197 258
197 261
197 263
197 272
198 121
198 123
198 131
198 143
198 146
198 149
198 150
198 167
198 169
198 174
198 175
198 195
198 197
198 205
198 211
198 220
198 227
198 230
198 231
198 242
198 258
198 261
198 263
198 269
199 127
199 133
199 135
199 155
199 156
199 161
199 163
199 165
199 176
199 181
199 185
199 187
199 191
199 194
199 208
199 216
199 222
199 228
199 237
199 249
199 255
199 260
199 265
200 118
200 128
200 136
200 144
200 148
200 158
200 170
200 171
200 177
200 178
200 182
200 196
200 201
200 214
200 215
200 217
200 229
200 233
200 234
200 235
200 248
200 250
200 251
200 252
200 274
200 280
201 113
201 124
201 130
201 136
201 141
201 144
201 158
201 170
201 171
201 173
201 177
201 182
201 196
201 200
201 209
201 214
201 217
201 229
201 233
201 234
201 235
201 239
201 248
201 250
201 251
201 281
202 110
202 132
202 134
202 147
202 152
202 154
202 159
202 160
202 178
202 179
202 180
202 183
202 189
202 203
202 204
202 218
202 219
202 223
202 225
202 238
202 244
202 247
202 256
202 264
202 268
202 277
203 116
203 132
203 134
203 147
203 154
203 159
203 160
203 164
203 179
203 180
203 183
203 186
203 189
203 193
203 202
203 204
203 218
203 219
203 221
203 223
203 225
203 244
203 247
203 254
203 264
203 268
203 271
203 277
204 125
204 128
204 132
204 148
204 152
204 154
204 159
204 177
204 178
204 179
204 183
204 202
204 203
204 214
204 215
204 219
204 223
204 225
204 234
204 235
204 238
204 247
204 251
204 252
204 256
204 268
204 274
204 284
204 290
205 117
205 139
205 142
205 143
205 146
205 166
205 167
205 173
205 174
205 175
205 196
205 197
205 198
205 209
205 210
205 220
205 224
205 227
205 230
205 239
205 245
205 258
205 263
205 266
205 272
206 129
206 140
206 162
206 172
206 188
206 192
206 212
206 236
206 240
206 246
206 253
206 267
206 270
206 286
207 126
207 137
207 145
207 151
207 157
207 162
207 163
207 168
207 184
207 185
207 188
207 190
207 192
207 212
207 213
207 216
207 226
207 232
207 240
207 243
207 257
207 259
207 267
207 275
207 283
207 289
208 127
208 133
208 145
208 155
208 156
208 163
208 176
208 181
208 184
208 185
208 187
208 191
208 199
208 213
208 216
208 222
208 228
208 232
208 237
208 243
208 249
208 255
208 257
208 260
208 273
208 288
209 139
209 141
209 142
209 158
209 166
209 170
209 173
209 175
209 182
209 196
209 197
209 201
209 205
209 210
209 217
209 224
209 227
209 229
209 230
209 233
209 239
209 245
209 250
209 266
209 272
209 276
209 279
210 139
210 141
210 142
210 146
210 158
210 166
210 167
210 173
210 175
210 182
210 196
210 197
210 205
210 209
210 217
210 224
210 227
210 229
210 230
210 239
210 245
210 250
210 263
210 266
210 272
210 276
211 131
211 149
211 150
211 167
211 169
211 174
211 195
211 197
211 198
211 220
211 231
211 242
211 258
211 261
211 269
211 291
212 140
212 151
212 162
212 168
212 172
212 188
212 190
212 192
212 206
212 207
212 226
212 236
212 240
212 246
212 253
212 259
212 267
212 270
212 282
212 286
213 126
213 137
213 145
213 155
213 157
213 163
213 168
213 176
213 181
213 184
213 185
213 188
213 190
213 207
213 208
213 216
213 226
213 232
213 237
213 243
213 257
213 259
213 260
213 273
213 275
213 283
214 128
214 136
214 148
214 152
214 170
214 171
214 177
214 178
214 200
214 201
214 204
214 215
214 229
214 233
214 234
214 235
214 238
214 248
214 251
214 252
214 256
214 274
214 280
214 296
215 128
215 148
215 152
215 171
215 177
215 178
215 179
215 200
215 204
215 214
215 219
215 233
215 234
215 235
215 238
215 247
215 248
215 251
215 252
215 256
215 274
215 280
215 284
215 290
215 296
216 133
216 145
216 155
216 157
216 163
216 176
216 181
216 184
216 185
216 187
216 190
216 199
216 207
216 208
216 213
216 222
216 226
216 232
216 237
216 243
216 249
216 257
216 260
216 273
216 275
216 283
216 288
216 295
217 130
217 141
217 144
217 158
217 166
217 170
217 171
217 173
217 182
217 196
217 200
217 201
217 209
217 210
217 224
217 229
217 233
217 239
217 245
217 248
217 250
217 266
217 276
217 279
217 281
217 301
218 147
218 153
218 159
218 160
218 161
218 164
218 180
218 183
218 186
218 189
218 193
218 194
218 202
218 203
218 221
218 223
218 225
218 228
218 241
218 244
218 247
218 254
218 262
218 264
218 271
218 278
218 298
219 132
219 152
219 154
219 159
219 178
219 179
219 180
219 183
219 189
219 202
219 203
219 204
219 215
219 223
219 225
219 234
219 238
219 244
219 247
219 252
219 256
219 264
219 268
219 277
219 284
219 290
220 143
220 146
220 149
220 150
220 167
220 169
220 174
220 175
220 195
220 197
220 198
220 205
220 211
220 227
220 230
220 231
220 242
220 258
220 261
220 263
220 269
220 272
220 287
220 294
221 138
221 147
221 153
221 160
221 161
221 164
221 165
221 180
221 186
221 187
221 189
221 191
221 193
221 194
221 203
221 218
221 222
221 225
221 228
221 241
221 244
221 254
221 255
221 262
221 264
221 265
221 271
221 278
221 285
221 298
222 135
222 155
222 156
222 161
222 165
222 176
222 181
222 186
222 187
222 191
222 194
222 199
222 208
222 216
222 221
222 228
222 237
222 241
222 249
222 255
222 260
222 262
222 265
222 285
222 288
222 292
223 154
223 159
223 160
223 178
223 179
223 180
223 183
223 189
223 202
223 203
223 204
223 218
223 219
223 225
223 238
223 244
223 247
223 254
223 256
223 264
223 268
223 271
223 277
223 284
223 300
223 306
224 139
224 142
224 166
224 173
224 175
224 182
224 196
224 197
224 205
224 209
224 210
224 217
224 227
224 229
224 230
224 239
224 245
224 250
224 258
224 263
224 266
224 272
224 276
224 279
224 297
224 299
224 301
224 303
225 147
225 154
225 159
225 160
225 164
225 179
225 180
225 183
225 189
225 193
225 202
225 203
225 204
225 218
225 219
225 221
225 223
225 241
225 244
225 247
225 254
225 256
225 264
225 268
225 271
225 277
225 278
225 300
225 305
226 151
226 157
226 168
226 184
226 185
226 188
226 190
226 192
226 207
226 212
226 213
226 216
226 232
226 240
226 243
226 253
226 257
226 259
226 267
226 275
226 282
226 283
226 289
226 310
227 142
227 146
227 166
227 167
227 173
227 175
227 196
227 197
227 198
227 205
227 209
227 210
227 220
227 224
227 230
227 239
227 242
227 245
227 258
227 261
227 263
227 266
227 272
227 276
227 287
227 297
227 299
227 303
228 153
228 156
228 161
228 165
228 181
228 186
228 187
228 191
228 193
228 194
228 199
228 208
228 218
228 221
228 222
228 241
228 249
228 254
228 255
228 260
228 262
228 265
228 278
228 285
228 288
228 292
228 307
229 144
229 158
229 170
229 171
229 173
229 182
229 196
229 200
229 201
229 209
229 210
229 214
229 217
229 224
229 233
229 235
229 239
229 245
229 248
229 250
229 251
229 266
229 276
229 279
229 280
229 281
229 301
229 304
229 311
230 143
230 146
230 166
230 167
230 174
230 175
230 195
230 197
230 198
230 205
230 209
230 210
230 220
230 224
230 227
230 231
230 242
230 245
230 258
230 261
230 263
230 266
230 272
230 287
230 297
230 303
231 149
231 150
231 167
231 169
231 174
231 195
231 197
231 198
231 211
231 220
231 230
231 242
231 258
231 261
231 269
231 287
231 291
231 294
231 312
232 145
232 157
232 163
232 168
232 176
232 184
232 185
232 188
232 190
232 207
232 208
232 213
232 216
232 226
232 237
232 240
232 243
232 257
232 259
232 260
232 273
232 275
232 283
232 289
232 295
232 302
232 310
233 144
233 158
233 170
233 171
233 177
233 182
233 196
233 200
233 201
233 209
233 214
233 215
233 217
233 229
233 234
233 235
233 239
233 248
233 250
233 251
233 252
233 274
233 279
233 280
233 281
233 304
234 148
234 171
234 177
234 178
234 200
234 201
234 204
234 214
234 215
234 219
234 233
234 235
234 238
234 247
234 248
234 251
234 252
234 256
234 268
234 274
234 280
234 284
234 290
234 296
234 309
234 313
235 170
235 171
235 177
235 178
235 200
235 201
235 204
235 214
235 215
235 229
235 233
235 234
235 238
235 248
235 250
235 251
235 252
235 256
235 274
235 280
235 281
235 290
235 296
235 304
235 309
235 313
236 162
236 172
236 188
236 192
236 206
236 212
236 240
236 246
236 253
236 259
236 267
236 270
236 282
236 286
236 289
236 293
236 317
237 155
237 163
237 176
237 181
237 184
237 185
237 187
237 199
237 208
237 213
237 216
237 222
237 232
237 243
237 249
237 255
237 257
237 260
237 273
237 275
237 283
237 288
237 295
237 302
238 152
238 177
238 178
238 179
238 183
238 202
238 204
238 214
238 215
238 219
238 223
238 234
238 235
238 247
238 251
238 252
238 256
238 268
238 274
238 277
238 280
238 284
238 290
238 296
238 306
238 313
239 158
239 166
239 170
239 173
239 182
239 196
239 201
239 205
239 209
239 210
239 217
239 224
239 227
239 229
239 233
239 245
239 248
239 250
239 266
239 272
239 276
239 279
239 281
239 297
239 299
239 301
239 311
239 314
240 151
240 162
240 168
240 188
240 190
240 192
240 206
240 207
240 212
240 226
240 232
240 236
240 243
240 246
240 253
240 259
240 267
240 270
240 275
240 282
240 286
240 289
240 315
241 153
241 161
241 164
241 165
241 186
241 187
241 189
241 191
241 193
241 194
241 218
241 221
241 222
241 225
241 228
241 244
241 249
241 254
241 255
241 262
241 264
241 265
241 271
241 278
241 285
241 292
241 298
241 307
241 321
242 167
242 169
242 174
242 195
242 197
242 198
242 211
242 220
242 227
242 230
242 231
242 258
242 261
242 263
242 269
242 272
242 287
242 291
242 294
242 308
242 312
242 326
243 157
243 168
243 184
243 185
243 188
243 190
243 207
243 208
243 213
243 216
243 226
243 232
243 237
243 240
243 257
243 259
243 260
243 267
243 273
243 275
243 283
243 289
243 295
243 302
243 310
243 323
244 159
244 180
244 183
244 189
244 193
244 202
244 203
244 218
244 219
244 221
244 223
244 225
244 241
244 247
244 254
244 256
244 262
244 264
244 268
244 271
244 277
244 278
244 284
244 298
244 300
244 305
244 306
244 316
245 166
245 173
245 175
245 182
245 196
245 205
245 209
245 210
245 217
245 224
245 227
245 229
245 230
245 239
245 250
245 258
245 263
245 266
245 272
245 276
245 279
245 281
245 297
245 299
245 301
245 303
245 314
246 172
246 192
246 206
246 212
246 236
246 240
246 253
246 267
246 270
246 282
246 286
246 293
246 317
246 328
247 178
247 179
247 183
247 202
247 203
247 204
247 215
247 218
247 219
247 223
247 225
247 234
247 238
247 244
247 252
247 256
247 264
247 268
247 271
247 274
247 277
247 284
247 290
247 300
247 305
247 306
248 170
248 171
248 182
248 196
248 200
248 201
248 214
248 215
248 217
248 229
248 233
248 234
248 235
248 239
248 250
248 251
248 252
248 274
248 279
248 280
248 281
248 296
248 301
248 304
248 309
248 311
249 176
249 181
249 187
249 191
249 194
249 199
249 208
249 216
249 222
249 228
249 237
249 241
249 255
249 257
249 260
249 262
249 265
249 273
249 285
249 288
249 292
249 295
249 307
249 318
249 320
249 330
250 170
250 182
250 196
250 200
250 201
250 209
250 210
250 217
250 224
250 229
250 233
250 235
250 239
250 245
250 248
250 251
250 266
250 276
250 279
250 280
250 281
250 299
250 301
250 304
250 311
250 327
251 177
251 200
251 201
251 204
251 214
251 215
251 229
251 233
251 234
251 235
251 238
251 248
251 250
251 252
251 256
251 274
251 280
251 281
251 284
251 290
251 296
251 304
251 309
251 313
252 177
252 178
252 200
252 204
252 214
252 215
252 219
252 233
252 234
252 235
252 238
252 247
252 248
252 251
252 256
252 268
252 274
252 280
252 284
252 290
252 296
252 306
252 309
252 313
252 325
253 188
253 192
253 206
253 212
253 226
253 236
253 240
253 246
253 259
253 267
253 270
253 282
253 286
253 289
253 293
253 315
253 317
254 180
254 186
254 189
254 193
254 194
254 203
254 218
254 221
254 223
254 225
254 228
254 241
254 244
254 255
254 262
254 264
254 265
254 271
254 277
254 278
254 285
254 298
254 300
254 305
254 307
254 316
254 321
255 187
255 191
255 194
255 199
255 208
255 221
255 222
255 228
255 237
255 241
255 249
255 254
255 260
255 262
255 265
255 273
255 278
255 285
255 288
255 292
255 298
255 307
255 318
255 320
255 321
256 178
256 179
256 202
256 204
256 214
256 215
256 219
256 223
256 225
256 234
256 235
256 238
256 244
256 247
256 251
256 252
256 264
256 268
256 274
256 277
256 280
256 284
256 290
256 296
256 300
256 306
256 313
256 325
256 331
257 184
257 185
257 190
257 207
257 208
257 213
257 216
257 226
257 232
257 237
257 243
257 249
257 259
257 260
257 273
257 275
257 283
257 288
257 295
257 302
257 310
257 323
258 195
258 197
258 198
258 205
258 211
258 220
258 224
258 227
258 230
258 231
258 242
258 245
258 261
258 263
258 266
258 269
258 272
258 287
258 291
258 294
258 297
258 303
258 308
258 322
258 324
258 326
258 338
259 188
259 190
259 192
259 207
259 212
259 213
259 226
259 232
259 236
259 240
259 243
259 253
259 257
259 267
259 275
259 282
259 283
259 289
259 302
259 310
259 315
259 319
260 176
260 181
260 185
260 199
260 208
260 213
260 216
260 222
260 228
260 232
260 237
260 243
260 249
260 255
260 257
260 265
260 273
260 283
260 288
260 292
260 295
260 302
260 318
260 330
260 333
261 195
261 197
261 198
261 211
261 220
261 227
261 230
261 231
261 242
261 258
261 263
261 269
261 272
261 287
261 291
261 294
261 303
261 308
261 312
261 322
261 326
261 329
262 186
262 191
262 193
262 194
262 218
262 221
262 222
262 228
262 241
262 244
262 249
262 254
262 255
262 264
262 265
262 271
262 278
262 285
262 292
262 298
262 305
262 307
262 316
262 320
262 321
263 197
263 198
263 205
263 210
263 220
263 224
263 227
263 230
263 242
263 245
263 258
263 261
263 266
263 272
263 276
263 287
263 294
263 297
263 299
263 303
263 308
263 314
263 322
263 324
264 180
264 183
264 189
264 202
264 203
264 218
264 219
264 221
264 223
264 225
264 241
264 244
264 247
264 254
264 256
264 262
264 268
264 271
264 277
264 278
264 284
264 298
264 300
264 305
264 306
264 316
264 334
264 335
265 187
265 191
265 194
265 199
265 221
265 222
265 228
265 241
265 249
265 254
265 255
265 260
265 262
265 271
265 278
265 285
265 288
265 292
265 298
265 307
265 318
265 320
265 321
265 349
266 196
266 205
266 209
266 210
266 217
266 224
266 227
266 229
266 230
266 239
266 245
266 250
266 258
266 263
266 272
266 276
266 279
266 281
266 297
266 299
266 301
266 303
266 311
266 314
266 324
266 327
266 340
267 188
267 192
267 206
267 207
267 212
267 226
267 236
267 240
267 243
267 246
267 253
267 259
267 270
267 275
267 282
267 283
267 286
267 289
267 293
267 310
267 315
267 317
267 319
267 351
268 202
268 203
268 204
268 219
268 223
268 225
268 234
268 238
268 244
268 247
268 252
268 256
268 264
268 271
268 274
268 277
268 284
268 290
268 296
268 300
268 305
268 306
268 325
268 331
268 334
268 335
269 195
269 198
269 211
269 220
269 231
269 242
269 258
269 261
269 287
269 291
269 294
269 308
269 312
269 326
269 329
270 206
270 212
270 236
270 240
270 246
270 253
270 267
270 282
270 286
270 293
270 315
270 317
270 328
271 189
271 193
271 203
271 218
271 221
271 223
271 225
271 241
271 244
271 247
271 254
271 262
271 264
271 265
271 268
271 277
271 278
271 285
271 298
271 300
271 305
271 307
271 316
271 321
271 334
271 341
271 347
272 197
272 205
272 209
272 210
272 220
272 224
272 227
272 230
272 239
272 242
272 245
272 258
272 261
272 263
272 266
272 276
272 279
272 287
272 297
272 299
272 301
272 303
272 308
272 314
272 322
272 324
272 338
272 340
273 208
273 213
273 216
273 232
273 237
273 243
273 249
273 255
273 257
273 260
273 275
273 283
273 288
273 292
273 295
273 302
273 310
273 318
273 323
273 330
273 333
273 339
274 200
274 204
274 214
274 215
274 233
274 234
274 235
274 238
274 247
274 248
274 251
274 252
274 256
274 268
274 280
274 281
274 284
274 290
274 296
274 304
274 306
274 309
274 313
274 325
274 336
274 337
275 190
275 207
275 213
275 216
275 226
275 232
275 237
275 240
275 243
275 257
275 259
275 267
275 273
275 282
275 283
275 289
275 295
275 302
275 310
275 315
275 319
275 323
275 339
275 344
275 345
275 352
276 196
276 209
276 210
276 217
276 224
276 227
276 229
276 239
276 245
276 250
276 263
276 266
276 272
276 279
276 281
276 297
276 299
276 301
276 303
276 311
276 314
276 324
276 327
276 340
276 346
277 202
277 203
277 219
277 223
277 225
277 238
277 244
277 247
277 254
277 256
277 264
277 268
277 271
277 284
277 290
277 300
277 305
277 306
277 316
277 325
277 331
277 334
277 335
277 354
278 193
278 194
278 218
278 221
278 225
278 228
278 241
278 244
278 254
278 255
278 262
278 264
278 265
278 271
278 285
278 292
278 298
278 305
278 307
278 316
278 320
278 321
278 341
278 342
278 347
278 349
279 196
279 209
279 217
279 224
279 229
279 233
279 239
279 245
279 248
279 250
279 266
279 272
279 276
279 281
279 297
279 299
279 301
279 304
279 311
279 314
279 324
279 327
279 332
279 340
279 346
279 350
280 200
280 214
280 215
280 229
280 233
280 234
280 235
280 238
280 248
280 250
280 251
280 252
280 256
280 274
280 281
280 290
280 296
280 304
280 309
280 311
280 313
280 332
280 336
280 337
280 355
281 201
281 217
281 229
281 233
281 235
281 239
281 245
281 248
281 250
281 251
281 266
281 274
281 276
281 279
281 280
281 296
281 299
281 301
281 304
281 309
281 311
281 314
281 327
281 332
281 337
281 350
282 212
282 226
282 236
282 240
282 246
282 253
282 259
282 267
282 270
282 275
282 286
282 289
282 293
282 310
282 315
282 317
282 319
282 328
282 343
282 344
282 351
282 358
283 207
283 213
283 216
283 226
283 232
283 237
283 243
283 257
283 259
283 260
283 267
283 273
283 275
283 289
283 295
283 302
283 310
283 319
283 323
283 333
283 339
283 344
283 345
283 352
284 204
284 215
284 219
284 223
284 234
284 238
284 244
284 247
284 251
284 252
284 256
284 264
284 268
284 274
284 277
284 290
284 296
284 300
284 305
284 306
284 313
284 325
284 331
284 334
284 335
284 336
284 357
284 361
285 221
285 222
285 228
285 241
285 249
285 254
285 255
285 262
285 265
285 271
285 278
285 288
285 292
285 298
285 307
285 316
285 318
285 320
285 321
285 330
285 342
285 347
285 348
285 349
286 206
286 212
286 236
286 240
286 246
286 253
286 267
286 270
286 282
286 289
286 293
286 315
286 317
286 328
286 343
286 353
286 365
287 220
287 227
287 230
287 231
287 242
287 258
287 261
287 263
287 269
287 272
287 291
287 294
287 297
287 303
287 308
287 312
287 322
287 324
287 326
287 329
287 338
287 356
287 364
288 208
288 216
288 222
288 228
288 237
288 249
288 255
288 257
288 260
288 265
288 273
288 285
288 292
288 295
288 302
288 307
288 318
288 320
288 323
288 330
288 333
288 339
288 348
288 363
289 207
289 226
289 232
289 236
289 240
289 243
289 253
289 259
289 267
289 275
289 282
289 283
289 286
289 302
289 310
289 315
289 317
289 319
289 323
289 343
289 344
289 345
289 351
289 352
289 358
289 367
290 204
290 215
290 219
290 234
290 235
290 238
290 247
290 251
290 252
290 256
290 268
290 274
290 277
290 280
290 284
290 296
290 300
290 306
290 309
290 313
290 325
290 331
290 335
290 336
290 337
290 357
290 361
291 211
291 231
291 242
291 258
291 261
291 269
291 287
291 294
291 308
291 312
291 326
291 329
291 338
291 356
291 362
292 222
292 228
292 241
292 249
292 255
292 260
292 262
292 265
292 273
292 278
292 285
292 288
292 295
292 298
292 307
292 318
292 320
292 321
292 330
292 333
292 342
292 348
292 349
292 363
292 370
293 236
293 246
293 253
293 267
293 270
293 282
293 286
293 315
293 317
293 328
293 343
293 353
293 373
294 220
294 231
294 242
294 258
294 261
294 263
294 269
294 287
294 291
294 303
294 308
294 312
294 322
294 326
294 329
294 338
294 356
294 362
295 216
295 232
295 237
295 243
295 249
295 257
295 260
295 273
295 275
295 283
295 288
295 292
295 302
295 310
295 318
295 323
295 330
295 333
295 339
295 345
295 360
295 363
296 214
296 215
296 234
296 235
296 238
296 248
296 251
296 252
296 256
296 268
296 274
296 280
296 281
296 284
296 290
296 304
296 306
296 309
296 313
296 325
296 331
296 332
296 336
296 337
296 355
296 357
297 224
297 227
297 230
297 239
297 245
297 258
297 263
297 266
297 272
297 276
297 279
297 287
297 299
297 301
297 303
297 308
297 311
297 314
297 322
297 324
297 327
297 338
297 340
297 346
297 368
298 218
298 221
298 241
298 244
298 254
298 255
298 262
298 264
298 265
298 271
298 278
298 285
298 292
298 300
298 305
298 307
298 316
298 320
298 321
298 334
298 341
298 342
298 347
298 349
298 359
298 366
298 374
299 224
299 227
299 239
299 245
299 250
299 263
299 266
299 272
299 276
299 279
299 281
299 297
299 301
299 303
299 311
299 314
299 322
299 324
299 327
299 340
299 346
299 368
299 375
300 223
300 225
300 244
300 247
300 254
300 256
300 264
300 268
300 271
300 277
300 284
300 290
300 298
300 305
300 306
300 316
300 325
300 331
300 334
300 335
300 341
300 354
300 359
300 361
300 371
301 217
301 224
301 229
301 239
301 245
301 248
301 250
301 266
301 272
301 276
301 279
301 281
301 297
301 299
301 303
301 304
301 311
301 314
301 324
301 327
301 332
301 340
301 346
301 350
301 375
301 376
302 232
302 237
302 243
302 257
302 259
302 260
302 273
302 275
302 283
302 288
302 289
302 295
302 310
302 319
302 323
302 330
302 333
302 339
302 344
302 345
302 352
302 360
302 369
302 377
303 224
303 227
303 230
303 245
303 258
303 261
303 263
303 266
303 272
303 276
303 287
303 294
303 297
303 299
303 301
303 308
303 314
303 322
303 324
303 326
303 338
303 340
303 364
303 368
303 372
304 229
304 233
304 235
304 248
304 250
304 251
304 274
304 279
304 280
304 281
304 296
304 301
304 309
304 311
304 313
304 327
304 332
304 336
304 337
304 350
304 355
304 380
305 225
305 244
305 247
305 254
305 262
305 264
305 268
305 271
305 277
305 278
305 284
305 298
305 300
305 306
305 316
305 321
305 331
305 334
305 335
305 341
305 347
305 354
305 359
305 371
305 379
306 223
306 238
306 244
306 247
306 252
306 256
306 264
306 268
306 274
306 277
306 284
306 290
306 296
306 300
306 305
306 313
306 325
306 331
306 334
306 335
306 336
306 354
306 357
306 361
306 371
307 228
307 241
307 249
307 254
307 255
307 262
307 265
307 271
307 278
307 285
307 288
307 292
307 298
307 316
307 318
307 320
307 321
307 330
307 341
307 342
307 347
307 348
307 349
307 366
307 370
307 374
307 378
308 242
308 258
308 261
308 263
308 269
308 272
308 287
308 291
308 294
308 297
308 303
308 312
308 322
308 324
308 326
308 329
308 338
308 356
308 362
308 364
308 372
308 381
309 234
309 235
309 248
309 251
309 252
309 274
309 280
309 281
309 290
309 296
309 304
309 311
309 313
309 325
309 332
309 336
309 337
309 350
309 355
309 357
309 385
310 226
310 232
310 243
310 257
310 259
310 267
310 273
310 275
310 282
310 283
310 289
310 295
310 302
310 315
310 319
310 323
310 333
310 339
310 344
310 345
310 351
310 352
310 360
310 367
310 369
310 377
310 383
311 229
311 239
311 248
311 250
311 266
311 276
311 279
311 280
311 281
311 297
311 299
311 301
311 304
311 309
311 314
311 327
311 332
311 337
311 340
311 346
311 350
311 375
311 376
311 380
312 231
312 242
312 261
312 269
312 287
312 291
312 294
312 308
312 322
312 326
312 329
312 338
312 356
312 362
312 381
313 234
313 235
313 238
313 251
313 252
313 256
313 274
313 280
313 284
313 290
313 296
313 304
313 306
313 309
313 325
313 331
313 332
313 336
313 337
313 355
313 357
313 361
313 385
313 388
314 239
314 245
314 263
314 266
314 272
314 276
314 279
314 281
314 297
314 299
314 301
314 303
314 311
314 322
314 324
314 327
314 340
314 346
314 350
314 368
314 375
314 376
314 392
315 240
315 253
315 259
315 267
315 270
315 275
315 282
315 286
315 289
315 293
315 310
315 317
315 319
315 328
315 343
315 344
315 351
315 352
315 353
315 358
315 365
315 367
315 369
315 389
316 244
316 254
316 262
316 264
316 271
316 277
316 278
316 285
316 298
316 300
316 305
316 307
316 320
316 321
316 334
316 335
316 341
316 342
316 347
316 349
316 354
316 359
316 366
316 374
316 379
316 382
317 236
317 246
317 253
317 267
317 270
317 282
317 286
317 289
317 293
317 315
317 319
317 328
317 343
317 344
317 351
317 353
317 358
317 365
317 367
317 373
317 389
318 249
318 255
318 260
318 265
318 273
318 285
318 288
318 292
318 295
318 307
318 320
318 321
318 330
318 333
318 339
318 342
318 348
318 349
318 360
318 363
318 370
318 378
318 386
318 391
319 259
319 267
319 275
319 282
319 283
319 289
319 302
319 310
319 315
319 317
319 323
319 339
319 343
319 344
319 345
319 351
319 352
319 358
319 365
319 367
319 369
319 377
319 383
320 249
320 255
320 262
320 265
320 278
320 285
320 288
320 292
320 298
320 307
320 316
320 318
320 321
320 330
320 333
320 342
320 347
320 348
320 349
320 363
320 366
320 370
320 374
320 378
320 391
321 241
321 254
321 255
321 262
321 265
321 271
321 278
321 285
321 292
321 298
321 305
321 307
321 316
321 318
321 320
321 341
321 342
321 347
321 348
321 349
321 359
321 366
321 370
321 374
321 378
321 382
322 258
322 261
322 263
322 272
322 287
322 294
322 297
322 299
322 303
322 308
322 312
322 314
322 324
322 326
322 329
322 338
322 340
322 356
322 364
322 368
322 372
322 381
322 387
323 243
323 257
323 273
323 275
323 283
323 288
323 289
323 295
323 302
323 310
323 319
323 330
323 333
323 339
323 344
323 345
323 352
323 360
323 367
323 369
323 377
323 383
323 384
323 394
324 258
324 263
324 266
324 272
324 276
324 279
324 287
324 297
324 299
324 301
324 303
324 308
324 314
324 322
324 326
324 327
324 338
324 340
324 346
324 364
324 368
324 372
324 375
324 387
324 392
325 252
325 256
325 268
325 274
325 277
325 284
325 290
325 296
325 300
325 306
325 309
325 313
325 331
325 334
325 335
325 336
325 337
325 354
325 355
325 357
325 361
325 371
325 388
325 397
326 242
326 258
326 261
326 269
326 287
326 291
326 294
326 303
326 308
326 312
326 322
326 324
326 329
326 338
326 356
326 362
326 364
326 372
326 381
326 395
326 400
327 250
327 266
327 276
327 279
327 281
327 297
327 299
327 301
327 304
327 311
327 314
327 324
327 332
327 340
327 346
327 350
327 375
327 376
327 380
327 392
327 393
328 246
328 270
328 282
328 286
328 293
328 315
328 317
328 343
328 351
328 353
328 358
328 365
328 373
328 396
328 403
329 261
329 269
329 287
329 291
329 294
329 308
329 312
329 322
329 326
329 338
329 356
329 362
329 372
329 381
329 395
330 249
330 260
330 273
330 285
330 288
330 292
330 295
330 302
330 307
330 318
330 320
330 323
330 333
330 339
330 345
330 348
330 349
330 360
330 363
330 370
330 378
330 384
330 386
330 391
331 256
331 268
331 277
331 284
331 290
331 296
331 300
331 305
331 306
331 313
331 325
331 334
331 335
331 336
331 354
331 357
331 359
331 361
331 371
331 397
331 401
332 279
332 280
332 281
332 296
332 301
332 304
332 309
332 311
332 313
332 327
332 336
332 337
332 346
332 350
332 355
332 376
332 380
332 385
332 390
332 409
333 260
333 273
333 283
333 288
333 292
333 295
333 302
333 310
333 318
333 320
333 323
333 330
333 339
333 345
333 348
333 352
333 360
333 363
333 369
333 370
333 377
333 384
333 386
333 391
333 394
334 264
334 268
334 271
334 277
334 284
334 298
334 300
334 305
334 306
334 316
334 325
334 331
334 335
334 341
334 347
334 354
334 359
334 361
334 371
334 379
334 382
334 401
334 408
335 264
335 268
335 277
335 284
335 290
335 300
335 305
335 306
335 316
335 325
335 331
335 334
335 341
335 354
335 357
335 359
335 361
335 371
335 379
335 397
335 401
335 408
336 274
336 280
336 284
336 290
336 296
336 304
336 306
336 309
336 313
336 325
336 331
336 332
336 337
336 355
336 357
336 361
336 385
336 388
336 390
336 397
336 404
336 407
337 274
337 280
337 281
337 290
337 296
337 304
337 309
337 311
337 313
337 325
337 332
337 336
337 350
337 355
337 357
337 380
337 385
337 388
337 390
337 404
337 409
338 258
338 272
338 287
338 291
338 294
338 297
338 303
338 308
338 312
338 322
338 324
338 326
338 329
338 340
338 356
338 362
338 364
338 368
338 372
338 381
338 387
338 400
338 402
338 405
339 273
339 275
339 283
339 288
339 295
339 302
339 310
339 318
339 319
339 323
339 330
339 333
339 344
339 345
339 352
339 360
339 363
339 367
339 369
339 377
339 383
339 384
339 386
339 394
339 399
340 266
340 272
340 276
340 279
340 297
340 299
340 301
340 303
340 311
340 314
340 322
340 324
340 327
340 338
340 346
340 350
340 364
340 368
340 372
340 375
340 376
340 387
340 392
340 393
340 405
340 410
340 415
341 271
341 278
341 298
341 300
341 305
341 307
341 316
341 321
341 334
341 335
341 342
341 347
341 349
341 354
341 359
341 366
341 371
341 374
341 379
341 382
341 406
341 408
342 278
342 285
342 292
342 298
342 307
342 316
342 318
342 320
342 321
342 341
342 347
342 348
342 349
342 359
342 363
342 366
342 370
342 374
342 378
342 379
342 382
342 391
342 406
342 414
343 282
343 286
343 289
343 293
343 315
343 317
343 319
343 328
343 344
343 351
343 353
343 358
343 365
343 367
343 373
343 389
343 396
343 398
343 403
343 412
344 275
344 282
344 283
344 289
344 302
344 310
344 315
344 317
344 319
344 323
344 339
344 343
344 345
344 351
344 352
344 358
344 365
344 367
344 369
344 377
344 383
344 389
344 394
344 398
344 399
345 275
345 283
345 289
345 295
345 302
345 310
345 319
345 323
345 330
345 333
345 339
345 344
345 351
345 352
345 360
345 367
345 369
345 377
345 383
345 384
345 386
345 394
345 399
346 276
346 279
346 297
346 299
346 301
346 311
346 314
346 324
346 327
346 332
346 340
346 350
346 368
346 375
346 376
346 380
346 392
346 393
346 411
346 415
347 271
347 278
347 285
347 298
347 305
347 307
347 316
347 320
347 321
347 334
347 341
347 342
347 348
347 349
347 354
347 359
347 366
347 374
347 378
347 379
347 382
347 406
347 414
348 285
348 288
348 292
348 307
348 318
348 320
348 321
348 330
348 333
348 342
348 347
348 349
348 360
348 363
348 366
348 370
348 374
348 378
348 386
348 391
348 418
349 265
349 278
349 285
349 292
349 298
349 307
349 316
349 318
349 320
349 321
349 330
349 341
349 342
349 347
349 348
349 363
349 366
349 370
349 374
349 378
349 382
349 391
349 414
349 418
350 279
350 281
350 301
350 304
350 309
350 311
350 314
350 327
350 332
350 337
350 340
350 346
350 355
350 375
350 376
350 380
350 385
350 390
350 392
350 393
350 409
350 411
351 267
351 282
351 289
351 310
351 315
351 317
351 319
351 328
351 343
351 344
351 345
351 352
351 353
351 358
351 365
351 367
351 369
351 373
351 383
351 389
351 396
351 398
351 399
351 412
352 275
352 283
352 289
352 302
352 310
352 315
352 319
352 323
352 333
352 339
352 344
352 345
352 351
352 358
352 360
352 367
352 369
352 377
352 383
352 384
352 394
352 398
352 399
353 286
353 293
353 315
353 317
353 328
353 343
353 351
353 358
353 365
353 373
353 389
353 396
353 403
353 412
353 417
354 277
354 300
354 305
354 306
354 316
354 325
354 331
354 334
354 335
354 341
354 347
354 357
354 359
354 361
354 371
354 379
354 382
354 397
354 401
354 408
354 413
354 419
355 280
355 296
355 304
355 309
355 313
355 325
355 332
355 336
355 337
355 350
355 357
355 380
355 385
355 388
355 390
355 397
355 404
355 407
355 409
355 425
355 426
356 287
356 291
356 294
356 308
356 312
356 322
356 326
356 329
356 338
356 362
356 364
356 372
356 381
356 387
356 395
356 400
356 402
356 416
356 420
356 431
357 284
357 290
357 296
357 306
357 309
357 313
357 325
357 331
357 335
357 336
357 337
357 354
357 355
357 361
357 371
357 385
357 388
357 397
357 401
357 404
357 407
357 413
358 282
358 289
358 315
358 317
358 319
358 328
358 343
358 344
358 351
358 352
358 353
358 365
358 367
358 369
358 373
358 383
358 389
358 396
358 398
358 399
358 403
358 412
359 298
359 300
359 305
359 316
359 321
359 331
359 334
359 335
359 341
359 342
359 347
359 354
359 361
359 366
359 371
359 374
359 379
359 382
359 401
359 406
359 408
359 424
360 295
360 302
360 310
360 318
360 323
360 330
360 333
360 339
360 345
360 348
360 352
360 363
360 369
360 370
360 377
360 383
360 384
360 386
360 391
360 394
360 399
361 284
361 290
361 300
361 306
361 313
361 325
361 331
361 334
361 335
361 336
361 354
361 357
361 359
361 371
361 379
361 388
361 397
361 401
361 407
361 408
361 413
361 419
362 291
362 294
362 308
362 312
362 326
362 329
362 338
362 356
362 364
362 372
362 381
362 395
362 400
362 402
362 416
362 420
362 431
363 288
363 292
363 295
363 318
363 320
363 330
363 333
363 339
363 342
363 348
363 349
363 360
363 366
363 370
363 378
363 384
363 386
363 391
363 394
363 418
363 421
363 430
364 287
364 303
364 308
364 322
364 324
364 326
364 338
364 340
364 356
364 362
364 368
364 372
364 381
364 387
364 392
364 395
364 400
364 402
364 405
364 410
364 416
364 427
365 286
365 315
365 317
365 319
365 328
365 343
365 344
365 351
365 353
365 358
365 367
365 373
365 383
365 389
365 396
365 398
365 403
365 412
365 417
366 298
366 307
366 316
366 320
366 321
366 341
366 342
366 347
366 348
366 349
366 359
366 363
366 370
366 374
366 378
366 379
366 382
366 391
366 406
366 414
366 418
366 428
366 433
367 289
367 310
367 315
367 317
367 319
367 323
367 339
367 343
367 344
367 345
367 351
367 352
367 358
367 365
367 369
367 377
367 383
367 384
367 389
367 394
367 396
367 398
367 399
367 412
368 297
368 299
368 303
368 314
368 322
368 324
368 338
368 340
368 346
368 364
368 372
368 375
368 381
368 387
368 392
368 393
368 400
368 402
368 405
368 410
368 415
368 423
368 427
368 437
368 442
369 302
369 310
369 315
369 319
369 323
369 333
369 339
369 344
369 345
369 351
369 352
369 358
369 360
369 367
369 377
369 383
369 384
369 389
369 394
369 398
369 399
369 429
370 292
370 307
370 318
370 320
370 321
370 330
370 333
370 342
370 348
370 349
370 360
370 363
370 366
370 374
370 378
370 384
370 386
370 391
370 414
370 418
370 421
370 430
370 438
371 300
371 305
371 306
371 325
371 331
371 334
371 335
371 341
371 354
371 357
371 359
371 361
371 379
371 382
371 397
371 401
371 406
371 408
371 413
371 419
371 424
371 432
372 303
372 308
372 322
372 324
372 326
372 329
372 338
372 340
372 356
372 362
372 364
372 368
372 381
372 387
372 395
372 400
372 402
372 405
372 410
372 416
372 420
372 427
372 437
373 293
373 317
373 328
373 343
373 351
373 353
373 358
373 365
373 389
373 396
373 398
373 403
373 412
373 417
374 298
374 307
374 316
374 320
374 321
374 341
374 342
374 347
374 348
374 349
374 359
374 366
374 370
374 378
374 379
374 382
374 391
374 406
374 414
374 418
374 424
374 428
374 433
375 299
375 301
375 311
375 314
375 324
375 327
375 340
375 346
375 350
375 368
375 376
375 380
375 387
375 390
375 392
375 393
375 409
375 410
375 411
375 415
375 423
375 434
375 440
376 301
376 311
376 314
376 327
376 332
376 340
376 346
376 350
376 375
376 380
376 385
376 390
376 392
376 393
376 409
376 411
376 415
376 422
376 434
376 441
377 302
377 310
377 319
377 323
377 333
377 339
377 344
377 345
377 352
377 360
377 367
377 369
377 383
377 384
377 386
377 394
377 398
377 399
377 429
378 307
378 318
378 320
378 321
378 330
378 342
378 347
378 348
378 349
378 363
378 366
378 370
378 374
378 382
378 386
378 391
378 406
378 414
378 418
378 421
378 430
378 433
378 438
379 305
379 316
379 334
379 335
379 341
379 342
379 347
379 354
379 359
379 361
379 366
379 371
379 374
379 382
379 401
379 406
379 408
379 414
379 419
379 424
379 428
379 432
379 449
380 304
380 311
380 327
380 332
380 337
380 346
380 350
380 355
380 375
380 376
380 385
380 388
380 390
380 392
380 393
380 404
380 409
380 411
380 415
380 422
380 426
380 434
380 441
380 443
381 308
381 312
381 322
381 326
381 329
381 338
381 356
381 362
381 364
381 368
381 372
381 387
381 395
381 400
381 402
381 405
381 416
381 420
381 427
381 431
381 445
382 316
382 321
382 334
382 341
382 342
382 347
382 349
382 354
382 359
382 366
382 371
382 374
382 378
382 379
382 406
382 408
382 414
382 424
382 428
382 432
382 433
382 449
383 310
383 319
383 323
383 339
383 344
383 345
383 351
383 352
383 358
383 360
383 365
383 367
383 369
383 377
383 384
383 389
383 394
383 398
383 399
383 429
383 444
383 448
384 323
384 330
384 333
384 339
384 345
384 352
384 360
384 363
384 367
384 369
384 370
384 377
384 383
384 386
384 391
384 394
384 399
384 429
384 430
384 435
384 450
385 309
385 313
385 332
385 336
385 337
385 350
385 355
385 357
385 376
385 380
385 388
385 390
385 397
385 404
385 407
385 409
385 411
385 422
385 425
385 426
385 436
385 443
385 452
385 462
386 318
386 330
386 333
386 339
386 345
386 348
386 360
386 363
386 370
386 377
386 378
386 384
386 391
386 394
386 399
386 418
386 421
386 429
386 430
386 435
386 454
386 460
387 322
387 324
387 338
387 340
387 356
387 364
387 368
387 372
387 375
387 381
387 392
387 393
387 400
387 402
387 405
387 410
387 415
387 416
387 423
387 427
387 437
387 442
387 445
388 313
388 325
388 336
388 337
388 355
388 357
388 361
388 380
388 385
388 390
388 397
388 401
388 404
388 407
388 409
388 413
388 422
388 425
388 426
388 436
388 439
388 452
388 461
389 315
389 317
389 343
389 344
389 351
389 353
389 358
389 365
389 367
389 369
389 373
389 383
389 396
389 398
389 399
389 403
389 412
389 417
389 444
389 457
390 332
390 336
390 337
390 350
390 355
390 375
390 376
390 380
390 385
390 388
390 393
390 404
390 407
390 409
390 411
390 422
390 425
390 426
390 434
390 441
390 443
390 462
391 318
391 320
391 330
391 333
391 342
391 348
391 349
391 360
391 363
391 366
391 370
391 374
391 378
391 384
391 386
391 414
391 418
391 421
391 430
391 433
391 435
391 438
391 453
391 454
391 459
392 314
392 324
392 327
392 340
392 346
392 350
392 364
392 368
392 375
392 376
392 380
392 387
392 393
392 402
392 405
392 410
392 411
392 415
392 423
392 434
392 437
392 440
392 442
392 463
393 327
393 340
393 346
393 350
393 368
393 375
393 376
393 380
393 387
393 390
393 392
393 409
393 410
393 411
393 415
393 422
393 423
393 434
393 440
393 441
393 442
393 458
394 323
394 333
394 339
394 344
394 345
394 352
394 360
394 363
394 367
394 369
394 377
394 383
394 384
394 386
394 399
394 429
394 430
394 435
394 448
394 450
394 460
395 326
395 329
395 356
395 362
395 364
395 372
395 381
395 400
395 402
395 416
395 420
395 427
395 431
395 445
395 456
395 464
396 328
396 343
396 351
396 353
396 358
396 365
396 367
396 373
396 389
396 398
396 403
396 412
396 417
396 457
396 468
397 325
397 331
397 335
397 336
397 354
397 355
397 357
397 361
397 371
397 385
397 388
397 401
397 404
397 407
397 408
397 413
397 419
397 425
397 432
397 436
397 439
397 446
397 447
397 452
397 461
397 467
397 473
398 343
398 344
398 351
398 352
398 358
398 365
398 367
398 369
398 373
398 377
398 383
398 389
398 396
398 399
398 412
398 444
398 448
398 457
398 466
398 471
399 339
399 344
399 345
399 351
399 352
399 358
399 360
399 367
399 369
399 377
399 383
399 384
399 386
399 389
399 394
399 398
399 429
399 444
399 448
399 450
399 466
400 326
400 338
400 356
400 362
400 364
400 368
400 372
400 381
400 387
400 395
400 402
400 405
400 410
400 416
400 420
400 427
400 431
400 437
400 445
400 456
400 464
400 472
401 331
401 334
401 335
401 354
401 357
401 359
401 361
401 371
401 379
401 388
401 397
401 407
401 408
401 413
401 419
401 424
401 432
401 436
401 439
401 446
401 447
401 451
401 461
401 467
401 473
401 477
402 338
402 356
402 362
402 364
402 368
402 372
402 381
402 387
402 392
402 395
402 400
402 405
402 410
402 416
402 420
402 423
402 427
402 431
402 437
402 442
402 445
402 464
402 472
402 478
403 328
403 343
403 353
403 358
403 365
403 373
403 389
403 396
403 412
403 417
403 457
403 468
404 336
404 337
404 355
404 357
404 380
404 385
404 388
404 390
404 397
404 407
404 409
404 413
404 422
404 425
404 426
404 436
404 439
404 443
404 452
404 461
404 462
405 338
405 340
405 364
405 368
405 372
405 381
405 387
405 392
405 400
405 402
405 410
405 415
405 416
405 423
405 427
405 431
405 437
405 440
405 442
405 445
405 463
405 464
405 472
405 478
406 341
406 342
406 347
406 359
406 366
406 371
406 374
406 378
406 379
406 382
406 408
406 414
406 418
406 424
406 428
406 432
406 433
406 438
406 449
406 451
406 455
406 459
406 465
406 470
407 336
407 355
407 357
407 361
407 385
407 388
407 390
407 397
407 401
407 404
407 409
407 413
407 419
407 422
407 425
407 426
407 436
407 439
407 446
407 452
407 461
407 462
407 467
408 334
408 335
408 341
408 354
408 359
408 361
408 371
408 379
408 382
408 397
408 401
408 406
408 413
408 419
408 424
408 428
408 432
408 439
408 446
408 447
408 449
408 451
408 465
408 473
408 477
408 479
409 332
409 337
409 350
409 355
409 375
409 376
409 380
409 385
409 388
409 390
409 393
409 404
409 407
409 411
409 422
409 425
409 426
409 434
409 441
409 443
409 452
409 458
409 462
409 469
410 340
410 364
410 368
410 372
410 375
410 387
410 392
410 393
410 400
410 402
410 405
410 415
410 416
410 423
410 427
410 434
410 437
410 440
410 442
410 445
410 463
410 474
410 475
410 478
410 488
411 346
411 350
411 375
411 376
411 380
411 385
411 390
411 392
411 393
411 409
411 415
411 422
411 423
411 426
411 434
411 440
411 441
411 443
411 458
411 462
411 469
411 475
411 486
412 343
412 351
412 353
412 358
412 365
412 367
412 373
412 389
412 396
412 398
412 403
412 417
412 444
412 457
412 468
412 471
413 354
413 357
413 361
413 371
413 388
413 397
413 401
413 404
413 407
413 408
413 419
413 425
413 432
413 436
413 439
413 446
413 447
413 451
413 452
413 461
413 467
413 473
413 477
413 485
414 342
414 347
414 349
414 366
414 370
414 374
414 378
414 379
414 382
414 391
414 406
414 418
414 421
414 424
414 428
414 430
414 433
414 438
414 449
414 453
414 455
414 459
414 465
414 470
414 483
414 491
415 340
415 346
415 368
415 375
415 376
415 380
415 387
415 392
415 393
415 405
415 410
415 411
415 423
415 434
415 437
415 440
415 441
415 442
415 458
415 463
415 474
415 475
415 488
415 497
416 356
416 362
416 364
416 372
416 381
416 387
416 395
416 400
416 402
416 405
416 410
416 420
416 427
416 431
416 437
416 445
416 456
416 464
416 472
416 478
416 480
416 500
417 353
417 365
417 373
417 389
417 396
417 403
417 412
417 457
417 468
417 501
418 348
418 349
418 363
418 366
418 370
418 374
418 378
418 386
418 391
418 406
418 414
418 421
418 428
418 430
418 433
418 435
418 438
418 453
418 454
418 455
418 459
418 470
418 476
418 483
418 491
418 496
419 354
419 361
419 371
419 379
419 397
419 401
419 407
419 408
419 413
419 424
419 432
419 436
419 439
419 446
419 447
419 449
419 451
419 461
419 467
419 473
419 477
419 479
419 485
419 503
420 356
420 362
420 372
420 381
420 395
420 400
420 402
420 416
420 427
420 431
420 445
420 456
420 464
420 472
420 480
420 490
420 500
421 363
421 370
421 378
421 386
421 391
421 414
421 418
421 430
421 433
421 435
421 438
421 453
421 454
421 455
421 459
421 460
421 476
421 481
421 483
421 496
422 376
422 380
422 385
422 388
422 390
422 393
422 404
422 407
422 409
422 411
422 425
422 426
422 434
422 436
422 441
422 443
422 452
422 458
422 462
422 469
422 486
422 487
422 489
422 493
423 368
423 375
423 387
423 392
423 393
423 402
423 405
423 410
423 411
423 415
423 427
423 434
423 437
423 440
423 442
423 445
423 458
423 463
423 472
423 474
423 475
423 478
423 488
423 497
424 359
424 371
424 374
424 379
424 382
424 401
424 406
424 408
424 414
424 419
424 428
424 432
424 433
424 447
424 449
424 451
424 455
424 465
424 470
424 477
424 479
424 492
424 498
425 355
425 385
425 388
425 390
425 397
425 404
425 407
425 409
425 413
425 422
425 426
425 436
425 439
425 441
425 443
425 446
425 452
425 461
425 462
425 467
425 485
425 487
425 493
425 499
426 355
426 380
426 385
426 388
426 390
426 404
426 407
426 409
426 411
426 422
426 425
426 434
426 436
426 439
426 441
426 443
426 452
426 458
426 461
426 462
426 469
426 486
426 487
426 489
426 493
426 499
427 364
427 368
427 372
427 381
427 387
427 395
427 400
427 402
427 405
427 410
427 416
427 420
427 423
427 431
427 437
427 442
427 445
427 456
427 463
427 464
427 472
427 478
427 480
427 500
428 366
428 374
428 379
428 382
428 406
428 408
428 414
428 418
428 424
428 432
428 433
428 438
428 449
428 451
428 455
428 459
428 465
428 470
428 479
428 483
428 491
428 492
428 498
429 369
429 377
429 383
429 384
429 386
429 394
429 399
429 430
429 435
429 444
429 448
429 450
429 454
429 460
429 466
429 481
429 482
429 484
429 504
429 507
430 363
430 370
430 378
430 384
430 386
430 391
430 394
430 414
430 418
430 421
430 429
430 433
430 435
430 438
430 450
430 453
430 454
430 455
430 459
430 460
430 476
430 481
430 482
430 483
430 496
430 508
430 512
431 356
431 362
431 381
431 395
431 400
431 402
431 405
431 416
431 420
431 427
431 437
431 445
431 456
431 464
431 472
431 480
431 490
431 500
432 371
432 379
432 382
432 397
432 401
432 406
432 408
432 413
432 419
432 424
432 428
432 439
432 446
432 447
432 449
432 451
432 465
432 467
432 473
432 477
432 479
432 485
432 492
432 503
433 366
433 374
433 378
433 382
433 391
433 406
433 414
433 418
433 421
433 424
433 428
433 430
433 438
433 449
433 453
433 455
433 459
433 465
433 470
433 476
433 483
433 491
433 492
433 496
433 498
433 505
434 375
434 376
434 380
434 390
434 392
434 393
434 409
434 410
434 411
434 415
434 422
434 423
434 426
434 440
434 441
434 442
434 443
434 458
434 462
434 463
434 469
434 474
434 475
434 486
434 487
434 488
434 489
434 497
434 506
435 384
435 386
435 391
435 394
435 418
435 421
435 429
435 430
435 438
435 450
435 453
435 454
435 460
435 476
435 481
435 482
435 484
435 504
435 512
436 385
436 388
436 397
436 401
436 404
436 407
436 413
436 419
436 422
436 425
436 426
436 439
436 443
436 446
436 447
436 452
436 461
436 462
436 467
436 473
436 485
436 487
436 493
436 499
436 514
437 368
437 372
437 387
437 392
437 400
437 402
437 405
437 410
437 415
437 416
437 423
437 427
437 431
437 440
437 442
437 445
437 463
437 464
437 472
437 474
437 475
437 478
437 480
437 488
437 510
437 515
437 516
438 370
438 378
438 391
438 406
438 414
438 418
438 421
438 428
438 430
438 433
438 435
438 453
438 454
438 455
438 459
438 465
438 470
438 476
438 481
438 483
438 491
438 496
438 498
438 505
438 508
439 388
439 397
439 401
439 404
439 407
439 408
439 413
439 419
439 425
439 426
439 432
439 436
439 446
439 447
439 451
439 452
439 461
439 467
439 473
439 477
439 485
439 493
439 499
439 503
439 509
439 514
440 375
440 392
440 393
440 405
440 410
440 411
440 415
440 423
440 434
440 437
440 441
440 442
440 458
440 463
440 469
440 474
440 475
440 478
440 486
440 488
440 497
440 506
440 516
440 519
441 376
441 380
441 390
441 393
441 409
441 411
441 415
441 422
441 425
441 426
441 434
441 440
441 443
441 452
441 458
441 462
441 469
441 474
441 475
441 486
441 487
441 489
441 493
441 497
441 506
441 511
442 368
442 387
442 392
442 393
442 402
442 405
442 410
442 415
442 423
442 427
442 434
442 437
442 440
442 445
442 458
442 463
442 464
442 472
442 474
442 475
442 478
442 488
442 497
442 510
442 515
442 516
442 519
443 380
443 385
443 390
443 404
443 409
443 411
443 422
443 425
443 426
443 434
443 436
443 441
443 452
443 458
443 462
443 469
443 486
443 487
443 489
443 493
443 499
443 506
443 511
443 523
444 383
444 389
444 398
444 399
444 412
444 429
444 448
444 450
444 457
444 466
444 471
444 484
444 494
444 507
444 513
444 517
445 381
445 387
445 395
445 400
445 402
445 405
445 410
445 416
445 420
445 423
445 427
445 431
445 437
445 442
445 456
445 463
445 464
445 472
445 478
445 480
445 490
445 500
445 515
445 522
446 397
446 401
446 407
446 408
446 413
446 419
446 425
446 432
446 436
446 439
446 447
446 449
446 451
446 452
446 461
446 467
446 473
446 477
446 479
446 485
446 499
446 503
446 509
446 514
446 521
447 397
447 401
447 408
447 413
447 419
447 424
447 432
447 436
447 439
447 446
447 449
447 451
447 461
447 465
447 467
447 473
447 477
447 479
447 485
447 492
447 503
447 509
447 521
447 525
448 383
448 394
448 398
448 399
448 429
448 444
448 450
448 457
448 460
448 466
448 471
448 482
448 484
448 494
448 504
448 507
448 513
448 517
449 379
449 382
449 406
449 408
449 414
449 419
449 424
449 428
449 432
449 433
449 446
449 447
449 451
449 455
449 465
449 470
449 473
449 477
449 479
449 492
449 498
449 503
449 520
449 524
450 384
450 394
450 399
450 429
450 430
450 435
450 444
450 448
450 454
450 460
450 466
450 481
450 482
450 484
450 504
450 507
450 517
451 401
451 406
451 408
451 413
451 419
451 424
451 428
451 432
451 439
451 446
451 447
451 449
451 465
451 467
451 470
451 473
451 477
451 479
451 485
451 492
451 498
451 503
451 509
451 520
451 521
451 525
452 385
452 388
452 397
452 404
452 407
452 409
452 413
452 422
452 425
452 426
452 436
452 439
452 441
452 443
452 446
452 461
452 462
452 467
452 469
452 473
452 485
452 487
452 489
452 493
452 499
452 514
452 523
452 526
452 530
453 391
453 414
453 418
453 421
453 430
453 433
453 435
453 438
453 454
453 455
453 459
453 460
453 470
453 476
453 481
453 482
453 483
453 491
453 496
453 505
453 508
453 512
454 386
454 391
454 418
454 421
454 429
454 430
454 435
454 438
454 450
454 453
454 459
454 460
454 476
454 481
454 482
454 483
454 484
454 496
454 504
454 508
454 512
454 529
455 406
455 414
455 418
455 421
455 424
455 428
455 430
455 433
455 438
455 449
455 453
455 459
455 465
455 470
455 476
455 479
455 483
455 491
455 492
455 496
455 498
455 505
455 508
455 518
455 524
455 531
456 395
456 400
456 416
456 420
456 427
456 431
456 445
456 464
456 472
456 480
456 490
456 500
456 522
457 389
457 396
457 398
457 403
457 412
457 417
457 444
457 448
457 466
457 468
457 471
457 494
457 495
457 501
457 502
457 513
458 393
458 409
458 411
458 415
458 422
458 423
458 426
458 434
458 440
458 441
458 442
458 443
458 462
458 463
458 469
458 474
458 475
458 486
458 487
458 488
458 489
458 497
458 506
458 511
458 519
458 528
458 532
459 391
459 406
459 414
459 418
459 421
459 428
459 430
459 433
459 438
459 453
459 454
459 455
459 465
459 470
459 476
459 481
459 483
459 491
459 492
459 496
459 498
459 505
459 508
459 518
459 531
459 534
460 386
460 394
460 421
460 429
460 430
460 435
460 448
460 450
460 453
460 454
460 466
460 476
460 481
460 482
460 484
460 504
460 507
460 508
460 512
460 529
460 536
461 388
461 397
461 401
461 404
461 407
461 413
461 419
461 425
461 426
461 436
461 439
461 446
461 447
461 452
461 462
461 467
461 473
461 477
461 485
461 487
461 493
461 499
461 503
461 509
461 514
461 521
461 526
461 530
461 535
462 385
462 390
462 404
462 407
462 409
462 411
462 422
462 425
462 426
462 434
462 436
462 441
462 443
462 452
462 458
462 461
462 469
462 486
462 487
462 489
462 493
462 499
462 511
462 523
462 526
463 392
463 405
463 410
463 415
463 423
463 427
463 434
463 437
463 440
463 442
463 445
463 458
463 464
463 472
463 474
463 475
463 478
463 488
463 497
463 510
463 515
463 516
463 519
464 395
464 400
464 402
464 405
464 416
464 420
464 427
464 431
464 437
464 442
464 445
464 456
464 463
464 472
464 478
464 480
464 490
464 500
464 510
464 515
464 522
464 527
465 406
465 408
465 414
465 424
465 428
465 432
465 433
465 438
465 447
465 449
465 451
465 455
465 459
465 470
465 477
465 479
465 483
465 491
465 492
465 498
465 503
465 505
465 518
465 520
465 524
465 531
466 398
466 399
466 429
466 444
466 448
466 450
466 457
466 460
466 471
466 482
466 484
466 494
466 495
466 504
466 507
466 513
466 517
467 397
467 401
467 407
467 413
467 419
467 425
467 432
467 436
467 439
467 446
467 447
467 451
467 452
467 461
467 473
467 477
467 479
467 485
467 493
467 499
467 503
467 509
467 514
467 521
467 525
467 530
467 535
468 396
468 403
468 412
468 417
468 457
468 471
468 494
468 495
468 501
468 502
468 533
469 409
469 411
469 422
469 426
469 434
469 440
469 441
469 443
469 452
469 458
469 462
469 474
469 475
469 486
469 487
469 489
469 493
469 497
469 506
469 511
469 523
469 532
469 538
469 543
470 406
470 414
470 418
470 424
470 428
470 433
470 438
470 449
470 451
470 453
470 455
470 459
470 465
470 476
470 479
470 483
470 491
470 492
470 496
470 498
470 505
470 518
470 520
470 524
470 531
470 534
471 398
471 412
471 444
471 448
471 457
471 466
471 468
471 494
471 495
471 501
471 513
471 517
472 400
472 402
472 405
472 416
472 420
472 423
472 427
472 431
472 437
472 442
472 445
472 456
472 463
472 464
472 474
472 478
472 480
472 488
472 490
472 500
472 510
472 515
472 516
472 522
472 527
472 539
473 397
473 401
473 408
473 413
473 419
473 432
473 436
473 439
473 446
473 447
473 449
473 451
473 452
473 461
473 467
473 477
473 479
473 485
473 499
473 503
473 509
473 514
473 521
473 525
473 530
473 535
473 542
474 410
474 415
474 423
474 434
474 437
474 440
474 441
474 442
474 458
474 463
474 469
474 472
474 475
474 478
474 486
474 488
474 497
474 506
474 510
474 515
474 516
474 519
474 528
474 532
474 545
475 410
475 411
475 415
475 423
475 434
475 437
475 440
475 441
475 442
475 458
475 463
475 469
475 474
475 478
475 486
475 488
475 489
475 497
475 506
475 510
475 511
475 516
475 519
475 528
475 532
475 538
475 553
476 418
476 421
476 430
476 433
476 435
476 438
476 453
476 454
476 455
476 459
476 460
476 470
476 481
476 482
476 483
476 491
476 496
476 504
476 505
476 508
476 512
476 529
476 531
476 534
476 537
476 551
477 401
477 408
477 413
477 419
477 424
477 432
477 439
477 446
477 447
477 449
477 451
477 461
477 465
477 467
477 473
477 479
477 485
477 492
477 498
477 503
477 509
477 514
477 520
477 521
477 525
477 535
477 542
477 544
478 402
478 405
478 410
478 416
478 423
478 427
478 437
478 440
478 442
478 445
478 463
478 464
478 472
478 474
478 475
478 480
478 488
478 497
478 500
478 510
478 515
478 516
478 519
478 522
478 527
478 539
478 545
479 408
479 419
479 424
479 428
479 432
479 446
479 447
479 449
479 451
479 455
479 465
479 467
479 470
479 473
479 477
479 492
479 498
479 503
479 509
479 518
479 520
479 521
479 524
479 525
479 544
479 548
480 416
480 420
480 427
480 431
480 437
480 445
480 456
480 464
480 472
480 478
480 490
480 500
480 515
480 522
480 527
480 540
480 546
481 421
481 429
481 430
481 435
481 438
481 450
481 453
481 454
481 459
481 460
481 476
481 482
481 483
481 484
481 496
481 504
481 507
481 508
481 512
481 529
481 536
481 537
481 541
481 551
482 429
482 430
482 435
482 448
482 450
482 453
482 454
482 460
482 466
482 476
482 481
482 484
482 496
482 504
482 507
482 508
482 512
482 517
482 529
482 536
482 541
482 555
483 414
483 418
483 421
483 428
483 430
483 433
483 438
483 453
483 454
483 455
483 459
483 465
483 470
483 476
483 481
483 491
483 492
483 496
483 498
483 505
483 508
483 512
483 518
483 524
483 531
483 534
483 537
483 556
484 429
484 435
484 444
484 448
484 450
484 454
484 460
484 466
484 481
484 482
484 504
484 507
484 512
484 513
484 517
484 529
484 536
484 541
484 555
485 413
485 419
485 425
485 432
485 436
485 439
485 446
485 447
485 451
485 452
485 461
485 467
485 473
485 477
485 493
485 499
485 503
485 509
485 514
485 521
485 525
485 526
485 530
485 535
485 542
485 564
486 411
486 422
486 426
486 434
486 440
486 441
486 443
486 458
486 462
486 469
486 474
486 475
486 487
486 488
486 489
486 493
486 497
486 506
486 511
486 519
486 523
486 528
486 532
486 538
486 543
487 422
487 425
487 426
487 434
487 436
487 441
487 443
487 452
487 458
487 461
487 462
487 469
487 486
487 489
487 493
487 499
487 506
487 511
487 523
487 526
487 530
487 532
487 538
487 543
487 547
487 554
488 410
488 415
488 423
488 434
488 437
488 440
488 442
488 458
488 463
488 472
488 474
488 475
488 478
488 486
488 497
488 506
488 510
488 515
488 516
488 519
488 528
488 532
488 539
488 545
488 553
488 559
489 422
489 426
489 434
489 441
489 443
489 452
489 458
489 462
489 469
489 475
489 486
489 487
489 493
489 497
489 499
489 506
489 511
489 523
489 526
489 528
489 532
489 538
489 543
489 547
489 566
490 420
490 431
490 445
490 456
490 464
490 472
490 480
490 500
490 515
490 522
490 527
490 540
490 546
490 562
491 414
491 418
491 428
491 433
491 438
491 453
491 455
491 459
491 465
491 470
491 476
491 483
491 492
491 496
491 498
491 505
491 508
491 518
491 520
491 524
491 531
491 534
491 537
491 550
491 552
491 556
491 567
492 424
492 428
492 432
492 433
492 447
492 449
492 451
492 455
492 459
492 465
492 470
492 477
492 479
492 483
492 491
492 498
492 503
492 505
492 518
492 520
492 524
492 525
492 531
492 544
492 548
492 550
492 552
493 422
493 425
493 426
493 436
493 439
493 441
493 443
493 452
493 461
493 462
493 467
493 469
493 485
493 486
493 487
493 489
493 499
493 509
493 511
493 514
493 523
493 526
493 530
493 543
493 547
493 554
493 561
494 444
494 448
494 457
494 466
494 468
494 471
494 495
494 501
494 513
494 517
494 549
494 560
495 457
495 466
495 468
495 471
495 494
495 501
495 502
495 513
495 533
495 560
496 418
496 421
496 430
496 433
496 438
496 453
496 454
496 455
496 459
496 470
496 476
496 481
496 482
496 483
496 491
496 498
496 505
496 508
496 512
496 518
496 529
496 531
496 534
496 537
496 551
496 556
496 557
496 571
497 415
497 423
497 434
497 440
497 441
497 442
497 458
497 463
497 469
497 474
497 475
497 478
497 486
497 488
497 489
497 506
497 510
497 511
497 516
497 519
497 528
497 532
497 538
497 545
497 553
497 559
498 424
498 428
498 433
498 438
498 449
498 451
498 455
498 459
498 465
498 470
498 477
498 479
498 483
498 491
498 492
498 496
498 505
498 518
498 520
498 524
498 531
498 534
498 548
498 550
498 552
498 556
498 567
499 425
499 426
499 436
499 439
499 443
499 446
499 452
499 461
499 462
499 467
499 473
499 485
499 487
499 489
499 493
499 509
499 511
499 514
499 521
499 523
499 526
499 530
499 535
499 547
499 554
499 561
499 564
500 416
500 420
500 427
500 431
500 445
500 456
500 464
500 472
500 478
500 480
500 490
500 510
500 515
500 522
500 527
500 539
500 540
500 546
500 562
500 569
501 417
501 457
501 468
501 471
501 494
501 495
501 502
501 513
501 533
501 560
502 457
502 468
502 495
502 501
502 533
503 419
503 432
503 439
503 446
503 447
503 449
503 451
503 461
503 465
503 467
503 473
503 477
503 479
503 485
503 492
503 509
503 514
503 520
503 521
503 524
503 525
503 530
503 535
503 542
503 544
503 548
503 568
503 575
503 576
504 429
504 435
504 448
504 450
504 454
504 460
504 466
504 476
504 481
504 482
504 484
504 507
504 508
504 512
504 517
504 529
504 536
504 537
504 541
504 551
504 555
504 565
504 570
504 577
504 580
505 433
505 438
505 453
505 455
505 459
505 465
505 470
505 476
505 483
505 491
505 492
505 496
505 498
505 508
505 512
505 518
505 524
505 529
505 531
505 534
505 537
505 550
505 551
505 552
505 556
505 557
505 567
505 571
506 434
506 440
506 441
506 443
506 458
506 469
506 474
506 475
506 486
506 487
506 488
506 489
506 497
506 511
506 516
506 519
506 523
506 528
506 532
506 538
506 543
506 547
506 553
506 559
506 566
506 574
506 578
507 429
507 444
507 448
507 450
507 460
507 466
507 481
507 482
507 484
507 504
507 512
507 513
507 517
507 529
507 536
507 541
507 549
507 555
507 558
507 565
507 570
507 572
507 580
507 582
508 430
508 438
508 453
508 454
508 455
508 459
508 460
508 476
508 481
508 482
508 483
508 491
508 496
508 504
508 505
508 512
508 518
508 529
508 531
508 534
508 537
508 541
508 551
508 556
508 557
508 571
508 577
509 439
509 446
509 447
509 451
509 461
509 467
509 473
509 477
509 479
509 485
509 493
509 499
509 503
509 514
509 521
509 525
509 526
509 530
509 535
509 542
509 544
509 561
509 564
509 573
509 575
509 576
510 437
510 442
510 463
510 464
510 472
510 474
510 475
510 478
510 488
510 497
510 500
510 515
510 516
510 519
510 522
510 527
510 528
510 539
510 545
510 553
510 559
510 563
510 581
510 585
511 441
511 443
511 458
511 462
511 469
511 475
511 486
511 487
511 489
511 493
511 497
511 499
511 506
511 523
511 526
511 528
511 532
511 538
511 543
511 547
511 554
511 566
511 574
511 587
512 430
512 435
512 453
512 454
512 460
512 476
512 481
512 482
512 483
512 484
512 496
512 504
512 505
512 507
512 508
512 529
512 534
512 536
512 537
512 541
512 551
512 555
512 557
512 565
512 571
512 577
512 580
513 444
513 448
513 457
513 466
513 471
513 484
513 494
513 495
513 501
513 507
513 517
513 536
513 549
513 558
513 560
513 572
513 582
513 584
514 436
514 439
514 446
514 452
514 461
514 467
514 473
514 477
514 485
514 493
514 499
514 503
514 509
514 521
514 523
514 525
514 526
514 530
514 535
514 542
514 544
514 547
514 554
514 561
514 564
514 573
514 576
515 437
515 442
515 445
515 463
515 464
515 472
515 474
515 478
515 480
515 488
515 490
515 500
515 510
515 516
515 519
515 522
515 527
515 539
515 545
515 546
515 559
515 563
515 569
515 581
515 585
516 437
516 440
516 442
516 463
516 472
516 474
516 475
516 478
516 488
516 497
516 506
516 510
516 515
516 519
516 527
516 528
516 532
516 539
516 545
516 553
516 559
516 563
516 578
516 585
516 588
517 444
517 448
517 450
517 466
517 471
517 482
517 484
517 494
517 504
517 507
517 513
517 536
517 541
517 549
517 555
517 558
517 560
517 570
517 572
517 582
518 455
518 459
518 465
518 470
518 479
518 483
518 491
518 492
518 496
518 498
518 505
518 508
518 520
518 524
518 531
518 534
518 537
518 548
518 550
518 552
518 556
518 567
518 568
518 571
518 586
518 589
519 440
519 442
519 458
519 463
519 474
519 475
519 478
519 486
519 488
519 497
519 506
519 510
519 515
519 516
519 528
519 532
519 538
519 539
519 545
519 553
519 559
519 574
519 578
519 585
519 588
520 449
520 451
520 465
520 470
520 477
520 479
520 491
520 492
520 498
520 503
520 518
520 521
520 524
520 525
520 531
520 542
520 544
520 548
520 550
520 552
520 567
520 568
520 575
520 586
521 446
521 447
521 451
521 461
521 467
521 473
521 477
521 479
521 485
521 499
521 503
521 509
521 514
521 520
521 525
521 526
521 530
521 535
521 542
521 544
521 548
521 561
521 564
521 568
521 573
521 575
521 576
521 592
521 594
522 445
522 456
522 464
522 472
522 478
522 480
522 490
522 500
522 510
522 515
522 527
522 539
522 540
522 546
522 562
522 563
522 569
522 579
522 581
522 590
523 443
523 452
523 462
523 469
523 486
523 487
523 489
523 493
523 499
523 506
523 511
523 514
523 526
523 530
523 532
523 538
523 543
523 547
523 554
523 561
523 566
523 583
523 587
524 449
524 455
524 465
524 470
524 479
524 483
524 491
524 492
524 498
524 503
524 505
524 518
524 520
524 525
524 531
524 534
524 544
524 548
524 550
524 552
524 556
524 567
524 568
524 586
524 589
525 447
525 451
525 467
525 473
525 477
525 479
525 485
525 492
525 503
525 509
525 514
525 520
525 521
525 524
525 530
525 535
525 542
525 544
525 548
525 550
525 564
525 568
525 573
525 575
525 576
525 592
525 597
526 452
526 461
526 462
526 485
526 487
526 489
526 493
526 499
526 509
526 511
526 514
526 521
526 523
526 530
526 535
526 538
526 543
526 547
526 554
526 561
526 564
526 566
526 573
526 583
526 600
527 464
527 472
527 478
527 480
527 490
527 500
527 510
527 515
527 516
527 522
527 539
527 540
527 545
527 546
527 562
527 563
527 569
527 579
527 581
527 585
527 598
528 458
528 474
528 475
528 486
528 488
528 489
528 497
528 506
528 510
528 511
528 516
528 519
528 532
528 538
528 539
528 543
528 545
528 553
528 559
528 566
528 574
528 578
528 588
528 607
529 454
529 460
529 476
529 481
529 482
529 484
529 496
529 504
529 505
529 507
529 508
529 512
529 534
529 536
529 537
529 541
529 551
529 555
529 557
529 565
529 570
529 571
529 577
529 580
529 595
529 596
529 599
530 452
530 461
530 467
530 473
530 485
530 487
530 493
530 499
530 503
530 509
530 514
530 521
530 523
530 525
530 526
530 535
530 542
530 547
530 554
530 561
530 564
530 573
530 576
530 583
530 594
530 600
530 606
531 455
531 459
531 465
531 470
531 476
531 483
531 491
531 492
531 496
531 498
531 505
531 508
531 518
531 520
531 524
531 534
531 537
531 548
531 550
531 551
531 552
531 556
531 557
531 567
531 571
531 586
531 589
531 591
531 593
532 458
532 469
532 474
532 475
532 486
532 487
532 488
532 489
532 497
532 506
532 511
532 516
532 519
532 523
532 528
532 538
532 543
532 545
532 547
532 553
532 559
532 566
532 574
532 578
532 587
532 588
533 468
533 495
533 501
533 502
533 560
533 604
534 459
534 470
534 476
534 483
534 491
534 496
534 498
534 505
534 508
534 512
534 518
534 524
534 529
534 531
534 537
534 550
534 551
534 552
534 556
534 557
534 567
534 571
534 577
534 589
534 591
534 593
534 595
534 608
535 461
535 467
535 473
535 477
535 485
535 499
535 503
535 509
535 514
535 521
535 525
535 526
535 530
535 542
535 544
535 554
535 561
535 564
535 573
535 575
535 576
535 592
535 594
535 606
536 460
536 481
536 482
536 484
536 504
536 507
536 512
536 513
536 517
536 529
536 541
536 549
536 551
536 555
536 558
536 565
536 570
536 572
536 577
536 580
536 582
536 599
536 601
536 603
537 476
537 481
537 483
537 491
537 496
537 504
537 505
537 508
537 512
537 518
537 529
537 531
537 534
537 541
537 551
537 552
537 556
537 557
537 565
537 567
537 571
537 577
537 591
537 593
537 595
537 596
537 608
538 469
538 475
538 486
538 487
538 489
538 497
538 506
538 511
538 519
538 523
538 526
538 528
538 532
538 543
538 547
538 553
538 554
538 559
538 566
538 574
538 578
538 583
538 587
538 616
539 472
539 478
539 488
539 500
539 510
539 515
539 516
539 519
539 522
539 527
539 528
539 545
539 546
539 553
539 559
539 563
539 569
539 578
539 579
539 581
539 585
539 588
539 598
539 602
539 612
539 614
539 618
540 480
540 490
540 500
540 522
540 527
540 546
540 562
540 563
540 569
540 579
540 581
540 590
540 598
540 605
541 481
541 482
541 484
541 504
541 507
541 508
541 512
541 517
541 529
541 536
541 537
541 549
541 551
541 555
541 557
541 558
541 565
541 570
541 572
541 577
541 580
541 582
541 595
541 596
541 599
541 601
542 473
542 477
542 485
542 503
542 509
542 514
542 520
542 521
542 525
542 530
542 535
542 544
542 548
542 561
542 564
542 568
542 573
542 575
542 576
542 592
542 594
542 597
542 606
542 617
542 621
543 469
543 486
543 487
543 489
543 493
543 506
543 511
543 523
543 526
543 528
543 532
543 538
543 547
543 553
543 554
543 561
543 566
543 574
543 583
543 587
543 611
543 616
544 477
544 479
544 492
544 503
544 509
544 514
544 520
544 521
544 524
544 525
544 535
544 542
544 548
544 550
544 552
544 564
544 568
544 573
544 575
544 576
544 586
544 592
544 594
544 597
544 617
544 621
545 474
545 478
545 488
545 497
545 510
545 515
545 516
545 519
545 527
545 528
545 532
545 539
545 553
545 559
545 563
545 569
545 578
545 581
545 585
545 588
545 602
545 607
545 614
545 618
545 624
546 480
546 490
546 500
546 515
546 522
546 527
546 539
546 540
546 562
546 563
546 569
546 579
546 581
546 590
546 598
546 605
546 612
546 622
547 487
547 489
547 493
547 499
547 506
547 511
547 514
547 523
547 526
547 530
547 532
547 538
547 543
547 554
547 561
547 564
547 566
547 574
547 583
547 587
547 600
547 611
547 629
548 479
548 492
548 498
548 503
548 518
548 520
548 521
548 524
548 525
548 531
548 542
548 544
548 550
548 552
548 567
548 568
548 575
548 576
548 586
548 589
548 592
548 597
548 621
548 623
549 494
549 507
549 513
549 517
549 536
549 541
549 555
549 558
549 560
549 570
549 572
549 580
549 582
549 584
549 601
549 603
549 609
549 610
550 491
550 492
550 498
550 505
550 518
550 520
550 524
550 525
550 531
550 534
550 544
550 548
550 552
550 556
550 567
550 568
550 575
550 586
550 589
550 591
550 592
550 597
550 620
550 623
550 626
551 476
551 481
551 496
551 504
551 505
551 508
551 512
551 529
551 531
551 534
551 536
551 537
551 541
551 555
551 556
551 557
551 565
551 571
551 577
551 580
551 591
551 593
551 595
551 596
551 599
551 608
551 619
551 631
552 491
552 492
552 498
552 505
552 518
552 520
552 524
552 531
552 534
552 537
552 544
552 548
552 550
552 556
552 557
552 567
552 568
552 571
552 586
552 589
552 591
552 593
552 620
552 625
552 626
553 475
553 488
553 497
553 506
553 510
553 516
553 519
553 528
553 532
553 538
553 539
553 543
553 545
553 559
553 563
553 566
553 574
553 578
553 585
553 587
553 588
553 602
553 607
553 614
553 615
553 616
553 627
554 487
554 493
554 499
554 511
554 514
554 523
554 526
554 530
554 535
554 538
554 543
554 547
554 561
554 564
554 566
554 573
554 583
554 587
554 594
554 600
554 606
554 611
554 629
554 638
555 482
555 484
555 504
555 507
555 512
555 517
555 529
555 536
555 541
555 549
555 551
555 558
555 565
555 570
555 572
555 577
555 580
555 582
555 596
555 599
555 601
555 603
555 636
555 637
556 483
556 491
556 496
556 498
556 505
556 508
556 518
556 524
556 531
556 534
556 537
556 550
556 551
556 552
556 557
556 567
556 571
556 577
556 586
556 589
556 591
556 593
556 595
556 608
556 619
556 620
556 625
557 496
557 505
557 508
557 512
557 529
557 531
557 534
557 537
557 541
557 551
557 552
557 556
557 565
557 567
557 571
557 577
557 580
557 589
557 591
557 593
557 595
557 596
557 608
557 619
557 625
557 631
558 507
558 513
558 517
558 536
558 541
558 549
558 555
558 560
558 565
558 570
558 572
558 580
558 582
558 584
558 599
558 601
558 603
558 609
558 610
558 633
558 636
559 488
559 497
559 506
559 510
559 515
559 516
559 519
559 528
559 532
559 538
559 539
559 545
559 553
559 563
559 574
559 578
559 581
559 585
559 588
559 602
559 607
559 614
559 615
559 624
559 627
559 632
560 494
560 495
560 501
560 513
560 517
560 533
560 549
560 558
560 572
560 584
560 604
560 609
560 610
560 613
560 628
561 493
561 499
561 509
561 514
561 521
561 523
561 526
561 530
561 535
561 542
561 543
561 547
561 554
561 564
561 566
561 573
561 576
561 583
561 594
561 600
561 606
561 611
561 629
561 638
562 490
562 500
562 522
562 527
562 540
562 546
562 563
562 569
562 579
562 581
562 590
562 598
562 605
562 612
562 622
562 639
563 510
563 515
563 516
563 522
563 527
563 539
563 540
563 545
563 546
563 553
563 559
563 562
563 569
563 578
563 579
563 581
563 585
563 588
563 590
563 598
563 602
563 605
563 612
563 614
563 618
563 622
563 624
563 635
563 644
564 485
564 499
564 509
564 514
564 521
564 525
564 526
564 530
564 535
564 542
564 544
564 547
564 554
564 561
564 573
564 575
564 576
564 583
564 592
564 594
564 600
564 606
564 611
564 617
564 638
564 643
565 504
565 507
565 512
565 529
565 536
565 537
565 541
565 551
565 555
565 557
565 558
565 570
565 571
565 572
565 577
565 580
565 582
565 595
565 596
565 599
565 601
565 608
565 634
565 636
565 637
566 489
566 506
566 511
566 523
566 526
566 528
566 532
566 538
566 543
566 547
566 553
566 554
566 561
566 574
566 578
566 583
566 587
566 600
566 611
566 615
566 616
566 629
566 630
566 641
567 491
567 498
567 505
567 518
567 520
567 524
567 531
567 534
567 537
567 548
567 550
567 552
567 556
567 557
567 568
567 571
567 586
567 589
567 591
567 593
567 597
567 608
567 619
567 620
567 625
567 626
568 503
568 518
568 520
568 521
568 524
568 525
568 542
568 544
568 548
568 550
568 552
568 567
568 573
568 575
568 576
568 586
568 589
568 592
568 597
568 617
568 620
568 621
568 623
568 626
569 500
569 515
569 522
569 527
569 539
569 540
569 545
569 546
569 562
569 563
569 579
569 581
569 585
569 590
569 598
569 602
569 605
569 612
569 618
569 622
569 624
569 635
569 639
569 644
570 504
570 507
570 517
570 529
570 536
570 541
570 549
570 555
570 558
570 565
570 572
570 577
570 580
570 582
570 584
570 596
570 599
570 601
570 603
570 610
570 633
570 636
570 637
571 496
571 505
571 508
571 512
571 518
571 529
571 531
571 534
571 537
571 551
571 552
571 556
571 557
571 565
571 567
571 577
571 589
571 591
571 593
571 595
571 596
571 608
571 619
571 620
571 625
571 631
571 634
572 507
572 513
572 517
572 536
572 541
572 549
572 555
572 558
572 560
572 565
572 570
572 580
572 582
572 584
572 599
572 601
572 603
572 609
572 610
572 633
572 636
572 642
573 509
573 514
573 521
573 525
573 526
573 530
573 535
573 542
573 544
573 554
573 561
573 564
573 568
573 575
573 576
573 592
573 594
573 597
573 600
573 606
573 617
573 621
573 638
573 643
574 506
574 511
574 519
574 528
574 532
574 538
574 543
574 547
574 553
574 559
574 566
574 578
574 583
574 587
574 588
574 607
574 611
574 614
574 615
574 616
574 627
574 630
574 641
575 503
575 509
575 520
575 521
575 525
575 535
575 542
575 544
575 548
575 550
575 564
575 568
575 573
575 576
575 586
575 592
575 594
575 597
575 606
575 617
575 621
575 623
576 503
576 509
576 514
576 521
576 525
576 530
576 535
576 542
576 544
576 548
576 561
576 564
576 568
576 573
576 575
576 586
576 592
576 594
576 597
576 600
576 606
576 617
576 621
576 623
576 643
577 504
577 508
577 512
577 529
577 534
577 536
577 537
577 541
577 551
577 555
577 556
577 557
577 565
577 570
577 571
577 580
577 593
577 595
577 596
577 599
577 601
577 608
577 619
577 631
577 634
577 637
578 506
578 516
578 519
578 528
578 532
578 538
578 539
578 545
578 553
578 559
578 563
578 566
578 574
578 585
578 587
578 588
578 602
578 607
578 614
578 615
578 616
578 624
578 627
578 632
578 641
579 522
579 527
579 539
579 540
579 546
579 562
579 563
579 569
579 581
579 585
579 590
579 598
579 602
579 605
579 612
579 618
579 622
579 635
579 639
580 504
580 507
580 512
580 529
580 536
580 541
580 549
580 551
580 555
580 557
580 558
580 565
580 570
580 572
580 577
580 582
580 595
580 596
580 599
580 601
580 603
580 634
580 636
580 637
581 510
581 515
581 522
581 527
581 539
581 540
581 545
581 546
581 559
581 562
581 563
581 569
581 579
581 585
581 588
581 590
581 598
581 602
581 605
581 612
581 614
581 618
581 622
581 624
581 632
581 635
581 639
581 644
582 507
582 513
582 517
582 536
582 541
582 549
582 555
582 558
582 565
582 570
582 572
582 580
582 584
582 596
582 599
582 601
582 603
582 609
582 610
582 633
582 636
582 637
582 642
583 523
583 526
583 530
583 538
583 543
583 547
583 554
583 561
583 564
583 566
583 574
583 587
583 600
583 606
583 611
583 616
583 629
583 630
583 638
584 513
584 549
584 558
584 560
584 570
584 572
584 582
584 603
584 604
584 609
584 610
584 613
584 628
584 633
584 640
584 642
585 510
585 515
585 516
585 519
585 527
585 539
585 545
585 553
585 559
585 563
585 569
585 578
585 579
585 581
585 588
585 598
585 602
585 607
585 612
585 614
585 615
585 618
585 622
585 624
585 627
585 632
585 635
585 644
586 518
586 520
586 524
586 531
586 544
586 548
586 550
586 552
586 556
586 567
586 568
586 575
586 576
586 589
586 591
586 592
586 597
586 620
586 621
586 623
586 625
586 626
587 511
587 523
587 532
587 538
587 543
587 547
587 553
587 554
587 566
587 574
587 578
587 583
587 600
587 607
587 611
587 615
587 616
587 629
587 630
587 641
588 516
588 519
588 528
588 532
588 539
588 545
588 553
588 559
588 563
588 574
588 578
588 581
588 585
588 602
588 607
588 612
588 614
588 615
588 616
588 618
588 624
588 627
588 632
588 641
588 644
589 518
589 524
589 531
589 534
589 548
589 550
589 552
589 556
589 557
589 567
589 568
589 571
589 586
589 591
589 593
589 597
589 608
589 619
589 620
589 623
589 625
589 626
590 522
590 540
590 546
590 562
590 563
590 569
590 579
590 581
590 598
590 605
590 612
590 618
590 622
590 635
590 639
591 531
591 534
591 537
591 550
591 551
591 552
591 556
591 557
591 567
591 571
591 586
591 589
591 593
591 595
591 608
591 619
591 620
591 625
591 626
591 631
592 521
592 525
592 535
592 542
592 544
592 548
592 550
592 564
592 568
592 573
592 575
592 576
592 586
592 594
592 597
592 606
592 617
592 621
592 623
592 626
592 643
593 531
593 534
593 537
593 551
593 552
593 556
593 557
593 567
593 571
593 577
593 589
593 591
593 595
593 596
593 608
593 619
593 620
593 625
593 631
593 634
594 521
594 530
594 535
594 542
594 544
594 554
594 561
594 564
594 573
594 575
594 576
594 592
594 597
594 600
594 606
594 611
594 617
594 621
594 638
594 643
595 529
595 534
595 537
595 541
595 551
595 556
595 557
595 565
595 571
595 577
595 580
595 591
595 593
595 596
595 599
595 601
595 608
595 619
595 625
595 631
595 634
595 637
596 529
596 537
596 541
596 551
596 555
596 557
596 565
596 570
596 571
596 577
596 580
596 582
596 593
596 595
596 599
596 601
596 608
596 619
596 631
596 634
596 636
596 637
597 525
597 542
597 544
597 548
597 550
597 567
597 568
597 573
597 575
597 576
597 586
597 589
597 592
597 594
597 617
597 620
597 621
597 623
597 626
598 527
598 539
598 540
598 546
598 562
598 563
598 569
598 579
598 581
598 585
598 590
598 602
598 605
598 612
598 618
598 622
598 624
598 635
598 639
598 644
599 529
599 536
599 541
599 551
599 555
599 558
599 565
599 570
599 572
599 577
599 580
599 582
599 595
599 596
599 601
599 603
599 608
599 631
599 633
599 634
599 636
599 637
600 526
600 530
600 547
600 554
600 561
600 564
600 566
600 573
600 576
600 583
600 587
600 594
600 606
600 611
600 617
600 629
600 630
600 638
600 643
601 536
601 541
601 549
601 555
601 558
601 565
601 570
601 572
601 577
601 580
601 582
601 595
601 596
601 599
601 603
601 610
601 633
601 634
601 636
601 637
602 539
602 545
602 553
602 559
602 563
602 569
602 578
602 579
602 581
602 585
602 588
602 598
602 605
602 607
602 612
602 614
602 618
602 622
602 624
602 627
602 632
602 635
602 639
602 644
603 536
603 549
603 555
603 558
603 570
603 572
603 580
603 582
603 584
603 599
603 601
603 609
603 610
603 633
603 636
603 637
603 642
604 533
604 560
604 584
604 609
604 613
604 628
604 640
605 540
605 546
605 562
605 563
605 569
605 579
605 581
605 590
605 598
605 602
605 612
605 618
605 622
605 635
605 639
605 644
606 530
606 535
606 542
606 554
606 561
606 564
606 573
606 575
606 576
606 583
606 592
606 594
606 600
606 611
606 617
606 621
606 629
606 638
606 643
607 528
607 545
607 553
607 559
607 574
607 578
607 585
607 587
607 588
607 602
607 614
607 615
607 616
607 618
607 624
607 627
607 632
607 641
607 644
608 534
608 537
608 551
608 556
608 557
608 565
608 567
608 571
608 577
608 589
608 591
608 593
608 595
608 596
608 599
608 619
608 620
608 625
608 631
608 634
608 637
609 549
609 558
609 560
609 572
609 582
609 584
609 603
609 604
609 610
609 613
609 628
609 633
609 640
609 642
610 549
610 558
610 560
610 570
610 572
610 582
610 584
610 601
610 603
610 609
610 613
610 628
610 633
610 636
610 642
611 543
611 547
611 554
611 561
611 564
611 566
611 574
611 583
611 587
611 594
611 600
611 606
611 616
611 629
611 630
611 638
611 641
611 643
612 539
612 546
612 562
612 563
612 569
612 579
612 581
612 585
612 588
612 590
612 598
612 602
612 605
612 614
612 618
612 622
612 624
612 632
612 635
612 639
612 644
613 560
613 584
613 604
613 609
613 610
613 628
613 640
613 642
614 539
614 545
614 553
614 559
614 563
614 574
614 578
614 581
614 585
614 588
614 602
614 607
614 612
614 615
614 618
614 624
614 627
614 632
614 635
614 641
614 644
615 553
615 559
615 566
615 574
615 578
615 585
615 587
615 588
615 607
615 614
615 616
615 624
615 627
615 630
615 632
615 641
616 538
616 543
616 553
616 566
616 574
616 578
616 583
616 587
616 588
616 607
616 611
616 615
616 627
616 629
616 630
616 641
617 542
617 544
617 564
617 568
617 573
617 575
617 576
617 592
617 594
617 597
617 600
617 606
617 621
617 623
617 638
617 643
618 539
618 545
618 563
618 569
618 579
618 581
618 585
618 588
618 590
618 598
618 602
618 605
618 607
618 612
618 614
618 622
618 624
618 627
618 632
618 635
618 639
618 644
619 551
619 556
619 557
619 567
619 571
619 577
619 589
619 591
619 593
619 595
619 596
619 608
619 620
619 625
619 626
619 631
619 634
620 550
620 552
620 556
620 567
620 568
620 571
620 586
620 589
620 591
620 593
620 597
620 608
620 619
620 623
620 625
620 626
621 542
621 544
621 548
621 568
621 573
621 575
621 576
621 586
621 592
621 594
621 597
621 606
621 617
621 623
621 626
621 643
622 546
622 562
622 563
622 569
622 579
622 581
622 585
622 590
622 598
622 602
622 605
622 612
622 618
622 624
622 635
622 639
622 644
623 548
623 550
623 568
623 575
623 576
623 586
623 589
623 592
623 597
623 617
623 620
623 621
623 626
624 545
624 559
624 563
624 569
624 578
624 581
624 585
624 588
624 598
624 602
624 607
624 612
624 614
624 615
624 618
624 622
624 627
624 632
624 635
624 639
624 644
625 552
625 556
625 557
625 567
625 571
625 586
625 589
625 591
625 593
625 595
625 608
625 619
625 620
625 626
625 631
626 550
626 552
626 567
626 568
626 586
626 589
626 591
626 592
626 597
626 619
626 620
626 621
626 623
626 625
627 553
627 559
627 574
627 578
627 585
627 588
627 602
627 607
627 614
627 615
627 616
627 618
627 624
627 632
627 641
627 644
628 560
628 584
628 604
628 609
628 610
628 613
628 633
628 640
628 642
629 547
629 554
629 561
629 566
629 583
629 587
629 600
629 606
629 611
629 616
629 630
629 638
629 641
629 643
630 566
630 574
630 583
630 587
630 600
630 611
630 615
630 616
630 629
630 638
630 641
631 551
631 557
631 571
631 577
631 591
631 593
631 595
631 596
631 599
631 608
631 619
631 625
631 634
631 637
632 559
632 578
632 581
632 585
632 588
632 602
632 607
632 612
632 614
632 615
632 618
632 624
632 627
632 635
632 641
632 644
633 558
633 570
633 572
633 582
633 584
633 599
633 601
633 603
633 609
633 610
633 628
633 636
633 637
633 642
634 565
634 571
634 577
634 580
634 593
634 595
634 596
634 599
634 601
634 608
634 619
634 631
634 636
634 637
635 563
635 569
635 579
635 581
635 585
635 590
635 598
635 602
635 605
635 612
635 614
635 618
635 622
635 624
635 632
635 639
635 644
636 555
636 558
636 565
636 570
636 572
636 580
636 582
636 596
636 599
636 601
636 603
636 610
636 633
636 634
636 637
636 642
637 555
637 565
637 570
637 577
637 580
637 582
637 595
637 596
637 599
637 601
637 603
637 608
637 631
637 633
637 634
637 636
638 554
638 561
638 564
638 573
638 583
638 594
638 600
638 606
638 611
638 617
638 629
638 630
638 643
639 562
639 569
639 579
639 581
639 590
639 598
639 602
639 605
639 612
639 618
639 622
639 624
639 635
639 644
640 584
640 604
640 609
640 613
640 628
640 642
641 566
641 574
641 578
641 587
641 588
641 607
641 611
641 614
641 615
641 616
641 627
641 629
641 630
641 632
642 572
642 582
642 584
642 603
642 609
642 610
642 613
642 628
642 633
642 636
642 640
643 564
643 573
643 576
643 592
643 594
643 600
643 606
643 611
643 617
643 621
643 629
643 638
644 563
644 569
644 581
644 585
644 588
644 598
644 602
644 605
644 607
644 612
644 614
644 618
644 622
644 624
644 627
644 632
644 635
644 639
