1 10
1 11
1 27
1 35
1 50
2 3
2 4
2 24
2 25
2 46
2 63
3 2
3 4
3 7
3 24
3 25
3 52
4 2
4 3
4 7
4 24
4 25
4 28
4 52
5 10
5 22
5 23
5 41
5 56
6 8
6 30
6 37
6 43
6 47
7 3
7 4
7 25
7 28
7 31
7 48
7 52
7 65
8 6
8 16
8 37
8 39
8 43
8 47
8 62
9 13
9 18
9 32
9 44
9 45
10 1
10 5
10 22
10 23
10 35
10 41
10 50
11 1
11 19
11 27
11 35
11 36
11 55
11 69
12 14
12 24
12 33
12 40
12 46
12 60
13 9
13 18
13 32
13 34
13 45
13 54
14 12
14 17
14 33
14 40
14 44
14 60
14 61
15 18
15 30
15 34
15 37
15 49
15 54
15 57
16 8
16 29
16 39
16 47
16 51
16 62
17 14
17 32
17 40
17 44
17 61
17 73
18 9
18 13
18 15
18 30
18 34
18 45
18 49
18 54
19 11
19 27
19 36
19 55
19 72
20 38
20 42
20 59
21 29
21 38
21 51
21 53
21 68
22 5
22 10
22 23
22 26
22 31
22 41
22 56
22 58
23 5
23 10
23 22
23 26
23 41
23 50
23 56
23 70
24 2
24 3
24 4
24 12
24 25
24 46
24 63
24 64
24 66
25 2
25 3
25 4
25 7
25 24
25 28
25 52
25 63
25 64
25 65
26 22
26 23
26 28
26 31
26 48
26 56
26 58
26 75
27 1
27 11
27 19
27 35
27 36
27 50
27 55
27 69
27 72
27 74
28 4
28 7
28 25
28 26
28 31
28 48
28 52
28 58
28 65
28 75
28 87
29 16
29 21
29 39
29 51
29 53
29 62
29 76
30 6
30 15
30 18
30 34
30 37
30 43
30 49
30 57
30 67
30 78
31 7
31 22
31 26
31 28
31 48
31 58
31 65
31 75
31 87
32 9
32 13
32 17
32 44
32 45
32 71
32 73
32 83
33 12
33 14
33 40
33 46
33 60
33 66
33 79
33 82
34 13
34 15
34 18
34 30
34 45
34 49
34 54
34 57
34 78
34 80
35 1
35 10
35 11
35 27
35 36
35 41
35 50
35 55
35 69
35 74
36 11
36 19
36 27
36 35
36 55
36 69
36 72
37 6
37 8
37 15
37 30
37 43
37 47
37 49
37 57
37 67
37 78
38 20
38 21
38 42
38 53
38 68
38 81
39 8
39 16
39 29
39 43
39 47
39 51
39 62
39 76
39 85
39 94
40 12
40 14
40 17
40 33
40 44
40 60
40 61
40 73
40 82
40 84
41 5
41 10
41 22
41 23
41 35
41 50
41 56
41 70
41 74
41 91
41 93
42 20
42 38
42 53
42 59
42 68
42 77
42 81
43 6
43 8
43 30
43 37
43 39
43 47
43 57
43 62
43 67
43 85
44 9
44 14
44 17
44 32
44 40
44 61
44 71
44 73
44 83
45 9
45 13
45 18
45 32
45 34
45 49
45 54
45 71
45 80
45 83
45 86
46 2
46 12
46 24
46 33
46 60
46 63
46 66
46 79
46 82
46 102
47 6
47 8
47 16
47 37
47 39
47 43
47 51
47 62
47 67
47 85
47 94
48 7
48 26
48 28
48 31
48 52
48 58
48 65
48 75
48 87
48 98
49 15
49 18
49 30
49 34
49 37
49 45
49 54
49 57
49 78
49 80
49 95
50 1
50 10
50 23
50 27
50 35
50 41
50 69
50 70
50 74
50 91
50 93
51 16
51 21
51 29
51 39
51 47
51 53
51 62
51 76
51 92
51 94
52 3
52 4
52 7
52 25
52 28
52 48
52 63
52 64
52 65
52 87
52 88
52 89
53 21
53 29
53 38
53 42
53 51
53 68
53 76
53 92
53 97
54 13
54 15
54 18
54 34
54 45
54 49
54 71
54 78
54 80
54 86
54 103
54 106
55 11
55 19
55 27
55 35
55 36
55 69
55 72
55 96
56 5
56 22
56 23
56 26
56 41
56 58
56 70
56 75
56 91
56 98
56 99
57 15
57 30
57 34
57 37
57 43
57 49
57 67
57 78
57 80
57 95
57 101
57 109
58 22
58 26
58 28
58 31
58 48
58 56
58 75
58 87
58 98
58 99
59 20
59 42
59 77
59 81
59 108
60 12
60 14
60 33
60 40
60 46
60 61
60 66
60 79
60 82
60 84
60 102
61 14
61 17
61 40
61 44
61 60
61 73
61 82
61 84
61 100
61 110
62 8
62 16
62 29
62 39
62 43
62 47
62 51
62 67
62 76
62 85
62 94
63 2
63 24
63 25
63 46
63 52
63 64
63 66
63 79
63 89
63 90
63 107
64 24
64 25
64 52
64 63
64 65
64 66
64 88
64 89
64 90
64 118
65 7
65 25
65 28
65 31
65 48
65 52
65 64
65 75
65 87
65 88
65 89
65 113
66 24
66 33
66 46
66 60
66 63
66 64
66 79
66 82
66 90
66 102
66 107
67 30
67 37
67 43
67 47
67 57
67 62
67 78
67 85
67 95
67 101
67 119
68 21
68 38
68 42
68 53
68 77
68 81
68 92
68 97
69 11
69 27
69 35
69 36
69 50
69 55
69 72
69 74
69 93
69 96
69 123
70 23
70 41
70 50
70 56
70 74
70 91
70 93
70 99
70 117
70 121
71 32
71 44
71 45
71 54
71 73
71 83
71 86
71 100
71 103
71 104
71 106
71 120
72 19
72 27
72 36
72 55
72 69
72 74
72 96
72 112
72 123
73 17
73 32
73 40
73 44
73 61
73 71
73 83
73 84
73 100
73 104
73 110
73 116
74 27
74 35
74 41
74 50
74 69
74 70
74 72
74 91
74 93
74 96
74 121
75 26
75 28
75 31
75 48
75 56
75 58
75 65
75 87
75 98
75 99
75 111
75 114
75 124
76 29
76 39
76 51
76 53
76 62
76 92
76 94
76 105
77 42
77 59
77 68
77 81
77 97
77 108
77 129
78 30
78 34
78 37
78 49
78 54
78 57
78 67
78 80
78 95
78 101
78 106
78 109
78 115
78 127
79 33
79 46
79 60
79 63
79 66
79 82
79 84
79 90
79 102
79 107
79 125
80 34
80 45
80 49
80 54
80 57
80 78
80 86
80 95
80 103
80 106
80 109
80 115
80 135
81 38
81 42
81 59
81 68
81 77
81 97
81 108
82 33
82 40
82 46
82 60
82 61
82 66
82 79
82 84
82 102
82 110
82 125
82 132
83 32
83 44
83 45
83 71
83 73
83 86
83 100
83 103
83 104
83 116
83 120
84 40
84 60
84 61
84 73
84 79
84 82
84 100
84 110
84 116
84 132
85 39
85 43
85 47
85 62
85 67
85 94
85 101
85 119
85 126
86 45
86 54
86 71
86 80
86 83
86 103
86 104
86 106
86 115
86 120
86 138
87 28
87 31
87 48
87 52
87 58
87 65
87 75
87 88
87 89
87 98
87 111
87 113
87 124
87 130
88 52
88 64
88 65
88 87
88 89
88 90
88 113
88 118
89 52
89 63
89 64
89 65
89 87
89 88
89 90
89 107
89 113
89 118
89 136
90 63
90 64
90 66
90 79
90 88
90 89
90 102
90 107
90 118
90 128
90 136
91 41
91 50
91 56
91 70
91 74
91 93
91 98
91 99
91 114
91 117
91 121
92 51
92 53
92 68
92 76
92 94
92 97
92 105
92 122
92 137
93 41
93 50
93 69
93 70
93 74
93 91
93 99
93 117
93 121
94 39
94 47
94 51
94 62
94 76
94 85
94 92
94 105
94 119
94 126
94 137
95 49
95 57
95 67
95 78
95 80
95 101
95 109
95 115
95 127
95 133
96 55
96 69
96 72
96 74
96 112
96 123
96 131
96 150
97 53
97 68
97 77
97 81
97 92
97 105
97 108
97 122
98 48
98 56
98 58
98 75
98 87
98 91
98 99
98 111
98 114
98 117
98 124
98 130
98 139
98 141
99 56
99 58
99 70
99 75
99 91
99 93
99 98
99 111
99 114
99 117
99 139
99 142
100 61
100 71
100 73
100 83
100 84
100 104
100 110
100 116
100 120
100 134
100 147
101 57
101 67
101 78
101 85
101 95
101 109
101 119
101 127
101 133
101 155
102 46
102 60
102 66
102 79
102 82
102 90
102 107
102 125
102 128
102 152
103 54
103 71
103 80
103 83
103 86
103 104
103 106
103 115
103 120
103 135
103 138
103 153
104 71
104 73
104 83
104 86
104 100
104 103
104 106
104 116
104 120
104 134
104 138
104 147
104 153
105 76
105 92
105 94
105 97
105 122
105 126
105 137
105 151
105 157
106 54
106 71
106 78
106 80
106 86
106 103
106 104
106 109
106 115
106 135
106 138
106 153
106 161
107 63
107 66
107 79
107 89
107 90
107 102
107 118
107 125
107 128
107 136
107 148
108 59
108 77
108 81
108 97
108 129
108 140
109 57
109 78
109 80
109 95
109 101
109 106
109 115
109 127
109 133
109 135
109 156
110 61
110 73
110 82
110 84
110 100
110 116
110 132
110 134
110 154
110 159
111 75
111 87
111 98
111 99
111 114
111 117
111 124
111 130
111 139
111 141
111 158
111 173
112 72
112 96
112 123
112 131
112 149
112 150
112 169
113 65
113 87
113 88
113 89
113 118
113 124
113 130
113 136
113 144
113 158
113 170
114 75
114 91
114 98
114 99
114 111
114 117
114 124
114 139
114 141
114 142
114 166
114 173
115 78
115 80
115 86
115 95
115 103
115 106
115 109
115 127
115 135
115 138
115 156
115 161
115 165
116 73
116 83
116 84
116 100
116 104
116 110
116 120
116 132
116 134
116 147
116 159
116 160
117 70
117 91
117 93
117 98
117 99
117 111
117 114
117 121
117 139
117 142
117 146
117 166
117 175
118 64
118 88
118 89
118 90
118 107
118 113
118 128
118 136
118 144
118 171
119 67
119 85
119 94
119 101
119 126
119 133
119 145
119 155
119 163
120 71
120 83
120 86
120 100
120 103
120 104
120 116
120 134
120 138
120 147
120 153
120 160
120 164
121 70
121 74
121 91
121 93
121 117
121 123
121 142
121 143
121 146
121 149
121 167
122 92
122 97
122 105
122 137
122 151
122 162
122 168
123 69
123 72
123 96
123 112
123 121
123 131
123 143
123 149
123 150
123 169
123 174
124 75
124 87
124 98
124 111
124 113
124 114
124 130
124 139
124 141
124 144
124 158
124 173
124 182
125 79
125 82
125 102
125 107
125 128
125 132
125 148
125 152
125 154
125 178
125 179
126 85
126 94
126 105
126 119
126 137
126 145
126 157
126 163
126 184
127 78
127 95
127 101
127 109
127 115
127 133
127 135
127 155
127 156
127 176
127 181
128 90
128 102
128 107
128 118
128 125
128 136
128 148
128 152
128 177
128 178
129 77
129 108
129 140
129 172
130 87
130 98
130 111
130 113
130 124
130 141
130 144
130 158
130 170
130 173
130 182
131 96
131 112
131 123
131 149
131 150
131 169
131 174
132 82
132 84
132 110
132 116
132 125
132 134
132 152
132 154
132 159
132 179
132 183
133 95
133 101
133 109
133 119
133 127
133 145
133 155
133 156
133 163
133 176
133 181
133 185
134 100
134 104
134 110
134 116
134 120
134 132
134 147
134 154
134 159
134 160
134 180
134 183
135 80
135 103
135 106
135 109
135 115
135 127
135 138
135 153
135 156
135 161
135 165
135 187
135 191
136 89
136 90
136 107
136 113
136 118
136 128
136 144
136 148
136 170
136 171
136 177
137 92
137 94
137 105
137 122
137 126
137 145
137 151
137 157
137 168
137 184
137 190
138 86
138 103
138 104
138 106
138 115
138 120
138 135
138 147
138 153
138 161
138 164
138 165
138 186
138 194
139 98
139 99
139 111
139 114
139 117
139 124
139 141
139 142
139 146
139 158
139 166
139 173
139 175
140 108
140 129
140 162
140 172
141 98
141 111
141 114
141 124
141 130
141 139
141 158
141 166
141 173
141 182
141 196
142 99
142 114
142 117
142 121
142 139
142 143
142 146
142 166
142 167
142 173
142 175
142 205
143 121
143 123
143 142
143 146
143 149
143 150
143 167
143 169
143 174
143 175
143 197
143 198
144 113
144 118
144 124
144 130
144 136
144 158
144 170
144 171
144 182
144 201
145 119
145 126
145 133
145 137
145 155
145 157
145 163
145 184
145 185
145 190
146 117
146 121
146 139
146 142
146 143
146 149
146 166
146 167
146 174
146 175
146 197
147 100
147 104
147 116
147 120
147 134
147 138
147 153
147 159
147 160
147 164
147 180
147 186
147 189
147 193
148 107
148 125
148 128
148 136
148 152
148 171
148 177
148 178
149 112
149 121
149 123
149 131
149 143
149 146
149 150
149 167
149 169
149 174
149 195
149 198
150 96
150 112
150 123
150 131
150 143
150 149
150 167
150 169
150 174
150 195
150 211
151 105
151 122
151 137
151 157
151 162
151 168
151 188
151 192
152 102
152 125
152 128
152 132
152 148
152 154
152 177
152 178
152 179
152 204
153 103
153 104
153 106
153 120
153 135
153 138
153 147
153 160
153 161
153 164
153 165
153 186
153 189
153 193
153 194
154 110
154 125
154 132
154 134
154 152
154 159
154 178
154 179
154 180
154 183
154 202
155 101
155 119
155 127
155 133
155 145
155 156
155 163
155 176
155 181
155 185
155 199
155 208
156 109
156 115
156 127
156 133
156 135
156 155
156 165
156 176
156 181
156 187
156 191
156 199
157 105
157 126
157 137
157 145
157 151
157 163
157 168
157 184
157 190
157 207
158 111
158 113
158 124
158 130
158 139
158 141
158 144
158 166
158 170
158 173
158 182
158 196
158 201
159 110
159 116
159 132
159 134
159 147
159 154
159 160
159 179
159 180
159 183
159 189
159 202
159 203
160 116
160 120
160 134
160 147
160 153
160 159
160 164
160 180
160 183
160 189
160 193
160 203
161 106
161 115
161 135
161 138
161 153
161 164
161 165
161 186
161 187
161 191
161 193
161 194
162 122
162 140
162 151
162 168
162 172
162 188
162 192
162 212
163 119
163 126
163 133
163 145
163 155
163 157
163 176
163 181
163 184
163 185
163 208
163 213
163 216
164 120
164 138
164 147
164 153
164 160
164 161
164 180
164 186
164 189
164 193
164 194
164 218
164 221
165 115
165 135
165 138
165 153
165 156
165 161
165 186
165 187
165 191
165 194
165 199
166 114
166 117
166 139
166 141
166 142
166 146
166 158
166 173
166 175
166 196
166 205
166 209
166 210
166 224
167 121
167 142
167 143
167 146
167 149
167 150
167 169
167 174
167 175
167 197
167 198
167 220
168 122
168 137
168 151
168 157
168 162
168 188
168 190
168 192
168 207
169 112
169 123
169 131
169 143
169 149
169 150
169 167
169 174
169 195
169 198
169 211
170 113
170 130
170 136
170 144
170 158
170 171
170 182
170 196
170 200
170 201
171 118
171 136
171 144
171 148
171 170
171 177
171 182
171 200
171 201
171 214
172 129
172 140
172 162
172 192
172 206
173 111
173 114
173 124
173 130
173 139
173 141
173 142
173 158
173 166
173 182
173 196
173 209
173 210
173 217
174 123
174 131
174 143
174 146
174 149
174 150
174 167
174 169
174 195
174 197
174 198
174 211
174 220
175 117
175 139
175 142
175 143
175 146
175 166
175 167
175 197
175 205
175 210
175 227
176 127
176 133
176 155
176 156
176 163
176 181
176 185
176 187
176 199
176 208
176 216
177 128
177 136
177 148
177 152
177 171
177 178
177 200
177 214
177 215
178 125
178 128
178 148
178 152
178 154
178 177
178 179
178 204
178 215
178 219
179 125
179 132
179 152
179 154
179 159
179 178
179 183
179 202
179 204
179 219
179 223
180 134
180 147
180 154
180 159
180 160
180 164
180 183
180 189
180 193
180 202
180 203
180 218
180 225
181 127
181 133
181 155
181 156
181 163
181 176
181 185
181 187
181 199
181 208
181 216
181 222
182 124
182 130
182 141
182 144
182 158
182 170
182 171
182 173
182 196
182 201
182 209
182 217
182 229
183 132
183 134
183 154
183 159
183 160
183 179
183 180
183 189
183 202
183 203
183 219
183 223
183 225
184 126
184 137
184 145
184 157
184 163
184 185
184 190
184 207
184 213
184 216
184 232
185 133
185 145
185 155
185 163
185 176
185 181
185 184
185 190
185 208
185 213
185 216
185 237
186 138
186 147
186 153
186 161
186 164
186 165
186 189
186 191
186 193
186 194
186 218
186 221
186 241
187 135
187 156
187 161
187 165
187 176
187 181
187 191
187 194
187 199
187 222
187 228
188 151
188 162
188 168
188 190
188 192
188 207
188 212
188 226
188 240
189 147
189 153
189 159
189 160
189 164
189 180
189 183
189 186
189 193
189 202
189 203
189 218
189 221
189 225
190 137
190 145
190 157
190 168
190 184
190 185
190 188
190 207
190 213
190 226
190 232
190 243
191 135
191 156
191 161
191 165
191 186
191 187
191 194
191 199
191 222
191 228
192 151
192 162
192 168
192 172
192 188
192 206
192 212
192 236
192 240
193 147
193 153
193 160
193 161
193 164
193 180
193 186
193 189
193 194
193 218
193 221
193 241
194 138
194 153
194 161
194 164
194 165
194 186
194 187
194 191
194 193
194 221
194 228
194 241
195 149
195 150
195 169
195 174
195 198
195 211
195 220
195 231
195 242
196 141
196 158
196 166
196 170
196 173
196 182
196 201
196 209
196 210
196 217
196 229
196 239
196 250
197 143
197 146
197 167
197 174
197 175
197 198
197 205
197 220
197 227
197 230
198 143
198 149
198 167
198 169
198 174
198 195
198 197
198 211
198 220
198 230
198 231
198 242
199 155
199 156
199 165
199 176
199 181
199 187
199 191
199 208
199 222
199 228
199 237
199 249
200 170
200 171
200 177
200 201
200 214
200 215
200 233
200 234
200 235
200 248
200 251
201 144
201 158
201 170
201 171
201 182
201 196
201 200
201 217
201 229
201 233
201 248
201 250
202 154
202 159
202 179
202 180
202 183
202 189
202 203
202 204
202 219
202 223
202 225
202 244
202 247
203 159
203 160
203 180
203 183
203 189
203 202
203 218
203 219
203 223
203 225
203 244
204 152
204 178
204 179
204 202
204 215
204 219
204 223
204 234
204 238
204 247
204 252
204 256
205 142
205 166
205 175
205 197
205 209
205 210
205 224
205 227
205 230
205 245
206 172
206 192
206 212
206 236
206 246
206 253
207 157
207 168
207 184
207 188
207 190
207 213
207 226
207 232
207 240
207 243
207 259
208 155
208 163
208 176
208 181
208 185
208 199
208 213
208 216
208 222
208 237
208 260
209 166
209 173
209 182
209 196
209 205
209 210
209 217
209 224
209 227
209 239
209 245
210 166
210 173
210 175
210 196
210 205
210 209
210 224
210 227
210 239
210 245
210 266
211 150
211 169
211 174
211 195
211 198
211 220
211 231
211 242
212 162
212 188
212 192
212 206
212 236
212 240
212 253
213 163
213 184
213 185
213 190
213 207
213 208
213 216
213 226
213 232
213 237
213 243
213 257
214 171
214 177
214 200
214 215
214 233
214 234
214 235
214 251
214 252
215 177
215 178
215 200
215 204
215 214
215 234
215 235
215 238
215 251
215 252
215 256
216 163
216 176
216 181
216 184
216 185
216 208
216 213
216 232
216 237
216 243
216 257
216 260
216 273
217 173
217 182
217 196
217 201
217 209
217 229
217 233
217 239
217 245
217 248
217 250
218 164
218 180
218 186
218 189
218 193
218 203
218 221
218 225
218 241
218 244
218 254
218 264
218 271
219 178
219 179
219 183
219 202
219 203
219 204
219 223
219 225
219 238
219 247
219 256
219 268
220 167
220 174
220 195
220 197
220 198
220 211
220 230
220 231
220 242
220 258
220 261
221 164
221 186
221 189
221 193
221 194
221 218
221 228
221 241
221 254
221 262
222 181
222 187
222 191
222 199
222 208
222 228
222 249
222 255
222 265
223 179
223 183
223 202
223 203
223 204
223 219
223 225
223 244
223 247
223 264
223 268
223 277
224 166
224 205
224 209
224 210
224 227
224 230
224 239
224 245
224 263
224 266
224 272
224 276
225 180
225 183
225 189
225 202
225 203
225 218
225 219
225 223
225 244
225 247
225 254
225 264
225 271
226 188
226 190
226 207
226 213
226 232
226 240
226 243
226 259
226 275
227 175
227 197
227 205
227 209
227 210
227 224
227 230
227 245
227 258
227 263
227 266
227 272
228 187
228 191
228 194
228 199
228 221
228 222
228 241
228 249
228 255
228 262
228 265
229 182
229 196
229 201
229 217
229 233
229 239
229 248
229 250
229 281
230 197
230 198
230 205
230 220
230 224
230 227
230 242
230 258
230 263
230 272
231 195
231 198
231 211
231 220
231 242
231 261
231 269
232 184
232 190
232 207
232 213
232 216
232 226
232 237
232 243
232 257
232 259
232 275
232 283
233 200
233 201
233 214
233 217
233 229
233 235
233 248
233 250
233 251
233 281
234 200
234 204
234 214
234 215
234 235
234 238
234 251
234 252
234 256
234 274
235 200
235 214
235 215
235 233
235 234
235 248
235 251
235 252
235 274
235 280
236 192
236 206
236 212
236 240
236 246
236 253
236 267
236 270
236 286
237 185
237 199
237 208
237 213
237 216
237 232
237 249
237 257
237 260
237 273
238 204
238 215
238 219
238 234
238 247
238 252
238 256
238 268
238 274
238 284
238 290
239 196
239 209
239 210
239 217
239 224
239 229
239 245
239 250
239 266
239 276
239 279
240 188
240 192
240 207
240 212
240 226
240 236
240 253
240 259
240 267
240 282
240 289
241 186
241 193
241 194
241 218
241 221
241 228
241 254
241 262
241 265
241 271
241 278
242 195
242 198
242 211
242 220
242 230
242 231
242 258
242 261
242 269
242 287
242 294
243 190
243 207
243 213
243 216
243 226
243 232
243 257
243 259
243 275
243 283
244 202
244 203
244 218
244 223
244 225
244 247
244 254
244 264
244 268
244 271
244 277
245 205
245 209
245 210
245 217
245 224
245 227
245 239
245 266
245 272
245 276
245 279
245 297
245 299
246 206
246 236
246 253
246 270
246 286
246 293
247 202
247 204
247 219
247 223
247 225
247 238
247 244
247 256
247 264
247 268
247 277
247 284
247 306
248 200
248 201
248 217
248 229
248 233
248 235
248 250
248 251
248 280
248 281
248 304
249 199
249 222
249 228
249 237
249 255
249 260
249 265
249 288
249 292
250 196
250 201
250 217
250 229
250 233
250 239
250 248
250 279
250 281
251 200
251 214
251 215
251 233
251 234
251 235
251 248
251 252
251 274
251 280
251 296
251 309
252 204
252 214
252 215
252 234
252 235
252 238
252 251
252 256
252 274
252 280
252 284
252 290
252 296
253 206
253 212
253 236
253 240
253 246
253 267
253 270
253 282
253 286
254 218
254 221
254 225
254 241
254 244
254 262
254 264
254 271
254 278
254 298
255 222
255 228
255 249
255 262
255 265
255 285
255 288
255 292
255 307
256 204
256 215
256 219
256 234
256 238
256 247
256 252
256 268
256 274
256 277
256 284
256 290
256 306
257 213
257 216
257 232
257 237
257 243
257 260
257 273
257 275
257 283
257 295
257 302
258 220
258 227
258 230
258 242
258 261
258 263
258 272
258 287
258 303
258 308
259 207
259 226
259 232
259 240
259 243
259 267
259 275
259 282
259 283
259 289
260 208
260 216
260 237
260 249
260 257
260 273
260 288
260 295
261 220
261 231
261 242
261 258
261 269
261 287
261 291
261 294
261 308
262 221
262 228
262 241
262 254
262 255
262 265
262 271
262 278
262 285
262 298
262 307
263 224
263 227
263 230
263 258
263 266
263 272
263 287
263 297
263 303
264 218
264 223
264 225
264 244
264 247
264 254
264 268
264 271
264 277
264 300
264 305
265 222
265 228
265 241
265 249
265 255
265 262
265 278
265 285
265 292
265 307
266 210
266 224
266 227
266 239
266 245
266 263
266 272
266 276
266 279
266 297
266 299
266 301
266 314
267 236
267 240
267 253
267 259
267 282
267 286
267 289
267 315
268 219
268 223
268 238
268 244
268 247
268 256
268 264
268 277
268 284
268 290
268 300
268 306
269 231
269 242
269 261
269 287
269 291
269 294
269 312
270 236
270 246
270 253
270 286
270 293
271 218
271 225
271 241
271 244
271 254
271 262
271 264
271 278
271 298
271 305
271 316
272 224
272 227
272 230
272 245
272 258
272 263
272 266
272 276
272 297
272 299
272 303
272 324
273 216
273 237
273 257
273 260
273 283
273 288
273 295
273 302
274 234
274 235
274 238
274 251
274 252
274 256
274 280
274 290
274 296
274 309
274 313
275 226
275 232
275 243
275 257
275 259
275 283
275 289
275 302
275 310
275 319
275 323
276 224
276 239
276 245
276 266
276 272
276 279
276 297
276 299
276 301
276 314
277 223
277 244
277 247
277 256
277 264
277 268
277 284
277 300
277 305
277 306
278 241
278 254
278 262
278 265
278 271
278 285
278 298
278 307
278 316
278 321
279 239
279 245
279 250
279 266
279 276
279 281
279 299
279 301
279 311
279 314
279 327
280 235
280 248
280 251
280 252
280 274
280 281
280 296
280 304
280 309
280 313
281 229
281 233
281 248
281 250
281 279
281 280
281 301
281 304
281 311
281 332
282 240
282 253
282 259
282 267
282 286
282 289
282 315
282 317
282 319
283 232
283 243
283 257
283 259
283 273
283 275
283 289
283 295
283 302
283 310
283 323
284 238
284 247
284 252
284 256
284 268
284 277
284 290
284 300
284 306
284 325
284 331
285 255
285 262
285 265
285 278
285 292
285 298
285 307
285 320
285 321
286 236
286 246
286 253
286 267
286 270
286 282
286 293
286 315
286 317
286 328
287 242
287 258
287 261
287 263
287 269
287 291
287 294
287 303
287 308
287 322
287 326
287 338
288 249
288 255
288 260
288 273
288 292
288 295
288 318
288 330
289 240
289 259
289 267
289 275
289 282
289 283
289 310
289 315
289 319
290 238
290 252
290 256
290 268
290 274
290 284
290 296
290 306
290 313
290 325
290 331
291 261
291 269
291 287
291 294
291 308
291 312
291 326
291 329
292 249
292 255
292 265
292 285
292 288
292 307
292 318
292 320
292 330
292 348
293 246
293 270
293 286
293 317
293 328
294 242
294 261
294 269
294 287
294 291
294 308
294 312
294 326
294 329
295 257
295 260
295 273
295 283
295 288
295 302
295 323
295 330
295 333
295 339
296 251
296 252
296 274
296 280
296 290
296 309
296 313
296 325
296 336
296 337
297 245
297 263
297 266
297 272
297 276
297 299
297 301
297 303
297 314
297 324
297 340
298 254
298 262
298 271
298 278
298 285
298 305
298 307
298 316
298 321
298 342
298 347
299 245
299 266
299 272
299 276
299 279
299 297
299 301
299 303
299 314
299 324
299 327
299 340
299 346
300 264
300 268
300 277
300 284
300 305
300 306
300 334
300 335
301 266
301 276
301 279
301 281
301 297
301 299
301 311
301 314
301 327
301 346
302 257
302 273
302 275
302 283
302 295
302 310
302 323
302 333
302 339
302 345
303 258
303 263
303 272
303 287
303 297
303 299
303 308
303 322
303 324
303 338
304 248
304 280
304 281
304 309
304 311
304 332
304 337
304 350
305 264
305 271
305 277
305 298
305 300
305 316
305 334
305 335
305 341
306 247
306 256
306 268
306 277
306 284
306 290
306 300
306 325
306 331
306 334
306 335
307 255
307 262
307 265
307 278
307 285
307 292
307 298
307 318
307 320
307 321
307 342
307 348
307 349
308 258
308 261
308 287
308 291
308 294
308 303
308 312
308 322
308 326
308 329
308 338
309 251
309 274
309 280
309 296
309 304
309 313
309 332
309 336
309 337
309 355
310 275
310 283
310 289
310 302
310 319
310 323
310 344
310 345
310 352
311 279
311 281
311 301
311 304
311 327
311 332
311 346
311 350
312 269
312 291
312 294
312 308
312 326
312 329
312 356
313 274
313 280
313 290
313 296
313 309
313 325
313 336
313 337
313 355
314 266
314 276
314 279
314 297
314 299
314 301
314 324
314 327
314 340
314 346
315 267
315 282
315 286
315 289
315 317
315 319
315 343
315 344
315 351
315 358
316 271
316 278
316 298
316 305
316 321
316 334
316 341
316 342
316 347
316 359
317 282
317 286
317 293
317 315
317 328
317 343
317 351
317 353
317 358
317 365
318 288
318 292
318 307
318 320
318 330
318 333
318 348
318 349
318 363
318 370
319 275
319 282
319 289
319 310
319 315
319 344
319 351
319 352
319 358
319 367
320 285
320 292
320 307
320 318
320 321
320 330
320 342
320 348
320 349
320 370
321 278
321 285
321 298
321 307
321 316
321 320
321 341
321 342
321 347
321 349
321 366
321 374
322 287
322 303
322 308
322 324
322 326
322 338
322 364
322 372
323 275
323 283
323 295
323 302
323 310
323 333
323 339
323 345
323 352
323 360
323 377
324 272
324 297
324 299
324 303
324 314
324 322
324 338
324 340
324 368
325 284
325 290
325 296
325 306
325 313
325 331
325 335
325 336
325 357
325 361
326 287
326 291
326 294
326 308
326 312
326 322
326 329
326 338
326 356
326 362
326 372
327 279
327 299
327 301
327 311
327 314
327 332
327 346
327 350
327 375
327 376
328 286
328 293
328 317
328 343
328 353
328 365
328 373
329 291
329 294
329 308
329 312
329 326
329 356
329 362
330 288
330 292
330 295
330 318
330 320
330 333
330 348
330 360
330 363
330 370
331 284
331 290
331 306
331 325
331 334
331 335
331 354
331 357
331 361
332 281
332 304
332 309
332 311
332 327
332 337
332 350
332 355
332 380
333 295
333 302
333 318
333 323
333 330
333 339
333 345
333 360
333 363
333 386
334 300
334 305
334 306
334 316
334 331
334 335
334 341
334 354
334 359
334 371
334 379
335 300
335 305
335 306
335 325
335 331
335 334
335 354
335 359
335 361
335 371
336 296
336 309
336 313
336 325
336 337
336 355
336 357
336 388
337 296
337 304
337 309
337 313
337 332
337 336
337 355
337 385
338 287
338 303
338 308
338 322
338 324
338 326
338 356
338 364
338 372
338 381
339 295
339 302
339 323
339 333
339 345
339 352
339 360
339 369
339 377
339 384
340 297
340 299
340 314
340 324
340 346
340 368
340 375
340 392
341 305
341 316
341 321
341 334
341 342
341 347
341 354
341 359
341 374
341 379
341 382
342 298
342 307
342 316
342 320
342 321
342 341
342 347
342 348
342 349
342 366
342 374
342 378
343 315
343 317
343 328
343 351
343 353
343 358
343 365
343 373
343 389
344 310
344 315
344 319
344 345
344 351
344 352
344 358
344 367
344 369
344 383
345 302
345 310
345 323
345 333
345 339
345 344
345 352
345 360
345 369
345 377
345 383
345 384
346 299
346 301
346 311
346 314
346 327
346 340
346 350
346 375
346 376
346 392
346 393
347 298
347 316
347 321
347 341
347 342
347 349
347 359
347 366
347 374
347 382
348 292
348 307
348 318
348 320
348 330
348 342
348 349
348 363
348 370
348 378
348 391
349 307
349 318
349 320
349 321
349 342
349 347
349 348
349 366
349 370
349 374
349 378
350 304
350 311
350 327
350 332
350 346
350 375
350 376
350 380
351 315
351 317
351 319
351 343
351 344
351 352
351 358
351 365
351 367
351 383
351 389
351 398
352 310
352 319
352 323
352 339
352 344
352 345
352 351
352 367
352 369
352 377
352 383
352 399
353 317
353 328
353 343
353 365
353 373
353 396
353 403
354 331
354 334
354 335
354 341
354 359
354 361
354 371
354 379
355 309
355 313
355 332
355 336
355 337
355 357
355 385
355 388
355 390
355 404
356 312
356 326
356 329
356 338
356 362
356 364
356 372
356 381
356 395
356 400
357 325
357 331
357 336
357 355
357 361
357 388
357 397
357 407
358 315
358 317
358 319
358 343
358 344
358 351
358 365
358 367
358 383
358 389
358 396
358 398
359 316
359 334
359 335
359 341
359 347
359 354
359 371
359 374
359 379
359 382
360 323
360 330
360 333
360 339
360 345
360 363
360 377
360 384
360 386
360 394
361 325
361 331
361 335
361 354
361 357
361 371
361 397
361 401
362 326
362 329
362 356
362 381
362 395
362 400
363 318
363 330
363 333
363 348
363 360
363 370
363 378
363 386
363 391
364 322
364 338
364 356
364 368
364 372
364 381
364 387
364 400
364 402
364 405
365 317
365 328
365 343
365 351
365 353
365 358
365 373
365 389
365 396
365 412
366 321
366 342
366 347
366 349
366 374
366 378
366 382
366 406
366 414
367 319
367 344
367 351
367 352
367 358
367 369
367 383
367 389
367 398
367 399
368 324
368 340
368 364
368 372
368 387
368 392
368 405
368 410
369 339
369 344
369 345
369 352
369 367
369 377
369 383
369 384
369 394
369 399
370 318
370 320
370 330
370 348
370 349
370 363
370 378
370 386
370 391
371 334
371 335
371 354
371 359
371 361
371 379
371 401
371 408
372 322
372 326
372 338
372 356
372 364
372 368
372 381
372 387
372 400
372 402
372 405
373 328
373 343
373 353
373 365
373 396
373 403
373 417
374 321
374 341
374 342
374 347
374 349
374 359
374 366
374 378
374 379
374 382
374 406
374 414
375 327
375 340
375 346
375 350
375 376
375 380
375 392
375 393
375 411
375 415
376 327
376 346
376 350
376 375
376 380
376 390
376 392
376 393
376 411
377 323
377 339
377 345
377 352
377 360
377 369
377 383
377 384
377 394
377 399
378 342
378 348
378 349
378 363
378 366
378 370
378 374
378 391
378 414
378 418
379 334
379 341
379 354
379 359
379 371
379 374
379 382
379 406
379 408
380 332
380 350
380 375
380 376
380 385
380 390
380 393
380 409
380 411
381 338
381 356
381 362
381 364
381 372
381 395
381 400
381 402
381 416
382 341
382 347
382 359
382 366
382 374
382 379
382 406
382 414
382 424
383 344
383 345
383 351
383 352
383 358
383 367
383 369
383 377
383 398
383 399
384 339
384 345
384 360
384 369
384 377
384 386
384 394
384 399
385 337
385 355
385 380
385 388
385 390
385 404
385 407
385 409
385 422
385 426
386 333
386 360
386 363
386 370
386 384
386 391
386 394
387 364
387 368
387 372
387 392
387 400
387 402
387 405
387 410
387 423
388 336
388 355
388 357
388 385
388 397
388 404
388 407
388 425
389 343
389 351
389 358
389 365
389 367
389 396
389 398
389 412
390 355
390 376
390 380
390 385
390 404
390 409
390 411
390 422
390 426
391 348
391 363
391 370
391 378
391 386
391 418
391 421
391 430
392 340
392 346
392 368
392 375
392 376
392 387
392 393
392 410
392 415
392 423
392 440
393 346
393 375
393 376
393 380
393 392
393 411
393 415
393 434
394 360
394 369
394 377
394 384
394 386
394 399
394 429
395 356
395 362
395 381
395 400
395 416
395 420
395 431
396 353
396 358
396 365
396 373
396 389
396 398
396 403
396 412
396 417
397 357
397 361
397 388
397 401
397 407
397 413
397 419
397 436
397 439
398 351
398 358
398 367
398 383
398 389
398 396
398 399
398 412
398 444
399 352
399 367
399 369
399 377
399 383
399 384
399 394
399 398
399 429
399 448
400 356
400 362
400 364
400 372
400 381
400 387
400 395
400 402
400 405
400 416
400 420
400 427
400 431
400 445
401 361
401 371
401 397
401 408
401 413
401 419
401 432
401 439
401 446
401 447
402 364
402 372
402 381
402 387
402 400
402 405
402 410
402 416
402 427
402 437
402 445
403 353
403 373
403 396
403 412
403 417
404 355
404 385
404 388
404 390
404 407
404 409
404 422
404 425
404 426
404 436
404 452
405 364
405 368
405 372
405 387
405 400
405 402
405 410
405 416
405 423
405 427
405 437
405 442
406 366
406 374
406 379
406 382
406 414
406 424
406 428
406 433
407 357
407 385
407 388
407 397
407 404
407 413
407 425
407 436
407 439
408 371
408 379
408 401
408 413
408 419
408 424
408 432
408 447
408 449
408 451
409 380
409 385
409 390
409 404
409 411
409 422
409 426
409 441
409 443
410 368
410 387
410 392
410 402
410 405
410 415
410 423
410 437
410 440
410 442
410 463
411 375
411 376
411 380
411 390
411 393
411 409
411 415
411 422
411 434
411 441
411 443
411 458
412 365
412 389
412 396
412 398
412 403
412 417
412 457
413 397
413 401
413 407
413 408
413 419
413 432
413 436
413 439
413 446
413 447
413 467
414 366
414 374
414 378
414 382
414 406
414 418
414 428
414 433
414 438
414 455
414 459
415 375
415 392
415 393
415 410
415 411
415 423
415 434
415 440
415 442
416 381
416 395
416 400
416 402
416 405
416 420
416 427
416 431
416 445
416 464
417 373
417 396
417 403
417 412
417 468
418 378
418 391
418 414
418 421
418 430
418 433
418 438
418 453
418 455
418 459
419 397
419 401
419 408
419 413
419 432
419 439
419 446
419 447
419 451
419 467
419 473
420 395
420 400
420 416
420 431
420 445
420 456
421 391
421 418
421 430
421 435
421 438
421 453
421 454
421 459
421 476
422 385
422 390
422 404
422 409
422 411
422 426
422 434
422 441
422 443
422 462
422 469
423 387
423 392
423 405
423 410
423 415
423 437
423 440
423 442
423 463
423 474
424 382
424 406
424 408
424 428
424 432
424 449
424 451
424 465
424 479
425 388
425 404
425 407
425 426
425 436
425 439
425 452
425 461
425 462
426 385
426 390
426 404
426 409
426 422
426 425
426 436
426 441
426 443
426 452
426 462
427 400
427 402
427 405
427 416
427 431
427 437
427 442
427 445
427 464
427 472
427 478
428 406
428 414
428 424
428 433
428 449
428 455
428 465
428 470
429 394
429 399
429 435
429 448
429 450
429 460
429 484
430 391
430 418
430 421
430 435
430 438
430 453
430 454
430 476
430 481
431 395
431 400
431 416
431 420
431 427
431 445
431 456
431 464
431 480
432 401
432 408
432 413
432 419
432 424
432 446
432 447
432 449
432 451
432 473
432 477
432 479
433 406
433 414
433 418
433 428
433 438
433 455
433 459
433 465
433 470
433 483
433 491
434 393
434 411
434 415
434 422
434 440
434 441
434 443
434 458
434 469
434 475
434 486
435 421
435 429
435 430
435 450
435 453
435 454
435 460
435 481
435 482
436 397
436 404
436 407
436 413
436 425
436 426
436 439
436 446
436 452
436 461
436 467
437 402
437 405
437 410
437 423
437 427
437 440
437 442
437 445
437 463
437 472
437 478
438 414
438 418
438 421
438 430
438 433
438 453
438 455
438 459
438 476
438 483
438 491
439 397
439 401
439 407
439 413
439 419
439 425
439 436
439 446
439 447
439 452
439 461
439 467
439 473
439 485
440 392
440 410
440 415
440 423
440 434
440 437
440 442
440 458
440 463
440 474
440 475
440 488
441 409
441 411
441 422
441 426
441 434
441 443
441 458
441 462
441 469
441 486
441 489
442 405
442 410
442 415
442 423
442 427
442 437
442 440
442 463
442 474
442 475
442 478
442 488
443 409
443 411
443 422
443 426
443 434
443 441
443 452
443 458
443 462
443 469
443 487
443 489
444 398
444 448
444 457
444 466
444 471
445 400
445 402
445 416
445 420
445 427
445 431
445 437
445 456
445 464
445 472
445 478
445 480
445 500
446 401
446 413
446 419
446 432
446 436
446 439
446 447
446 451
446 461
446 467
446 473
446 477
446 485
447 401
447 408
447 413
447 419
447 432
447 439
447 446
447 449
447 451
447 467
447 473
447 477
447 479
447 503
448 399
448 429
448 444
448 450
448 466
449 408
449 424
449 428
449 432
449 447
449 451
449 465
449 470
449 477
449 479
449 492
450 429
450 435
450 448
450 460
450 466
450 482
450 484
450 507
451 408
451 419
451 424
451 432
451 446
451 447
451 449
451 465
451 473
451 477
451 479
451 503
452 404
452 425
452 426
452 436
452 439
452 443
452 461
452 462
452 487
452 493
452 499
453 418
453 421
453 430
453 435
453 438
453 454
453 459
453 476
453 481
453 483
453 496
453 508
454 421
454 430
454 435
454 453
454 460
454 476
454 481
454 482
454 512
455 414
455 418
455 428
455 433
455 438
455 459
455 465
455 470
455 483
455 491
455 498
455 505
456 420
456 431
456 445
456 464
456 480
456 490
456 500
457 412
457 444
457 468
457 471
457 494
457 495
458 411
458 434
458 440
458 441
458 443
458 469
458 474
458 475
458 486
458 489
458 497
458 506
459 414
459 418
459 421
459 433
459 438
459 453
459 455
459 470
459 476
459 483
459 491
459 496
459 505
460 429
460 435
460 450
460 454
460 481
460 482
460 484
460 504
461 425
461 436
461 439
461 446
461 452
461 467
461 473
461 485
461 499
461 514
462 422
462 425
462 426
462 441
462 443
462 452
462 469
462 487
462 489
462 493
462 499
463 410
463 423
463 437
463 440
463 442
463 472
463 474
463 475
463 478
463 488
463 497
463 510
463 516
464 416
464 427
464 431
464 445
464 456
464 472
464 478
464 480
464 490
464 500
465 424
465 428
465 433
465 449
465 451
465 455
465 470
465 479
465 492
465 498
466 444
466 448
466 450
466 471
466 494
466 513
466 517
467 413
467 419
467 436
467 439
467 446
467 447
467 461
467 473
467 477
467 485
467 503
467 509
467 514
468 417
468 457
468 471
468 495
468 501
468 502
469 422
469 434
469 441
469 443
469 458
469 462
469 486
469 487
469 489
469 506
469 511
470 428
470 433
470 449
470 455
470 459
470 465
470 483
470 491
470 492
470 498
470 505
470 518
471 444
471 457
471 466
471 468
471 494
471 495
471 513
472 427
472 437
472 445
472 463
472 464
472 478
472 480
472 500
472 515
473 419
473 432
473 439
473 446
473 447
473 451
473 461
473 467
473 477
473 485
473 503
473 509
473 521
474 423
474 440
474 442
474 458
474 463
474 475
474 478
474 488
474 497
474 510
474 516
474 519
475 434
475 440
475 442
475 458
475 463
475 474
475 486
475 488
475 497
475 506
475 516
475 519
476 421
476 430
476 438
476 453
476 454
476 459
476 481
476 483
476 491
476 496
476 505
476 508
476 512
477 432
477 446
477 447
477 449
477 451
477 467
477 473
477 479
477 503
477 509
477 521
477 525
478 427
478 437
478 442
478 445
478 463
478 464
478 472
478 474
478 488
478 510
478 515
478 516
479 424
479 432
479 447
479 449
479 451
479 465
479 477
479 492
479 498
479 503
479 520
480 431
480 445
480 456
480 464
480 472
480 490
480 500
480 522
481 430
481 435
481 453
481 454
481 460
481 476
481 482
481 484
481 496
481 504
481 508
481 512
481 529
482 435
482 450
482 454
482 460
482 481
482 484
482 504
482 507
482 512
483 433
483 438
483 453
483 455
483 459
483 470
483 476
483 491
483 496
483 498
483 505
483 508
483 518
483 534
484 429
484 450
484 460
484 481
484 482
484 504
484 507
484 536
485 439
485 446
485 461
485 467
485 473
485 499
485 503
485 509
485 514
485 521
485 530
485 535
486 434
486 441
486 458
486 469
486 475
486 487
486 489
486 497
486 506
486 511
486 532
486 538
487 443
487 452
487 462
487 469
487 486
487 489
487 493
487 499
487 511
487 523
488 440
488 442
488 463
488 474
488 475
488 478
488 497
488 510
488 516
488 519
488 528
489 441
489 443
489 458
489 462
489 469
489 486
489 487
489 493
489 506
489 511
489 523
490 456
490 464
490 480
490 500
490 522
490 540
491 433
491 438
491 455
491 459
491 470
491 476
491 483
491 496
491 498
491 505
491 518
491 524
491 531
491 534
492 449
492 465
492 470
492 479
492 498
492 518
492 520
492 524
493 452
493 462
493 487
493 489
493 499
493 511
493 523
493 526
494 457
494 466
494 471
494 495
494 513
494 517
495 457
495 468
495 471
495 494
495 501
495 502
496 453
496 459
496 476
496 481
496 483
496 491
496 505
496 508
496 512
496 534
496 537
497 458
497 463
497 474
497 475
497 486
497 488
497 506
497 516
497 519
497 528
497 532
498 455
498 465
498 470
498 479
498 483
498 491
498 492
498 505
498 518
498 520
498 524
498 531
499 452
499 461
499 462
499 485
499 487
499 493
499 514
499 523
499 526
499 530
500 445
500 456
500 464
500 472
500 480
500 490
500 515
500 522
500 527
500 540
500 546
501 468
501 495
501 502
501 533
502 468
502 495
502 501
502 533
503 447
503 451
503 467
503 473
503 477
503 479
503 485
503 509
503 520
503 521
503 525
503 535
503 542
503 544
504 460
504 481
504 482
504 484
504 507
504 512
504 529
504 536
504 541
505 455
505 459
505 470
505 476
505 483
505 491
505 496
505 498
505 508
505 518
505 531
505 534
505 537
506 458
506 469
506 475
506 486
506 489
506 497
506 511
506 519
506 528
506 532
506 538
507 450
507 482
507 484
507 504
507 517
507 536
507 541
507 555
508 453
508 476
508 481
508 483
508 496
508 505
508 512
508 529
508 534
508 537
508 551
508 557
509 467
509 473
509 477
509 485
509 503
509 514
509 521
509 525
509 530
509 535
509 542
510 463
510 474
510 478
510 488
510 515
510 516
510 519
510 527
510 539
510 545
511 469
511 486
511 487
511 489
511 493
511 506
511 523
511 532
511 538
511 543
511 547
512 454
512 476
512 481
512 482
512 496
512 504
512 508
512 529
512 537
512 541
512 551
513 466
513 471
513 494
513 517
513 549
514 461
514 467
514 485
514 499
514 509
514 521
514 526
514 530
514 535
514 564
515 472
515 478
515 500
515 510
515 516
515 522
515 527
515 539
515 545
515 563
516 463
516 474
516 475
516 478
516 488
516 497
516 510
516 515
516 519
516 528
516 539
516 545
516 553
516 559
517 466
517 494
517 507
517 513
517 536
517 549
517 558
518 470
518 483
518 491
518 492
518 498
518 505
518 520
518 524
518 531
518 534
518 550
518 552
518 556
518 567
519 474
519 475
519 488
519 497
519 506
519 510
519 516
519 528
519 532
519 545
519 553
519 559
520 479
520 492
520 498
520 503
520 518
520 524
520 525
520 544
520 548
520 550
520 568
521 473
521 477
521 485
521 503
521 509
521 514
521 525
521 530
521 535
521 542
521 544
522 480
522 490
522 500
522 515
522 527
522 540
522 546
522 562
522 569
523 487
523 489
523 493
523 499
523 511
523 526
523 538
523 543
523 547
523 554
524 491
524 492
524 498
524 518
524 520
524 531
524 548
524 550
524 552
524 567
525 477
525 503
525 509
525 520
525 521
525 535
525 542
525 544
525 548
525 575
526 493
526 499
526 514
526 523
526 530
526 547
526 554
526 561
526 564
527 500
527 510
527 515
527 522
527 539
527 546
527 563
527 569
527 581
528 488
528 497
528 506
528 516
528 519
528 532
528 538
528 553
528 559
528 574
528 578
529 481
529 504
529 508
529 512
529 537
529 541
529 551
529 557
529 565
529 577
530 485
530 499
530 509
530 514
530 521
530 526
530 535
530 554
530 561
530 564
530 573
531 491
531 498
531 505
531 518
531 524
531 534
531 550
531 552
531 556
531 567
532 486
532 497
532 506
532 511
532 519
532 528
532 538
532 543
532 553
532 566
532 574
532 578
533 501
533 502
534 483
534 491
534 496
534 505
534 508
534 518
534 531
534 537
534 552
534 556
534 557
534 567
534 571
535 485
535 503
535 509
535 514
535 521
535 525
535 530
535 542
535 561
535 564
535 573
535 576
536 484
536 504
536 507
536 517
536 541
536 549
536 555
536 558
536 565
536 570
536 580
537 496
537 505
537 508
537 512
537 529
537 534
537 551
537 556
537 557
537 571
537 577
538 486
538 506
538 511
538 523
538 528
538 532
538 543
538 547
538 566
538 574
538 587
539 510
539 515
539 516
539 527
539 545
539 559
539 563
539 581
539 585
540 490
540 500
540 522
540 546
540 562
540 569
540 579
540 590
541 504
541 507
541 512
541 529
541 536
541 551
541 555
541 565
541 570
541 577
541 580
542 503
542 509
542 521
542 525
542 535
542 544
542 564
542 573
542 575
542 576
542 592
543 511
543 523
543 532
543 538
543 547
543 554
543 566
543 574
543 583
543 587
544 503
544 520
544 521
544 525
544 542
544 548
544 568
544 575
544 576
544 592
545 510
545 515
545 516
545 519
545 539
545 553
545 559
545 563
545 578
545 585
545 588
546 500
546 522
546 527
546 540
546 562
546 563
546 569
546 579
546 581
546 590
547 511
547 523
547 526
547 538
547 543
547 554
547 561
547 566
547 583
547 587
548 520
548 524
548 525
548 544
548 550
548 552
548 568
548 575
548 586
548 597
549 513
549 517
549 536
549 555
549 558
549 570
549 572
549 582
549 584
550 518
550 520
550 524
550 531
550 548
550 552
550 567
550 568
550 586
550 589
551 508
551 512
551 529
551 537
551 541
551 557
551 565
551 571
551 577
551 595
551 596
552 518
552 524
552 531
552 534
552 548
552 550
552 556
552 567
552 586
552 589
552 591
553 516
553 519
553 528
553 532
553 545
553 559
553 574
553 578
553 588
553 607
554 523
554 526
554 530
554 543
554 547
554 561
554 564
554 583
554 600
555 507
555 536
555 541
555 549
555 558
555 565
555 570
555 572
555 580
555 582
555 599
555 601
556 518
556 531
556 534
556 537
556 552
556 557
556 567
556 571
556 589
556 591
556 593
557 508
557 529
557 534
557 537
557 551
557 556
557 571
557 577
557 591
557 593
557 595
557 608
558 517
558 536
558 549
558 555
558 570
558 572
558 582
558 601
558 603
559 516
559 519
559 528
559 539
559 545
559 553
559 574
559 578
559 585
559 588
559 607
559 614
560 584
560 609
561 526
561 530
561 535
561 547
561 554
561 564
561 573
561 583
561 594
561 600
561 606
562 522
562 540
562 546
562 569
562 579
562 590
562 598
562 605
563 515
563 527
563 539
563 545
563 546
563 569
563 579
563 581
563 585
563 598
563 602
563 612
563 618
564 514
564 526
564 530
564 535
564 542
564 554
564 561
564 573
564 576
564 594
564 600
564 606
565 529
565 536
565 541
565 551
565 555
565 570
565 577
565 580
565 595
565 596
565 599
565 601
566 532
566 538
566 543
566 547
566 574
566 583
566 587
566 616
567 518
567 524
567 531
567 534
567 550
567 552
567 556
567 586
567 589
567 591
567 620
568 520
568 544
568 548
568 550
568 575
568 586
568 592
568 597
569 522
569 527
569 540
569 546
569 562
569 563
569 579
569 581
569 590
569 598
569 605
569 612
569 622
570 536
570 541
570 549
570 555
570 558
570 565
570 572
570 580
570 582
570 599
570 601
570 603
571 534
571 537
571 551
571 556
571 557
571 577
571 591
571 593
571 595
571 608
571 619
572 549
572 555
572 558
572 570
572 582
572 584
572 601
572 603
572 610
573 530
573 535
573 542
573 561
573 564
573 575
573 576
573 592
573 594
573 606
573 617
574 528
574 532
574 538
574 543
574 553
574 559
574 566
574 578
574 587
574 615
574 616
575 525
575 542
575 544
575 548
575 568
575 573
575 576
575 592
575 597
575 617
575 621
576 535
576 542
576 544
576 564
576 573
576 575
576 592
576 594
576 597
576 617
576 621
577 529
577 537
577 541
577 551
577 557
577 565
577 571
577 580
577 595
577 596
577 599
577 608
578 528
578 532
578 545
578 553
578 559
578 574
578 585
578 588
578 607
578 614
578 615
578 627
579 540
579 546
579 562
579 563
579 569
579 581
579 590
579 598
579 605
579 612
579 622
580 536
580 541
580 555
580 565
580 570
580 577
580 582
580 596
580 599
580 601
581 527
581 539
581 546
581 563
581 569
581 579
581 585
581 598
581 602
581 612
581 618
581 622
581 635
582 549
582 555
582 558
582 570
582 572
582 580
582 601
582 603
582 610
582 633
583 543
583 547
583 554
583 561
583 566
583 587
583 600
583 611
583 629
583 630
584 549
584 560
584 572
584 603
584 609
584 610
584 613
585 539
585 545
585 559
585 563
585 578
585 581
585 588
585 602
585 607
585 612
585 614
585 618
585 624
585 632
586 548
586 550
586 552
586 567
586 568
586 589
586 597
586 620
586 623
586 626
587 538
587 543
587 547
587 566
587 574
587 583
587 611
587 616
587 630
588 545
588 553
588 559
588 578
588 585
588 602
588 607
588 614
588 615
588 624
588 627
588 632
589 550
589 552
589 556
589 567
589 586
589 591
589 620
589 625
589 626
590 540
590 546
590 562
590 569
590 579
590 598
590 605
590 622
590 639
591 552
591 556
591 557
591 567
591 571
591 589
591 593
591 608
591 619
591 620
591 625
592 542
592 544
592 568
592 573
592 575
592 576
592 594
592 597
592 617
592 621
592 623
593 556
593 557
593 571
593 591
593 595
593 608
593 619
593 625
593 631
594 561
594 564
594 573
594 576
594 592
594 600
594 606
594 617
594 643
595 551
595 557
595 565
595 571
595 577
595 593
595 596
595 599
595 608
595 619
595 631
595 634
596 551
596 565
596 577
596 580
596 595
596 599
596 608
596 631
596 634
596 637
597 548
597 568
597 575
597 576
597 586
597 592
597 617
597 621
597 623
597 626
598 562
598 563
598 569
598 579
598 581
598 590
598 602
598 605
598 612
598 618
598 622
598 635
598 639
599 555
599 565
599 570
599 577
599 580
599 595
599 596
599 601
599 634
599 636
599 637
600 554
600 561
600 564
600 583
600 594
600 606
600 611
600 629
600 638
601 555
601 558
601 565
601 570
601 572
601 580
601 582
601 599
601 603
601 633
601 636
601 637
602 563
602 581
602 585
602 588
602 598
602 612
602 614
602 618
602 624
602 632
602 635
602 644
603 558
603 570
603 572
603 582
603 584
603 601
603 610
603 633
603 636
603 642
604 613
604 628
604 640
605 562
605 569
605 579
605 590
605 598
605 612
605 622
605 639
606 561
606 564
606 573
606 594
606 600
606 617
606 638
606 643
607 553
607 559
607 578
607 585
607 588
607 614
607 615
607 624
607 627
607 632
608 557
608 571
608 577
608 591
608 593
608 595
608 596
608 619
608 625
608 631
608 634
609 560
609 584
609 610
609 613
609 628
609 640
609 642
610 572
610 582
610 584
610 603
610 609
610 633
610 642
611 583
611 587
611 600
611 629
611 630
611 638
612 563
612 569
612 579
612 581
612 585
612 598
612 602
612 605
612 618
612 622
612 624
612 635
612 639
612 644
613 584
613 604
613 609
613 628
613 640
614 559
614 578
614 585
614 588
614 602
614 607
614 615
614 618
614 624
614 627
614 632
614 644
615 574
615 578
615 588
615 607
615 614
615 616
615 627
615 632
615 641
616 566
616 574
616 587
616 615
616 630
616 641
617 573
617 575
617 576
617 592
617 594
617 597
617 606
617 621
617 643
618 563
618 581
618 585
618 598
618 602
618 612
618 614
618 622
618 624
618 632
618 635
618 644
619 571
619 591
619 593
619 595
619 608
619 620
619 625
619 631
620 567
620 586
620 589
620 591
620 619
620 625
620 626
621 575
621 576
621 592
621 597
621 617
621 623
622 569
622 579
622 581
622 590
622 598
622 605
622 612
622 618
622 635
622 639
622 644
623 586
623 592
623 597
623 621
623 626
624 585
624 588
624 602
624 607
624 612
624 614
624 618
624 627
624 632
624 635
624 644
625 589
625 591
625 593
625 608
625 619
625 620
625 626
626 586
626 589
626 597
626 620
626 623
626 625
627 578
627 588
627 607
627 614
627 615
627 624
627 632
627 641
628 604
628 609
628 613
628 640
628 642
629 583
629 600
629 611
629 630
629 638
630 583
630 587
630 611
630 616
630 629
630 641
631 593
631 595
631 596
631 608
631 619
631 634
632 585
632 588
632 602
632 607
632 614
632 615
632 618
632 624
632 627
632 644
633 582
633 601
633 603
633 610
633 636
633 642
634 595
634 596
634 599
634 608
634 631
634 637
635 581
635 598
635 602
635 612
635 618
635 622
635 624
635 639
635 644
636 599
636 601
636 603
636 633
636 637
637 596
637 599
637 601
637 634
637 636
638 600
638 606
638 611
638 629
638 643
639 590
639 598
639 605
639 612
639 622
639 635
640 604
640 609
640 613
640 628
641 615
641 616
641 627
641 630
642 603
642 609
642 610
642 628
642 633
643 594
643 606
643 617
643 638
644 602
644 612
644 614
644 618
644 622
644 624
644 632
644 635
