1 2
1 15
1 16
1 17
1 19
1 29
1 43
1 48
1 50
1 56
1 61
2 1
2 8
2 15
2 16
2 17
2 29
2 41
2 43
2 50
2 56
2 61
3 27
3 28
3 40
3 42
3 51
3 55
4 13
4 18
4 19
4 21
4 34
4 45
4 63
4 64
4 66
4 72
5 7
5 12
5 20
5 22
5 31
5 35
5 36
5 44
5 46
5 59
5 73
6 8
6 9
6 10
6 17
6 24
6 25
6 32
6 33
6 39
6 41
6 52
6 58
6 60
6 65
6 67
6 69
7 5
7 9
7 10
7 12
7 22
7 26
7 31
7 35
7 36
7 39
7 44
7 46
7 49
7 54
7 73
7 75
8 2
8 6
8 16
8 17
8 24
8 25
8 29
8 32
8 33
8 41
8 43
8 58
8 60
8 67
8 70
8 81
9 6
9 7
9 10
9 22
9 24
9 25
9 26
9 32
9 39
9 49
9 52
9 54
9 65
9 69
9 78
10 6
10 7
10 9
10 12
10 22
10 24
10 26
10 32
10 39
10 46
10 49
10 52
10 54
10 69
10 78
10 83
11 14
11 23
11 30
11 37
11 53
11 57
11 68
11 79
12 5
12 7
12 10
12 20
12 22
12 26
12 31
12 35
12 36
12 44
12 46
12 49
12 59
12 73
12 75
13 4
13 21
13 38
13 42
13 45
13 47
13 66
13 71
13 74
13 76
14 11
14 23
14 27
14 30
14 37
14 40
14 53
14 57
14 62
14 68
14 79
15 1
15 2
15 16
15 17
15 19
15 29
15 43
15 48
15 50
15 56
15 61
15 64
15 85
16 1
16 2
16 8
16 15
16 17
16 25
16 29
16 33
16 41
16 43
16 50
16 60
16 61
16 70
16 77
17 1
17 2
17 6
17 8
17 15
17 16
17 25
17 29
17 32
17 33
17 41
17 43
17 50
17 58
17 60
17 61
17 67
17 70
17 77
17 81
17 96
18 4
18 19
18 21
18 34
18 45
18 48
18 63
18 64
18 66
18 72
19 1
19 4
19 15
19 18
19 34
19 45
19 48
19 56
19 63
19 64
19 72
19 89
19 93
20 5
20 12
20 31
20 35
20 36
20 59
20 73
20 80
21 4
21 13
21 18
21 34
21 38
21 42
21 45
21 47
21 63
21 66
21 71
21 74
21 87
22 5
22 7
22 9
22 10
22 12
22 26
22 35
22 36
22 39
22 44
22 46
22 49
22 54
22 73
22 75
22 83
22 95
23 11
23 14
23 27
23 28
23 30
23 37
23 40
23 53
23 55
23 57
23 62
23 68
23 79
24 6
24 8
24 9
24 10
24 25
24 26
24 32
24 33
24 39
24 52
24 54
24 58
24 65
24 67
24 69
24 78
24 84
25 6
25 8
25 9
25 16
25 17
25 24
25 32
25 33
25 41
25 43
25 52
25 58
25 60
25 65
25 67
25 69
25 70
25 81
25 84
26 7
26 9
26 10
26 12
26 22
26 24
26 36
26 39
26 44
26 46
26 49
26 52
26 54
26 69
26 75
26 78
26 83
27 3
27 14
27 23
27 28
27 30
27 37
27 40
27 55
27 57
27 62
27 68
27 86
28 3
28 23
28 27
28 40
28 42
28 51
28 55
28 62
28 76
28 82
28 86
28 92
29 1
29 2
29 8
29 15
29 16
29 17
29 33
29 41
29 43
29 50
29 56
29 60
29 61
29 70
29 77
29 85
29 88
29 94
29 96
30 11
30 14
30 23
30 27
30 37
30 53
30 57
30 62
30 68
30 79
30 100
31 5
31 7
31 12
31 20
31 35
31 36
31 44
31 59
31 73
31 80
31 91
31 98
31 106
32 6
32 8
32 9
32 10
32 17
32 24
32 25
32 33
32 39
32 41
32 52
32 58
32 60
32 65
32 67
32 69
32 78
32 81
32 84
33 6
33 8
33 16
33 17
33 24
33 25
33 29
33 32
33 41
33 43
33 50
33 58
33 60
33 65
33 67
33 70
33 77
33 81
33 84
33 96
33 108
34 4
34 18
34 19
34 21
34 45
34 48
34 56
34 63
34 64
34 66
34 72
34 87
34 89
34 93
34 97
35 5
35 7
35 12
35 20
35 22
35 31
35 36
35 44
35 46
35 49
35 59
35 73
35 75
35 80
35 91
35 95
35 98
35 106
36 5
36 7
36 12
36 20
36 22
36 26
36 31
36 35
36 44
36 46
36 49
36 59
36 73
36 75
36 80
36 91
36 95
36 98
36 109
37 11
37 14
37 23
37 27
37 30
37 40
37 53
37 57
37 62
37 68
37 79
37 100
37 101
37 102
38 13
38 21
38 42
38 47
38 51
38 66
38 71
38 74
38 76
38 82
38 90
38 99
38 103
39 6
39 7
39 9
39 10
39 22
39 24
39 26
39 32
39 46
39 49
39 52
39 54
39 58
39 65
39 69
39 78
39 83
39 104
39 110
39 111
40 3
40 14
40 23
40 27
40 28
40 37
40 51
40 55
40 57
40 62
40 82
40 86
40 92
40 102
41 2
41 6
41 8
41 16
41 17
41 25
41 29
41 32
41 33
41 43
41 50
41 58
41 60
41 61
41 67
41 70
41 77
41 81
41 84
41 88
41 96
41 105
41 108
42 3
42 13
42 21
42 28
42 38
42 47
42 51
42 55
42 71
42 74
42 76
42 82
42 90
42 92
42 99
43 1
43 2
43 8
43 15
43 16
43 17
43 25
43 29
43 33
43 41
43 50
43 56
43 60
43 61
43 67
43 70
43 77
43 81
43 88
43 94
43 96
43 105
44 5
44 7
44 12
44 22
44 26
44 31
44 35
44 36
44 46
44 49
44 54
44 59
44 73
44 75
44 80
44 83
44 91
44 95
44 98
44 107
44 109
45 4
45 13
45 18
45 19
45 21
45 34
45 47
45 48
45 63
45 64
45 66
45 72
45 74
45 87
45 93
45 97
45 103
45 113
46 5
46 7
46 10
46 12
46 22
46 26
46 35
46 36
46 39
46 44
46 49
46 52
46 54
46 73
46 75
46 78
46 83
46 91
46 95
46 107
46 109
46 110
47 13
47 21
47 38
47 42
47 45
47 51
47 66
47 71
47 74
47 76
47 87
47 90
47 99
47 103
47 116
48 1
48 15
48 18
48 19
48 34
48 45
48 56
48 61
48 63
48 64
48 72
48 85
48 88
48 89
48 93
48 94
48 97
48 115
48 123
49 7
49 9
49 10
49 12
49 22
49 26
49 35
49 36
49 39
49 44
49 46
49 52
49 54
49 69
49 73
49 75
49 78
49 83
49 91
49 95
49 107
49 109
49 110
49 111
50 1
50 2
50 15
50 16
50 17
50 29
50 33
50 41
50 43
50 56
50 60
50 61
50 70
50 77
50 81
50 85
50 88
50 94
50 96
50 105
50 118
50 127
51 3
51 28
51 38
51 40
51 42
51 47
51 55
51 71
51 76
51 82
51 86
51 90
51 92
51 99
51 114
51 119
52 6
52 9
52 10
52 24
52 25
52 26
52 32
52 39
52 46
52 49
52 54
52 58
52 65
52 67
52 69
52 78
52 83
52 84
52 104
52 110
52 111
52 112
53 11
53 14
53 23
53 30
53 37
53 57
53 62
53 68
53 79
53 100
53 101
53 126
54 7
54 9
54 10
54 22
54 24
54 26
54 39
54 44
54 46
54 49
54 52
54 65
54 69
54 75
54 78
54 83
54 95
54 104
54 107
54 110
54 111
55 3
55 23
55 27
55 28
55 40
55 42
55 51
55 57
55 62
55 76
55 82
55 86
55 92
55 99
55 102
55 114
55 117
56 1
56 2
56 15
56 19
56 29
56 34
56 43
56 48
56 50
56 61
56 63
56 64
56 72
56 77
56 85
56 88
56 89
56 93
56 94
56 105
56 115
56 118
56 123
57 11
57 14
57 23
57 27
57 30
57 37
57 40
57 53
57 55
57 62
57 68
57 79
57 86
57 100
57 101
57 102
57 134
58 6
58 8
58 17
58 24
58 25
58 32
58 33
58 39
58 41
58 52
58 60
58 65
58 67
58 69
58 70
58 78
58 81
58 84
58 104
58 108
58 112
58 129
59 5
59 12
59 20
59 31
59 35
59 36
59 44
59 73
59 75
59 80
59 91
59 95
59 98
59 106
59 109
59 122
59 131
60 6
60 8
60 16
60 17
60 25
60 29
60 32
60 33
60 41
60 43
60 50
60 58
60 61
60 65
60 67
60 70
60 77
60 81
60 84
60 96
60 105
60 108
60 112
60 120
61 1
61 2
61 15
61 16
61 17
61 29
61 41
61 43
61 48
61 50
61 56
61 60
61 70
61 77
61 85
61 88
61 89
61 94
61 96
61 105
61 115
61 118
61 127
62 14
62 23
62 27
62 28
62 30
62 37
62 40
62 53
62 55
62 57
62 68
62 79
62 86
62 92
62 100
62 101
62 102
62 117
63 4
63 18
63 19
63 21
63 34
63 45
63 48
63 56
63 64
63 66
63 72
63 74
63 85
63 87
63 89
63 93
63 97
63 113
63 125
63 130
64 4
64 15
64 18
64 19
64 34
64 45
64 48
64 56
64 63
64 72
64 85
64 87
64 89
64 93
64 94
64 97
64 115
64 123
64 125
64 130
65 6
65 9
65 24
65 25
65 32
65 33
65 39
65 52
65 54
65 58
65 60
65 67
65 69
65 78
65 81
65 84
65 104
65 108
65 111
65 112
65 129
65 132
65 136
66 4
66 13
66 18
66 21
66 34
66 38
66 45
66 47
66 63
66 71
66 72
66 74
66 87
66 90
66 97
66 103
66 113
66 116
66 133
67 6
67 8
67 17
67 24
67 25
67 32
67 33
67 41
67 43
67 52
67 58
67 60
67 65
67 69
67 70
67 77
67 81
67 84
67 96
67 108
67 112
67 120
67 129
67 141
68 11
68 14
68 23
68 27
68 30
68 37
68 53
68 57
68 62
68 79
68 100
68 101
68 102
68 126
68 134
69 6
69 9
69 10
69 24
69 25
69 26
69 32
69 39
69 49
69 52
69 54
69 58
69 65
69 67
69 78
69 83
69 84
69 104
69 108
69 110
69 111
69 112
69 132
69 135
69 136
70 8
70 16
70 17
70 25
70 29
70 33
70 41
70 43
70 50
70 58
70 60
70 61
70 67
70 77
70 81
70 84
70 88
70 94
70 96
70 105
70 108
70 118
70 120
70 127
70 139
71 13
71 21
71 38
71 42
71 47
71 51
71 66
71 74
71 76
71 82
71 87
71 90
71 99
71 103
71 114
71 116
71 119
71 121
71 133
71 138
72 4
72 18
72 19
72 34
72 45
72 48
72 56
72 63
72 64
72 66
72 85
72 87
72 89
72 93
72 97
72 113
72 123
72 125
72 130
73 5
73 7
73 12
73 20
73 22
73 31
73 35
73 36
73 44
73 46
73 49
73 59
73 75
73 80
73 91
73 95
73 98
73 106
73 107
73 109
73 122
73 124
73 131
74 13
74 21
74 38
74 42
74 45
74 47
74 63
74 66
74 71
74 76
74 87
74 90
74 97
74 99
74 103
74 113
74 116
74 121
74 133
74 138
75 7
75 12
75 22
75 26
75 35
75 36
75 44
75 46
75 49
75 54
75 59
75 73
75 80
75 83
75 91
75 95
75 98
75 107
75 109
75 110
75 122
75 124
75 128
75 143
76 13
76 28
76 38
76 42
76 47
76 51
76 55
76 71
76 74
76 82
76 90
76 92
76 99
76 103
76 114
76 116
76 119
76 121
76 138
76 146
77 16
77 17
77 29
77 33
77 41
77 43
77 50
77 56
77 60
77 61
77 67
77 70
77 81
77 85
77 88
77 94
77 96
77 105
77 108
77 115
77 118
77 120
77 127
77 139
77 148
78 9
78 10
78 24
78 26
78 32
78 39
78 46
78 49
78 52
78 54
78 58
78 65
78 69
78 83
78 84
78 104
78 107
78 110
78 111
78 112
78 128
78 132
78 135
78 136
78 147
79 11
79 14
79 23
79 30
79 37
79 53
79 57
79 62
79 68
79 100
79 101
79 102
79 126
79 134
80 20
80 31
80 35
80 36
80 44
80 59
80 73
80 75
80 91
80 95
80 98
80 106
80 109
80 122
80 124
80 131
80 149
80 154
81 8
81 17
81 25
81 32
81 33
81 41
81 43
81 50
81 58
81 60
81 65
81 67
81 70
81 77
81 84
81 88
81 96
81 105
81 108
81 112
81 120
81 127
81 129
81 139
81 141
81 151
82 28
82 38
82 40
82 42
82 51
82 55
82 71
82 76
82 86
82 90
82 92
82 99
82 114
82 116
82 117
82 119
82 121
82 144
82 146
83 10
83 22
83 26
83 39
83 44
83 46
83 49
83 52
83 54
83 69
83 75
83 78
83 91
83 95
83 104
83 107
83 109
83 110
83 111
83 124
83 128
83 132
83 135
83 147
83 152
84 24
84 25
84 32
84 33
84 41
84 52
84 58
84 60
84 65
84 67
84 69
84 70
84 78
84 81
84 96
84 104
84 108
84 111
84 112
84 120
84 129
84 132
84 136
84 141
85 15
85 29
85 48
85 50
85 56
85 61
85 63
85 64
85 72
85 77
85 88
85 89
85 93
85 94
85 105
85 115
85 118
85 123
85 127
85 130
85 142
85 148
86 27
86 28
86 40
86 51
86 55
86 57
86 62
86 82
86 92
86 99
86 101
86 102
86 114
86 117
86 137
86 140
86 144
86 145
87 21
87 34
87 45
87 47
87 63
87 64
87 66
87 71
87 72
87 74
87 90
87 93
87 97
87 103
87 113
87 116
87 125
87 130
87 133
87 150
88 29
88 41
88 43
88 48
88 50
88 56
88 61
88 70
88 77
88 81
88 85
88 89
88 94
88 96
88 105
88 115
88 118
88 123
88 127
88 139
88 142
88 148
89 19
89 34
89 48
89 56
89 61
89 63
89 64
89 72
89 85
89 88
89 93
89 94
89 97
89 115
89 118
89 123
89 125
89 130
89 142
89 153
90 38
90 42
90 47
90 51
90 66
90 71
90 74
90 76
90 82
90 87
90 99
90 103
90 113
90 114
90 116
90 119
90 121
90 133
90 138
90 146
90 155
90 165
91 31
91 35
91 36
91 44
91 46
91 49
91 59
91 73
91 75
91 80
91 83
91 95
91 98
91 106
91 107
91 109
91 110
91 122
91 124
91 128
91 131
91 143
91 149
91 152
92 28
92 40
92 42
92 51
92 55
92 62
92 76
92 82
92 86
92 99
92 102
92 114
92 117
92 119
92 140
92 144
92 145
92 146
93 19
93 34
93 45
93 48
93 56
93 63
93 64
93 72
93 85
93 87
93 89
93 94
93 97
93 113
93 115
93 123
93 125
93 130
93 142
93 153
93 157
94 29
94 43
94 48
94 50
94 56
94 61
94 64
94 70
94 77
94 85
94 88
94 89
94 93
94 96
94 105
94 115
94 118
94 123
94 127
94 139
94 142
94 148
95 22
95 35
95 36
95 44
95 46
95 49
95 54
95 59
95 73
95 75
95 80
95 83
95 91
95 98
95 106
95 107
95 109
95 110
95 122
95 124
95 128
95 143
95 147
95 149
95 152
95 166
96 17
96 29
96 33
96 41
96 43
96 50
96 60
96 61
96 67
96 70
96 77
96 81
96 84
96 88
96 94
96 105
96 108
96 118
96 120
96 127
96 129
96 139
96 141
96 148
96 151
96 160
97 34
97 45
97 48
97 63
97 64
97 66
97 72
97 74
97 87
97 89
97 93
97 103
97 113
97 123
97 125
97 130
97 133
97 150
97 157
98 31
98 35
98 36
98 44
98 59
98 73
98 75
98 80
98 91
98 95
98 106
98 109
98 122
98 124
98 131
98 143
98 149
98 154
99 38
99 42
99 47
99 51
99 55
99 71
99 74
99 76
99 82
99 86
99 90
99 92
99 103
99 114
99 116
99 117
99 119
99 121
99 138
99 144
99 146
99 163
100 30
100 37
100 53
100 57
100 62
100 68
100 79
100 101
100 102
100 126
100 134
100 137
100 140
100 158
100 159
100 161
101 37
101 53
101 57
101 62
101 68
101 79
101 86
101 100
101 102
101 117
101 126
101 134
101 137
101 140
101 145
101 158
101 161
102 37
102 40
102 55
102 57
102 62
102 68
102 79
102 86
102 92
102 100
102 101
102 117
102 126
102 134
102 137
102 140
102 145
102 161
102 164
103 38
103 45
103 47
103 66
103 71
103 74
103 76
103 87
103 90
103 97
103 99
103 113
103 116
103 119
103 121
103 125
103 133
103 138
103 150
103 155
103 165
104 39
104 52
104 54
104 58
104 65
104 69
104 78
104 83
104 84
104 107
104 108
104 110
104 111
104 112
104 128
104 129
104 132
104 135
104 136
104 141
104 147
104 156
104 162
104 167
105 41
105 43
105 50
105 56
105 60
105 61
105 70
105 77
105 81
105 85
105 88
105 94
105 96
105 108
105 115
105 118
105 120
105 127
105 139
105 142
105 148
105 151
105 160
105 168
105 171
106 31
106 35
106 59
106 73
106 80
106 91
106 95
106 98
106 109
106 122
106 124
106 131
106 143
106 149
106 154
106 172
107 44
107 46
107 49
107 54
107 73
107 75
107 78
107 83
107 91
107 95
107 104
107 109
107 110
107 111
107 122
107 124
107 128
107 135
107 143
107 147
107 152
107 166
107 167
107 170
108 33
108 41
108 58
108 60
108 65
108 67
108 69
108 70
108 77
108 81
108 84
108 96
108 104
108 105
108 112
108 120
108 127
108 129
108 132
108 136
108 139
108 141
108 151
108 160
108 162
108 173
109 36
109 44
109 46
109 49
109 59
109 73
109 75
109 80
109 83
109 91
109 95
109 98
109 106
109 107
109 110
109 122
109 124
109 128
109 131
109 143
109 147
109 149
109 152
109 166
109 174
110 39
110 46
110 49
110 52
110 54
110 69
110 75
110 78
110 83
110 91
110 95
110 104
110 107
110 109
110 111
110 124
110 128
110 132
110 135
110 143
110 147
110 152
110 156
110 167
110 170
111 39
111 49
111 52
111 54
111 65
111 69
111 78
111 83
111 84
111 104
111 107
111 110
111 112
111 128
111 132
111 135
111 136
111 147
111 152
111 156
111 167
111 170
112 52
112 58
112 60
112 65
112 67
112 69
112 78
112 81
112 84
112 104
112 108
112 111
112 120
112 129
112 132
112 135
112 136
112 141
112 151
112 156
112 162
112 173
113 45
113 63
113 66
113 72
113 74
113 87
113 90
113 93
113 97
113 103
113 116
113 125
113 130
113 133
113 138
113 150
113 155
113 157
113 176
113 178
114 51
114 55
114 71
114 76
114 82
114 86
114 90
114 92
114 99
114 116
114 117
114 119
114 121
114 138
114 140
114 144
114 145
114 146
114 163
114 164
114 169
114 177
115 48
115 56
115 61
115 64
115 77
115 85
115 88
115 89
115 93
115 94
115 105
115 118
115 123
115 125
115 127
115 130
115 142
115 148
115 153
115 157
115 171
115 184
116 47
116 66
116 71
116 74
116 76
116 82
116 87
116 90
116 99
116 103
116 113
116 114
116 119
116 121
116 133
116 138
116 144
116 146
116 150
116 155
116 163
116 165
116 176
117 55
117 62
117 82
117 86
117 92
117 99
117 101
117 102
117 114
117 119
117 134
117 137
117 140
117 144
117 145
117 146
117 161
117 164
117 169
117 185
118 50
118 56
118 61
118 70
118 77
118 85
118 88
118 89
118 94
118 96
118 105
118 115
118 120
118 123
118 127
118 139
118 142
118 148
118 160
118 168
118 171
118 184
119 51
119 71
119 76
119 82
119 90
119 92
119 99
119 103
119 114
119 116
119 117
119 121
119 133
119 138
119 144
119 145
119 146
119 163
119 165
119 169
119 177
119 189
119 194
120 60
120 67
120 70
120 77
120 81
120 84
120 96
120 105
120 108
120 112
120 118
120 127
120 129
120 136
120 139
120 141
120 148
120 151
120 160
120 162
120 168
120 173
120 181
120 187
120 191
121 71
121 74
121 76
121 82
121 90
121 99
121 103
121 114
121 116
121 119
121 133
121 138
121 144
121 146
121 155
121 163
121 165
121 169
121 177
121 189
121 193
121 194
122 59
122 73
122 75
122 80
122 91
122 95
122 98
122 106
122 107
122 109
122 124
122 128
122 131
122 143
122 149
122 152
122 154
122 166
122 172
122 174
122 186
123 48
123 56
123 64
123 72
123 85
123 88
123 89
123 93
123 94
123 97
123 115
123 118
123 125
123 130
123 142
123 148
123 150
123 153
123 157
123 179
123 184
123 188
124 73
124 75
124 80
124 83
124 91
124 95
124 98
124 106
124 107
124 109
124 110
124 122
124 128
124 131
124 143
124 147
124 149
124 152
124 154
124 166
124 170
124 174
124 175
124 182
124 186
125 63
125 64
125 72
125 87
125 89
125 93
125 97
125 103
125 113
125 115
125 123
125 130
125 133
125 150
125 153
125 155
125 157
125 178
125 179
125 188
125 201
126 53
126 68
126 79
126 100
126 101
126 102
126 134
126 137
126 140
126 158
126 159
126 161
126 192
126 195
126 196
127 50
127 61
127 70
127 77
127 81
127 85
127 88
127 94
127 96
127 105
127 108
127 115
127 118
127 120
127 139
127 141
127 142
127 148
127 151
127 160
127 168
127 171
127 181
127 187
127 199
128 75
128 78
128 83
128 91
128 95
128 104
128 107
128 109
128 110
128 111
128 122
128 124
128 132
128 135
128 143
128 147
128 149
128 152
128 166
128 167
128 170
128 174
128 175
128 182
129 58
129 65
129 67
129 81
129 84
129 96
129 104
129 108
129 112
129 120
129 132
129 136
129 139
129 141
129 151
129 156
129 160
129 162
129 173
129 180
129 181
129 191
129 197
130 63
130 64
130 72
130 85
130 87
130 89
130 93
130 97
130 113
130 115
130 123
130 125
130 142
130 150
130 153
130 157
130 179
130 188
131 59
131 73
131 80
131 91
131 98
131 106
131 109
131 122
131 124
131 143
131 149
131 154
131 166
131 172
131 174
131 186
131 200
132 65
132 69
132 78
132 83
132 84
132 104
132 108
132 110
132 111
132 112
132 128
132 129
132 135
132 136
132 141
132 147
132 156
132 162
132 167
132 170
132 173
132 180
132 183
132 190
132 197
133 66
133 71
133 74
133 87
133 90
133 97
133 103
133 113
133 116
133 119
133 121
133 125
133 138
133 146
133 150
133 155
133 163
133 165
133 176
133 178
133 193
134 57
134 68
134 79
134 100
134 101
134 102
134 117
134 126
134 137
134 140
134 145
134 158
134 159
134 161
134 164
134 195
134 196
135 69
135 78
135 83
135 104
135 107
135 110
135 111
135 112
135 128
135 132
135 136
135 147
135 152
135 156
135 162
135 167
135 170
135 180
135 182
135 183
135 190
136 65
136 69
136 78
136 84
136 104
136 108
136 111
136 112
136 120
136 129
136 132
136 135
136 141
136 151
136 156
136 162
136 167
136 173
136 180
136 183
136 191
136 197
137 86
137 100
137 101
137 102
137 117
137 126
137 134
137 140
137 145
137 158
137 159
137 161
137 164
137 185
137 195
137 196
138 71
138 74
138 76
138 90
138 99
138 103
138 113
138 114
138 116
138 119
138 121
138 133
138 144
138 146
138 155
138 163
138 165
138 169
138 176
138 177
138 189
138 193
138 194
139 70
139 77
139 81
139 88
139 94
139 96
139 105
139 108
139 118
139 120
139 127
139 129
139 141
139 142
139 148
139 151
139 160
139 168
139 171
139 173
139 181
139 187
139 191
139 199
140 86
140 92
140 100
140 101
140 102
140 114
140 117
140 126
140 134
140 137
140 144
140 145
140 158
140 161
140 164
140 169
140 185
140 195
140 198
141 67
141 81
141 84
141 96
141 104
141 108
141 112
141 120
141 127
141 129
141 132
141 136
141 139
141 151
141 156
141 160
141 162
141 168
141 173
141 180
141 181
141 187
141 191
141 197
142 85
142 88
142 89
142 93
142 94
142 105
142 115
142 118
142 123
142 127
142 130
142 139
142 148
142 153
142 157
142 160
142 168
142 171
142 179
142 184
142 199
142 207
143 75
143 91
143 95
143 98
143 106
143 107
143 109
143 110
143 122
143 124
143 128
143 131
143 147
143 149
143 152
143 154
143 166
143 170
143 172
143 174
143 175
143 182
143 186
143 204
143 205
143 208
144 82
144 86
144 92
144 99
144 114
144 116
144 117
144 119
144 121
144 138
144 140
144 145
144 146
144 163
144 164
144 165
144 169
144 177
144 185
144 189
144 194
144 198
144 202
145 86
145 92
145 101
145 102
145 114
145 117
145 119
145 134
145 137
145 140
145 144
145 146
145 161
145 164
145 169
145 177
145 185
145 195
145 198
145 202
146 76
146 82
146 90
146 92
146 99
146 114
146 116
146 117
146 119
146 121
146 133
146 138
146 144
146 145
146 155
146 163
146 164
146 165
146 169
146 177
146 189
146 193
146 194
146 202
146 213
147 78
147 83
147 95
147 104
147 107
147 109
147 110
147 111
147 124
147 128
147 132
147 135
147 143
147 152
147 156
147 166
147 167
147 170
147 175
147 182
147 183
147 190
147 205
147 209
148 77
148 85
148 88
148 94
148 96
148 105
148 115
148 118
148 120
148 123
148 127
148 139
148 142
148 151
148 153
148 160
148 168
148 171
148 181
148 184
148 187
148 199
148 207
148 211
149 80
149 91
149 95
149 98
149 106
149 109
149 122
149 124
149 128
149 131
149 143
149 152
149 154
149 166
149 172
149 174
149 175
149 186
149 200
149 204
149 208
150 87
150 97
150 103
150 113
150 116
150 123
150 125
150 130
150 133
150 153
150 155
150 157
150 165
150 176
150 178
150 179
150 188
150 201
151 81
151 96
151 105
151 108
151 112
151 120
151 127
151 129
151 136
151 139
151 141
151 148
151 160
151 162
151 168
151 171
151 173
151 180
151 181
151 187
151 191
151 197
151 199
151 214
152 83
152 91
152 95
152 107
152 109
152 110
152 111
152 122
152 124
152 128
152 135
152 143
152 147
152 149
152 166
152 167
152 170
152 174
152 175
152 182
152 186
152 190
152 204
152 205
152 209
153 89
153 93
153 115
153 123
153 125
153 130
153 142
153 148
153 150
153 157
153 171
153 179
153 184
153 188
153 201
153 203
153 219
154 80
154 98
154 106
154 122
154 124
154 131
154 143
154 149
154 166
154 172
154 174
154 186
154 200
154 208
154 217
155 90
155 103
155 113
155 116
155 121
155 125
155 133
155 138
155 146
155 150
155 163
155 165
155 176
155 178
155 193
155 194
155 201
155 216
155 233
156 104
156 110
156 111
156 112
156 129
156 132
156 135
156 136
156 141
156 147
156 162
156 167
156 170
156 173
156 180
156 182
156 183
156 190
156 191
156 197
156 206
156 210
156 212
157 93
157 97
157 113
157 115
157 123
157 125
157 130
157 142
157 150
157 153
157 178
157 179
157 184
157 188
157 201
157 203
157 219
158 100
158 101
158 126
158 134
158 137
158 140
158 159
158 161
158 192
158 195
158 196
158 215
158 222
158 225
158 226
159 100
159 126
159 134
159 137
159 158
159 161
159 192
159 195
159 196
159 222
159 226
160 96
160 105
160 108
160 118
160 120
160 127
160 129
160 139
160 141
160 142
160 148
160 151
160 162
160 168
160 171
160 173
160 181
160 184
160 187
160 191
160 199
160 211
160 214
160 223
160 232
161 100
161 101
161 102
161 117
161 126
161 134
161 137
161 140
161 145
161 158
161 159
161 164
161 169
161 185
161 192
161 195
161 196
161 198
161 215
161 221
161 225
161 226
162 104
162 108
162 112
162 120
162 129
162 132
162 135
162 136
162 141
162 151
162 156
162 160
162 167
162 173
162 180
162 181
162 183
162 190
162 191
162 197
162 206
162 210
162 229
162 239
162 240
163 99
163 114
163 116
163 119
163 121
163 133
163 138
163 144
163 146
163 155
163 165
163 169
163 176
163 177
163 189
163 193
163 194
163 202
163 213
163 216
163 228
163 230
164 102
164 114
164 117
164 134
164 137
164 140
164 144
164 145
164 146
164 161
164 169
164 177
164 185
164 189
164 195
164 198
164 202
164 215
164 218
164 221
164 224
165 90
165 103
165 116
165 119
165 121
165 133
165 138
165 144
165 146
165 150
165 155
165 163
165 176
165 177
165 178
165 189
165 193
165 194
165 213
165 216
165 228
165 230
166 95
166 107
166 109
166 122
166 124
166 128
166 131
166 143
166 147
166 149
166 152
166 154
166 170
166 172
166 174
166 175
166 182
166 186
166 204
166 205
166 208
166 209
166 220
166 227
166 231
167 104
167 107
167 110
167 111
167 128
167 132
167 135
167 136
167 147
167 152
167 156
167 162
167 170
167 175
167 180
167 182
167 183
167 190
167 197
167 205
167 206
167 209
167 210
167 212
167 234
167 243
168 105
168 118
168 120
168 127
168 139
168 141
168 142
168 148
168 151
168 160
168 171
168 173
168 181
168 184
168 187
168 191
168 199
168 207
168 211
168 214
168 223
168 237
169 114
169 117
169 119
169 121
169 138
169 140
169 144
169 145
169 146
169 161
169 163
169 164
169 177
169 185
169 189
169 194
169 198
169 202
169 213
169 218
169 221
169 224
170 107
170 110
170 111
170 124
170 128
170 132
170 135
170 143
170 147
170 152
170 156
170 166
170 167
170 174
170 175
170 182
170 183
170 190
170 204
170 205
170 209
170 212
170 220
170 231
170 234
170 242
171 105
171 115
171 118
171 127
171 139
171 142
171 148
171 151
171 153
171 160
171 168
171 181
171 184
171 187
171 199
171 207
171 211
171 214
171 223
171 237
171 238
171 241
172 106
172 122
172 131
172 143
172 149
172 154
172 166
172 174
172 186
172 200
172 204
172 208
172 217
172 227
172 246
173 108
173 112
173 120
173 129
173 132
173 136
173 139
173 141
173 151
173 156
173 160
173 162
173 168
173 180
173 181
173 183
173 187
173 191
173 197
173 206
173 210
173 214
173 229
173 232
173 239
173 240
174 109
174 122
174 124
174 128
174 131
174 143
174 149
174 152
174 154
174 166
174 170
174 172
174 175
174 182
174 186
174 200
174 204
174 205
174 208
174 217
174 220
174 227
174 231
174 248
175 124
175 128
175 143
175 147
175 149
175 152
175 166
175 167
175 170
175 174
175 182
175 186
175 190
175 204
175 205
175 208
175 209
175 212
175 220
175 227
175 231
175 234
175 242
175 248
175 255
176 113
176 116
176 133
176 138
176 150
176 155
176 163
176 165
176 178
176 189
176 193
176 194
176 201
176 216
176 228
176 230
176 233
177 114
177 119
177 121
177 138
177 144
177 145
177 146
177 163
177 164
177 165
177 169
177 185
177 189
177 193
177 194
177 198
177 202
177 213
177 218
177 224
177 228
177 245
177 249
178 113
178 125
178 133
178 150
178 155
178 157
178 165
178 176
178 179
178 188
178 193
178 201
178 216
178 219
178 230
178 233
178 244
178 261
179 123
179 125
179 130
179 142
179 150
179 153
179 157
179 178
179 184
179 188
179 201
179 203
179 207
179 219
179 235
179 238
179 244
179 250
180 129
180 132
180 135
180 136
180 141
180 151
180 156
180 162
180 167
180 173
180 181
180 183
180 190
180 191
180 197
180 206
180 210
180 212
180 229
180 234
180 236
180 239
180 240
180 243
180 260
181 120
181 127
181 129
181 139
181 141
181 148
181 151
181 160
181 162
181 168
181 171
181 173
181 180
181 187
181 191
181 197
181 199
181 206
181 211
181 214
181 223
181 229
181 232
181 239
181 247
181 257
182 124
182 128
182 135
182 143
182 147
182 152
182 156
182 166
182 167
182 170
182 174
182 175
182 183
182 186
182 190
182 204
182 205
182 208
182 209
182 212
182 220
182 227
182 231
182 234
182 242
182 243
182 248
182 255
183 132
183 135
183 136
183 147
183 156
183 162
183 167
183 170
183 173
183 180
183 182
183 190
183 191
183 197
183 206
183 209
183 210
183 212
183 234
183 236
183 239
183 240
183 243
183 260
184 115
184 118
184 123
184 142
184 148
184 153
184 157
184 160
184 168
184 171
184 179
184 187
184 188
184 199
184 203
184 207
184 211
184 219
184 223
184 235
184 237
184 238
184 241
185 117
185 137
185 140
185 144
185 145
185 161
185 164
185 169
185 177
185 189
185 195
185 196
185 198
185 202
185 213
185 215
185 218
185 221
185 224
185 225
185 249
185 251
185 252
186 122
186 124
186 131
186 143
186 149
186 152
186 154
186 166
186 172
186 174
186 175
186 182
186 200
186 204
186 205
186 208
186 217
186 220
186 227
186 231
186 246
186 248
186 266
187 120
187 127
187 139
187 141
187 148
187 151
187 160
187 168
187 171
187 173
187 181
187 184
187 191
187 199
187 207
187 211
187 214
187 223
187 229
187 232
187 237
187 241
187 247
187 258
188 123
188 125
188 130
188 150
188 153
188 157
188 178
188 179
188 184
188 201
188 203
188 219
188 233
188 235
188 244
188 250
189 119
189 121
189 138
189 144
189 146
189 163
189 164
189 165
189 169
189 176
189 177
189 185
189 193
189 194
189 198
189 202
189 213
189 216
189 218
189 224
189 228
189 230
189 245
189 249
189 254
190 132
190 135
190 147
190 152
190 156
190 162
190 167
190 170
190 175
190 180
190 182
190 183
190 197
190 205
190 206
190 209
190 210
190 212
190 231
190 234
190 236
190 240
190 242
190 243
190 260
190 263
191 120
191 129
191 136
191 139
191 141
191 151
191 156
191 160
191 162
191 168
191 173
191 180
191 181
191 183
191 187
191 197
191 199
191 206
191 210
191 214
191 223
191 229
191 232
191 236
191 239
191 240
191 247
191 257
191 270
192 126
192 158
192 159
192 161
192 195
192 196
192 215
192 222
192 225
192 226
192 259
193 121
193 133
193 138
193 146
193 155
193 163
193 165
193 176
193 177
193 178
193 189
193 194
193 202
193 213
193 216
193 218
193 228
193 230
193 233
193 245
193 254
193 262
194 119
194 121
194 138
194 144
194 146
194 155
194 163
194 165
194 169
194 176
194 177
194 189
194 193
194 202
194 213
194 216
194 218
194 228
194 230
194 245
194 249
194 254
195 126
195 134
195 137
195 140
195 145
195 158
195 159
195 161
195 164
195 185
195 192
195 196
195 198
195 215
195 221
195 222
195 224
195 225
195 226
195 251
195 252
195 253
195 259
195 268
196 126
196 134
196 137
196 158
196 159
196 161
196 185
196 192
196 195
196 215
196 221
196 222
196 225
196 226
196 251
196 253
196 259
196 268
197 129
197 132
197 136
197 141
197 151
197 156
197 162
197 167
197 173
197 180
197 181
197 183
197 190
197 191
197 206
197 210
197 212
197 214
197 229
197 232
197 236
197 239
197 240
197 243
197 257
197 260
197 270
198 140
198 144
198 145
198 161
198 164
198 169
198 177
198 185
198 189
198 195
198 202
198 213
198 215
198 218
198 221
198 224
198 245
198 249
198 251
198 252
199 127
199 139
199 142
199 148
199 151
199 160
199 168
199 171
199 181
199 184
199 187
199 191
199 207
199 211
199 214
199 223
199 229
199 232
199 237
199 238
199 241
199 247
199 258
199 264
200 131
200 149
200 154
200 172
200 174
200 186
200 204
200 208
200 217
200 220
200 227
200 246
200 256
200 265
201 125
201 150
201 153
201 155
201 157
201 176
201 178
201 179
201 188
201 203
201 216
201 219
201 233
201 235
201 244
201 250
201 261
202 144
202 145
202 146
202 163
202 164
202 169
202 177
202 185
202 189
202 193
202 194
202 198
202 213
202 218
202 221
202 224
202 228
202 245
202 249
202 252
202 272
202 274
203 153
203 157
203 179
203 184
203 188
203 201
203 207
203 211
203 219
203 235
203 238
203 241
203 244
203 250
203 267
203 275
203 276
204 143
204 149
204 152
204 166
204 170
204 172
204 174
204 175
204 182
204 186
204 200
204 205
204 208
204 209
204 217
204 220
204 227
204 231
204 242
204 246
204 248
204 255
204 265
204 266
204 269
205 143
205 147
205 152
205 166
205 167
205 170
205 174
205 175
205 182
205 186
205 190
205 204
205 208
205 209
205 212
205 220
205 227
205 231
205 234
205 242
205 243
205 248
205 255
205 263
205 266
205 269
205 271
206 156
206 162
206 167
206 173
206 180
206 181
206 183
206 190
206 191
206 197
206 210
206 212
206 229
206 232
206 234
206 236
206 239
206 240
206 243
206 257
206 260
206 263
206 270
206 278
206 283
207 142
207 148
207 168
207 171
207 179
207 184
207 187
207 199
207 203
207 211
207 214
207 223
207 235
207 237
207 238
207 241
207 247
207 258
207 264
207 267
207 273
207 275
208 143
208 149
208 154
208 166
208 172
208 174
208 175
208 182
208 186
208 200
208 204
208 205
208 217
208 220
208 227
208 231
208 246
208 248
208 255
208 256
208 265
208 266
208 269
208 286
208 294
209 147
209 152
209 166
209 167
209 170
209 175
209 182
209 183
209 190
209 204
209 205
209 210
209 212
209 220
209 227
209 231
209 234
209 236
209 242
209 243
209 248
209 255
209 263
209 269
209 271
209 290
210 156
210 162
210 167
210 173
210 180
210 183
210 190
210 191
210 197
210 206
210 209
210 212
210 229
210 234
210 236
210 239
210 240
210 242
210 243
210 260
210 263
210 270
210 278
210 283
211 148
211 160
211 168
211 171
211 181
211 184
211 187
211 199
211 203
211 207
211 214
211 223
211 232
211 235
211 237
211 238
211 241
211 247
211 258
211 264
211 273
211 275
211 277
212 156
212 167
212 170
212 175
212 180
212 182
212 183
212 190
212 197
212 205
212 206
212 209
212 210
212 231
212 234
212 236
212 239
212 240
212 242
212 243
212 255
212 260
212 263
212 271
212 283
212 290
212 295
213 146
213 163
213 165
213 169
213 177
213 185
213 189
213 193
213 194
213 198
213 202
213 216
213 218
213 224
213 228
213 230
213 245
213 249
213 254
213 272
213 274
213 288
214 151
214 160
214 168
214 171
214 173
214 181
214 187
214 191
214 197
214 199
214 207
214 211
214 223
214 229
214 232
214 237
214 239
214 241
214 247
214 257
214 258
214 264
214 270
214 277
214 279
215 158
215 161
215 164
215 185
215 192
215 195
215 196
215 198
215 218
215 221
215 222
215 224
215 225
215 226
215 251
215 252
215 253
215 259
215 268
215 280
215 281
216 155
216 163
216 165
216 176
216 178
216 189
216 193
216 194
216 201
216 213
216 228
216 230
216 233
216 244
216 245
216 254
216 261
216 262
216 288
216 296
216 297
217 154
217 172
217 174
217 186
217 200
217 204
217 208
217 220
217 227
217 246
217 248
217 256
217 265
217 266
217 285
217 286
217 294
218 164
218 169
218 177
218 185
218 189
218 193
218 194
218 198
218 202
218 213
218 215
218 221
218 224
218 228
218 245
218 249
218 251
218 252
218 254
218 272
218 274
218 281
218 298
219 153
219 157
219 178
219 179
219 184
219 188
219 201
219 203
219 233
219 235
219 238
219 244
219 250
219 261
219 267
219 276
219 284
219 292
219 299
220 166
220 170
220 174
220 175
220 182
220 186
220 200
220 204
220 205
220 208
220 209
220 217
220 227
220 231
220 234
220 242
220 246
220 248
220 255
220 265
220 266
220 269
220 271
220 287
220 293
220 294
221 161
221 164
221 169
221 185
221 195
221 196
221 198
221 202
221 215
221 218
221 224
221 225
221 226
221 249
221 251
221 252
221 253
221 268
221 274
221 280
221 281
221 300
222 158
222 159
222 192
222 195
222 196
222 215
222 225
222 226
222 251
222 253
222 259
222 268
222 280
222 282
222 289
222 302
223 160
223 168
223 171
223 181
223 184
223 187
223 191
223 199
223 207
223 211
223 214
223 229
223 232
223 237
223 238
223 241
223 247
223 257
223 258
223 264
223 273
223 275
223 277
223 279
223 303
224 164
224 169
224 177
224 185
224 189
224 195
224 198
224 202
224 213
224 215
224 218
224 221
224 225
224 245
224 249
224 251
224 252
224 253
224 272
224 274
224 281
224 298
224 300
225 158
225 161
225 185
225 192
225 195
225 196
225 215
225 221
225 222
225 224
225 226
225 251
225 252
225 253
225 259
225 268
225 280
225 281
225 282
225 289
225 302
226 158
226 159
226 161
226 192
226 195
226 196
226 215
226 221
226 222
226 225
226 251
226 253
226 259
226 268
226 280
226 282
226 289
226 302
227 166
227 172
227 174
227 175
227 182
227 186
227 200
227 204
227 205
227 208
227 209
227 217
227 220
227 231
227 242
227 246
227 248
227 255
227 256
227 265
227 266
227 269
227 285
227 286
227 287
227 293
227 294
228 163
228 165
228 176
228 177
228 189
228 193
228 194
228 202
228 213
228 216
228 218
228 230
228 233
228 245
228 249
228 254
228 262
228 272
228 274
228 288
228 297
229 162
229 173
229 180
229 181
229 187
229 191
229 197
229 199
229 206
229 210
229 214
229 223
229 232
229 236
229 239
229 240
229 247
229 257
229 258
229 260
229 270
229 277
229 278
229 279
229 291
230 163
230 165
230 176
230 178
230 189
230 193
230 194
230 213
230 216
230 228
230 233
230 245
230 254
230 261
230 262
230 272
230 288
230 297
230 306
231 166
231 170
231 174
231 175
231 182
231 186
231 190
231 204
231 205
231 208
231 209
231 212
231 220
231 227
231 234
231 242
231 243
231 248
231 255
231 263
231 266
231 269
231 271
231 287
231 290
231 293
231 304
232 160
232 173
232 181
232 187
232 191
232 197
232 199
232 206
232 211
232 214
232 223
232 229
232 237
232 239
232 240
232 247
232 257
232 258
232 264
232 270
232 277
232 278
232 279
232 291
233 155
233 176
233 178
233 188
233 193
233 201
233 216
233 219
233 228
233 230
233 244
233 250
233 254
233 261
233 262
233 276
233 284
233 292
233 296
233 297
233 306
234 167
234 170
234 175
234 180
234 182
234 183
234 190
234 205
234 206
234 209
234 210
234 212
234 220
234 231
234 236
234 240
234 242
234 243
234 248
234 255
234 260
234 263
234 271
234 278
234 283
234 290
234 295
235 179
235 184
235 188
235 201
235 203
235 207
235 211
235 219
235 237
235 238
235 241
235 244
235 250
235 267
235 273
235 275
235 276
235 284
235 292
235 299
235 307
236 180
236 183
236 190
236 191
236 197
236 206
236 209
236 210
236 212
236 229
236 234
236 239
236 240
236 242
236 243
236 257
236 260
236 263
236 270
236 271
236 278
236 283
236 295
236 301
237 168
237 171
237 184
237 187
237 199
237 207
237 211
237 214
237 223
237 232
237 235
237 238
237 241
237 247
237 258
237 264
237 273
237 275
237 277
237 279
237 303
237 305
237 319
238 171
238 179
238 184
238 199
238 203
238 207
238 211
238 219
238 223
238 235
238 237
238 241
238 250
238 258
238 264
238 267
238 273
238 275
238 276
238 305
238 307
239 162
239 173
239 180
239 181
239 183
239 191
239 197
239 206
239 210
239 212
239 214
239 229
239 232
239 236
239 240
239 243
239 247
239 257
239 260
239 270
239 278
239 279
239 283
239 291
239 301
239 318
240 162
240 173
240 180
240 183
240 190
240 191
240 197
240 206
240 210
240 212
240 229
240 232
240 234
240 236
240 239
240 243
240 257
240 260
240 263
240 270
240 278
240 279
240 283
240 291
240 295
240 301
240 318
241 171
241 184
241 187
241 199
241 203
241 207
241 211
241 214
241 223
241 235
241 237
241 238
241 247
241 258
241 264
241 267
241 273
241 275
241 277
241 303
241 305
241 307
241 319
242 170
242 175
242 182
242 190
242 204
242 205
242 209
242 210
242 212
242 220
242 227
242 231
242 234
242 236
242 243
242 248
242 255
242 260
242 263
242 266
242 269
242 271
242 283
242 287
242 290
242 293
242 295
242 304
242 317
243 167
243 180
243 182
243 183
243 190
243 197
243 205
243 206
243 209
243 210
243 212
243 231
243 234
243 236
243 239
243 240
243 242
243 255
243 260
243 263
243 270
243 271
243 278
243 283
243 290
243 295
243 301
243 317
243 323
244 178
244 179
244 188
244 201
244 203
244 216
244 219
244 233
244 235
244 250
244 261
244 262
244 267
244 276
244 284
244 292
244 296
244 299
244 322
245 177
245 189
245 193
245 194
245 198
245 202
245 213
245 216
245 218
245 224
245 228
245 230
245 249
245 252
245 254
245 262
245 272
245 274
245 288
245 297
245 298
245 308
245 320
245 321
246 172
246 186
246 200
246 204
246 208
246 217
246 220
246 227
246 248
246 256
246 265
246 266
246 269
246 285
246 286
246 287
246 294
246 313
246 314
247 181
247 187
247 191
247 199
247 207
247 211
247 214
247 223
247 229
247 232
247 237
247 239
247 241
247 257
247 258
247 264
247 270
247 273
247 277
247 279
247 291
247 303
247 311
247 315
248 174
248 175
248 182
248 186
248 204
248 205
248 208
248 209
248 217
248 220
248 227
248 231
248 234
248 242
248 246
248 255
248 256
248 265
248 266
248 269
248 271
248 286
248 287
248 290
248 293
248 294
248 304
248 312
248 314
249 177
249 185
249 189
249 194
249 198
249 202
249 213
249 218
249 221
249 224
249 228
249 245
249 251
249 252
249 254
249 272
249 274
249 281
249 288
249 298
249 300
249 308
249 330
250 179
250 188
250 201
250 203
250 219
250 233
250 235
250 238
250 244
250 261
250 267
250 275
250 276
250 284
250 292
250 296
250 299
250 307
250 322
250 326
250 327
251 185
251 195
251 196
251 198
251 215
251 218
251 221
251 222
251 224
251 225
251 226
251 249
251 252
251 253
251 259
251 268
251 274
251 280
251 281
251 289
251 298
251 300
251 302
251 309
251 310
251 333
252 185
252 195
252 198
252 202
252 215
252 218
252 221
252 224
252 225
252 245
252 249
252 251
252 253
252 268
252 272
252 274
252 280
252 281
252 298
252 300
252 308
252 309
252 310
253 195
253 196
253 215
253 221
253 222
253 224
253 225
253 226
253 251
253 252
253 259
253 268
253 280
253 281
253 282
253 289
253 300
253 302
253 309
253 310
254 189
254 193
254 194
254 213
254 216
254 218
254 228
254 230
254 233
254 245
254 249
254 261
254 262
254 272
254 274
254 288
254 297
254 306
254 308
254 320
254 321
255 175
255 182
255 204
255 205
255 208
255 209
255 212
255 220
255 227
255 231
255 234
255 242
255 243
255 248
255 263
255 266
255 269
255 271
255 287
255 290
255 293
255 294
255 295
255 304
255 312
255 314
255 317
255 324
255 328
256 200
256 208
256 217
256 227
256 246
256 248
256 265
256 266
256 269
256 285
256 286
256 294
256 313
256 314
257 181
257 191
257 197
257 206
257 214
257 223
257 229
257 232
257 236
257 239
257 240
257 247
257 258
257 260
257 270
257 277
257 278
257 279
257 283
257 291
257 301
257 311
257 315
257 316
257 318
258 187
258 199
258 207
258 211
258 214
258 223
258 229
258 232
258 237
258 238
258 241
258 247
258 257
258 264
258 273
258 275
258 277
258 279
258 291
258 303
258 305
258 311
258 315
258 319
259 192
259 195
259 196
259 215
259 222
259 225
259 226
259 251
259 253
259 268
259 280
259 282
259 289
259 302
259 309
259 325
259 338
260 180
260 183
260 190
260 197
260 206
260 210
260 212
260 229
260 234
260 236
260 239
260 240
260 242
260 243
260 257
260 263
260 270
260 271
260 278
260 283
260 290
260 291
260 295
260 301
260 317
260 318
260 323
260 331
261 178
261 201
261 216
261 219
261 230
261 233
261 244
261 250
261 254
261 262
261 276
261 284
261 288
261 292
261 296
261 297
261 299
261 306
261 322
261 329
262 193
262 216
262 228
262 230
262 233
262 244
262 245
262 254
262 261
262 272
262 284
262 288
262 292
262 296
262 297
262 306
262 321
262 322
262 329
262 336
262 337
263 190
263 205
263 206
263 209
263 210
263 212
263 231
263 234
263 236
263 240
263 242
263 243
263 255
263 260
263 269
263 271
263 278
263 283
263 290
263 293
263 295
263 301
263 304
263 317
263 323
263 324
264 199
264 207
264 211
264 214
264 223
264 232
264 237
264 238
264 241
264 247
264 258
264 267
264 273
264 275
264 277
264 279
264 303
264 305
264 307
264 311
264 319
264 332
265 200
265 204
265 208
265 217
265 220
265 227
265 246
265 248
265 256
265 266
265 269
265 285
265 286
265 287
265 294
265 312
265 313
265 314
265 334
266 186
266 204
266 205
266 208
266 217
266 220
266 227
266 231
266 242
266 246
266 248
266 255
266 256
266 265
266 269
266 271
266 285
266 286
266 287
266 293
266 294
266 304
266 312
266 313
266 314
266 328
266 334
267 203
267 207
267 219
267 235
267 238
267 241
267 244
267 250
267 264
267 273
267 275
267 276
267 284
267 292
267 299
267 305
267 307
267 326
267 327
267 339
268 195
268 196
268 215
268 221
268 222
268 225
268 226
268 251
268 252
268 253
268 259
268 280
268 281
268 282
268 289
268 300
268 302
268 309
268 310
268 325
268 333
268 338
268 341
269 204
269 205
269 208
269 209
269 220
269 227
269 231
269 242
269 246
269 248
269 255
269 256
269 263
269 265
269 266
269 271
269 285
269 286
269 287
269 290
269 293
269 294
269 304
269 312
269 313
269 314
269 324
269 328
269 334
270 191
270 197
270 206
270 210
270 214
270 229
270 232
270 236
270 239
270 240
270 243
270 247
270 257
270 260
270 277
270 278
270 279
270 283
270 291
270 295
270 301
270 315
270 316
270 318
270 323
270 331
270 348
271 205
271 209
271 212
271 220
271 231
271 234
271 236
271 242
271 243
271 248
271 255
271 260
271 263
271 266
271 269
271 283
271 287
271 290
271 293
271 295
271 304
271 312
271 317
271 323
271 324
271 328
271 343
271 345
272 202
272 213
272 218
272 224
272 228
272 230
272 245
272 249
272 252
272 254
272 262
272 274
272 281
272 288
272 297
272 298
272 308
272 320
272 321
272 330
272 342
272 347
273 207
273 211
273 223
273 235
273 237
273 238
273 241
273 247
273 258
273 264
273 267
273 275
273 276
273 277
273 303
273 305
273 307
273 311
273 319
273 332
273 339
273 349
274 202
274 213
274 218
274 221
274 224
274 228
274 245
274 249
274 251
274 252
274 254
274 272
274 281
274 288
274 298
274 300
274 308
274 310
274 320
274 321
274 330
274 335
274 342
275 203
275 207
275 211
275 223
275 235
275 237
275 238
275 241
275 250
275 258
275 264
275 267
275 273
275 276
275 277
275 299
275 303
275 305
275 307
275 319
275 326
275 327
275 332
275 339
275 349
276 203
276 219
276 233
276 235
276 238
276 244
276 250
276 261
276 267
276 273
276 275
276 284
276 292
276 296
276 299
276 305
276 307
276 322
276 326
276 327
276 329
276 339
276 356
276 358
277 211
277 214
277 223
277 229
277 232
277 237
277 241
277 247
277 257
277 258
277 264
277 270
277 273
277 275
277 279
277 291
277 303
277 305
277 311
277 315
277 316
277 319
277 332
277 340
277 344
277 353
278 206
278 210
278 229
278 232
278 234
278 236
278 239
278 240
278 243
278 257
278 260
278 263
278 270
278 279
278 283
278 291
278 295
278 301
278 315
278 316
278 317
278 318
278 323
278 331
278 348
278 350
278 352
279 214
279 223
279 229
279 232
279 237
279 239
279 240
279 247
279 257
279 258
279 264
279 270
279 277
279 278
279 291
279 303
279 311
279 315
279 316
279 318
279 319
279 340
279 344
279 348
279 355
280 215
280 221
280 222
280 225
280 226
280 251
280 252
280 253
280 259
280 268
280 281
280 282
280 289
280 300
280 302
280 309
280 310
280 325
280 333
280 335
280 338
280 341
281 215
281 218
281 221
281 224
281 225
281 249
281 251
281 252
281 253
281 268
281 272
281 274
281 280
281 298
281 300
281 308
281 309
281 310
281 330
281 333
281 335
281 341
281 342
282 222
282 225
282 226
282 253
282 259
282 268
282 280
282 289
282 302
282 309
282 325
282 338
283 206
283 210
283 212
283 234
283 236
283 239
283 240
283 242
283 243
283 257
283 260
283 263
283 270
283 271
283 278
283 290
283 291
283 295
283 301
283 316
283 317
283 318
283 323
283 324
283 331
283 345
283 348
283 350
283 352
284 219
284 233
284 235
284 244
284 250
284 261
284 262
284 267
284 276
284 292
284 296
284 297
284 299
284 306
284 307
284 322
284 326
284 327
284 329
284 337
284 356
284 361
285 217
285 227
285 246
285 256
285 265
285 266
285 269
285 286
285 287
285 294
285 312
285 313
285 314
285 334
285 346
285 364
286 208
286 217
286 227
286 246
286 248
286 256
286 265
286 266
286 269
286 285
286 287
286 293
286 294
286 312
286 313
286 314
286 334
286 346
286 360
286 364
287 220
287 227
287 231
287 242
287 246
287 248
287 255
287 265
287 266
287 269
287 271
287 285
287 286
287 290
287 293
287 294
287 304
287 312
287 313
287 314
287 324
287 328
287 334
287 343
287 346
287 351
287 357
287 360
288 213
288 216
288 228
288 230
288 245
288 249
288 254
288 261
288 262
288 272
288 274
288 296
288 297
288 298
288 306
288 308
288 320
288 321
288 329
288 336
288 337
288 347
288 359
289 222
289 225
289 226
289 251
289 253
289 259
289 268
289 280
289 282
289 302
289 309
289 310
289 325
289 338
289 341
289 366
290 209
290 212
290 231
290 234
290 242
290 243
290 248
290 255
290 260
290 263
290 269
290 271
290 283
290 287
290 293
290 295
290 301
290 304
290 312
290 317
290 323
290 324
290 328
290 343
290 345
290 350
290 357
290 365
291 229
291 232
291 239
291 240
291 247
291 257
291 258
291 260
291 270
291 277
291 278
291 279
291 283
291 301
291 303
291 311
291 315
291 316
291 318
291 331
291 340
291 344
291 348
291 352
291 355
292 219
292 233
292 235
292 244
292 250
292 261
292 262
292 267
292 276
292 284
292 296
292 299
292 306
292 307
292 322
292 326
292 327
292 329
292 339
292 356
292 358
292 361
293 220
293 227
293 231
293 242
293 248
293 255
293 263
293 266
293 269
293 271
293 286
293 287
293 290
293 294
293 295
293 304
293 312
293 314
293 317
293 324
293 328
293 334
293 343
293 345
293 351
293 357
293 365
294 208
294 217
294 220
294 227
294 246
294 248
294 255
294 256
294 265
294 266
294 269
294 285
294 286
294 287
294 293
294 304
294 312
294 313
294 314
294 328
294 334
294 346
294 351
294 360
294 364
294 367
295 212
295 234
295 236
295 240
295 242
295 243
295 255
295 260
295 263
295 270
295 271
295 278
295 283
295 290
295 293
295 301
295 304
295 317
295 318
295 323
295 324
295 328
295 331
295 343
295 345
295 350
295 352
295 365
296 216
296 233
296 244
296 250
296 261
296 262
296 276
296 284
296 288
296 292
296 297
296 299
296 306
296 321
296 322
296 326
296 327
296 329
296 336
296 337
296 356
296 361
296 368
297 216
297 228
297 230
297 233
297 245
297 254
297 261
297 262
297 272
297 284
297 288
297 296
297 306
297 320
297 321
297 322
297 329
297 336
297 337
297 347
298 218
298 224
298 245
298 249
298 251
298 252
298 272
298 274
298 281
298 288
298 300
298 308
298 310
298 320
298 321
298 330
298 333
298 335
298 342
298 359
298 363
299 219
299 235
299 244
299 250
299 261
299 267
299 275
299 276
299 284
299 292
299 296
299 305
299 307
299 322
299 326
299 327
299 329
299 339
299 349
299 356
299 358
299 361
300 221
300 224
300 249
300 251
300 252
300 253
300 268
300 274
300 280
300 281
300 298
300 302
300 308
300 309
300 310
300 330
300 333
300 335
300 338
300 341
300 342
300 362
300 363
301 236
301 239
301 240
301 243
301 257
301 260
301 263
301 270
301 278
301 283
301 290
301 291
301 295
301 315
301 316
301 317
301 318
301 323
301 324
301 331
301 345
301 348
301 350
301 352
301 355
301 369
301 380
302 222
302 225
302 226
302 251
302 253
302 259
302 268
302 280
302 282
302 289
302 300
302 309
302 310
302 325
302 333
302 338
302 341
302 366
302 378
303 223
303 237
303 241
303 247
303 258
303 264
303 273
303 275
303 277
303 279
303 291
303 305
303 307
303 311
303 315
303 316
303 319
303 332
303 340
303 344
303 349
303 353
303 354
303 383
304 231
304 242
304 248
304 255
304 263
304 266
304 269
304 271
304 287
304 290
304 293
304 294
304 295
304 312
304 314
304 317
304 323
304 324
304 328
304 334
304 343
304 345
304 351
304 357
304 365
305 237
305 238
305 241
305 258
305 264
305 267
305 273
305 275
305 276
305 277
305 299
305 303
305 307
305 311
305 319
305 326
305 327
305 332
305 339
305 349
305 353
305 354
305 370
306 230
306 233
306 254
306 261
306 262
306 284
306 288
306 292
306 296
306 297
306 320
306 321
306 322
306 329
306 336
306 337
306 347
306 361
306 368
306 379
306 381
307 235
307 238
307 241
307 250
307 264
307 267
307 273
307 275
307 276
307 284
307 292
307 299
307 303
307 305
307 319
307 322
307 326
307 327
307 332
307 339
307 349
307 354
307 356
307 358
307 370
308 245
308 249
308 252
308 254
308 272
308 274
308 281
308 288
308 298
308 300
308 310
308 320
308 321
308 330
308 335
308 336
308 342
308 347
308 359
308 363
308 377
309 251
309 252
309 253
309 259
309 268
309 280
309 281
309 282
309 289
309 300
309 302
309 310
309 325
309 333
309 335
309 338
309 341
309 362
309 366
309 376
309 378
310 251
310 252
310 253
310 268
310 274
310 280
310 281
310 289
310 298
310 300
310 302
310 308
310 309
310 330
310 333
310 335
310 338
310 341
310 342
310 362
310 363
310 376
311 247
311 257
311 258
311 264
311 273
311 277
311 279
311 291
311 303
311 305
311 315
311 316
311 319
311 332
311 340
311 344
311 348
311 353
311 354
311 355
311 373
311 374
311 383
312 248
312 255
312 265
312 266
312 269
312 271
312 285
312 286
312 287
312 290
312 293
312 294
312 304
312 313
312 314
312 317
312 324
312 328
312 334
312 343
312 346
312 351
312 357
312 360
312 365
312 367
312 382
313 246
313 256
313 265
313 266
313 269
313 285
313 286
313 287
313 294
313 312
313 314
313 334
313 346
313 351
313 360
313 364
313 367
313 372
314 246
314 248
314 255
314 256
314 265
314 266
314 269
314 285
314 286
314 287
314 293
314 294
314 304
314 312
314 313
314 328
314 334
314 343
314 346
314 351
314 357
314 360
314 364
314 367
314 372
314 382
315 247
315 257
315 258
315 270
315 277
315 278
315 279
315 291
315 301
315 303
315 311
315 316
315 318
315 319
315 331
315 340
315 344
315 348
315 353
315 354
315 355
315 369
315 373
315 374
316 257
316 270
316 277
316 278
316 279
316 283
316 291
316 301
316 303
316 311
316 315
316 318
316 323
316 331
316 340
316 344
316 348
316 352
316 353
316 355
316 369
316 373
316 374
317 242
317 243
317 255
317 260
317 263
317 271
317 278
317 283
317 290
317 293
317 295
317 301
317 304
317 312
317 318
317 323
317 324
317 328
317 331
317 343
317 345
317 350
317 352
317 357
317 365
317 371
317 380
317 388
318 239
318 240
318 257
318 260
318 270
318 278
318 279
318 283
318 291
318 295
318 301
318 315
318 316
318 317
318 323
318 331
318 340
318 344
318 345
318 348
318 350
318 352
318 355
318 369
318 373
318 380
318 385
319 237
319 241
319 258
319 264
319 273
319 275
319 277
319 279
319 303
319 305
319 307
319 311
319 315
319 332
319 339
319 340
319 344
319 349
319 353
319 354
319 374
319 383
319 390
320 245
320 254
320 272
320 274
320 288
320 297
320 298
320 306
320 308
320 321
320 330
320 336
320 337
320 342
320 347
320 359
320 375
320 377
320 381
321 245
321 254
321 262
321 272
321 274
321 288
321 296
321 297
321 298
321 306
321 308
321 320
321 329
321 330
321 336
321 337
321 342
321 347
321 359
321 375
321 379
321 381
322 244
322 250
322 261
322 262
322 276
322 284
322 292
322 296
322 297
322 299
322 306
322 307
322 326
322 327
322 329
322 336
322 337
322 339
322 356
322 358
322 361
322 368
322 384
322 386
322 389
323 243
323 260
323 263
323 270
323 271
323 278
323 283
323 290
323 295
323 301
323 304
323 316
323 317
323 318
323 324
323 328
323 331
323 343
323 345
323 348
323 350
323 352
323 365
323 369
323 371
323 380
323 385
324 255
324 263
324 269
324 271
324 283
324 287
324 290
324 293
324 295
324 301
324 304
324 312
324 317
324 323
324 328
324 334
324 343
324 345
324 350
324 351
324 357
324 365
324 371
324 382
324 387
324 388
324 400
325 259
325 268
325 280
325 282
325 289
325 302
325 309
325 333
325 338
325 341
325 366
325 376
325 378
325 393
326 250
326 267
326 275
326 276
326 284
326 292
326 296
326 299
326 305
326 307
326 322
326 327
326 329
326 332
326 339
326 349
326 356
326 358
326 361
326 370
326 384
326 389
326 396
327 250
327 267
327 275
327 276
327 284
327 292
327 296
327 299
327 305
327 307
327 322
327 326
327 329
327 339
327 349
327 356
327 358
327 361
327 368
327 370
327 384
327 386
327 389
327 396
328 255
328 266
328 269
328 271
328 287
328 290
328 293
328 294
328 295
328 304
328 312
328 314
328 317
328 323
328 324
328 334
328 343
328 345
328 350
328 351
328 357
328 360
328 365
328 367
328 371
328 382
328 387
328 388
329 261
329 262
329 276
329 284
329 288
329 292
329 296
329 297
329 299
329 306
329 321
329 322
329 326
329 327
329 336
329 337
329 347
329 356
329 358
329 361
329 368
329 379
329 381
329 384
329 386
330 249
330 272
330 274
330 281
330 298
330 300
330 308
330 310
330 320
330 321
330 333
330 335
330 342
330 347
330 359
330 362
330 363
330 375
330 377
330 391
330 395
331 260
331 270
331 278
331 283
331 291
331 295
331 301
331 315
331 316
331 317
331 318
331 323
331 340
331 344
331 345
331 348
331 350
331 352
331 355
331 369
331 371
331 373
331 380
331 385
331 399
331 403
332 264
332 273
332 275
332 277
332 303
332 305
332 307
332 311
332 319
332 326
332 339
332 344
332 349
332 353
332 354
332 358
332 370
332 383
332 390
332 392
333 251
333 268
333 280
333 281
333 298
333 300
333 302
333 309
333 310
333 325
333 330
333 335
333 338
333 341
333 342
333 362
333 363
333 376
333 391
333 393
333 395
333 405
334 265
334 266
334 269
334 285
334 286
334 287
334 293
334 294
334 304
334 312
334 313
334 314
334 324
334 328
334 343
334 346
334 351
334 357
334 360
334 364
334 365
334 367
334 372
334 382
334 387
334 394
334 397
334 401
334 404
335 274
335 280
335 281
335 298
335 300
335 308
335 309
335 310
335 330
335 333
335 338
335 341
335 342
335 359
335 362
335 363
335 376
335 377
335 391
335 395
335 405
336 262
336 288
336 296
336 297
336 306
336 308
336 320
336 321
336 322
336 329
336 337
336 347
336 359
336 361
336 368
336 375
336 379
336 381
336 411
337 262
337 284
337 288
337 296
337 297
337 306
337 320
337 321
337 322
337 329
337 336
337 347
337 359
337 361
337 368
337 375
337 379
337 381
337 386
337 407
337 417
338 259
338 268
338 280
338 282
338 289
338 300
338 302
338 309
338 310
338 325
338 333
338 335
338 341
338 362
338 366
338 376
338 378
338 393
338 410
338 418
339 267
339 273
339 275
339 276
339 292
339 299
339 305
339 307
339 319
339 322
339 326
339 327
339 332
339 349
339 354
339 356
339 358
339 361
339 370
339 384
339 389
339 390
339 392
339 396
340 277
340 279
340 291
340 303
340 311
340 315
340 316
340 318
340 319
340 331
340 344
340 348
340 352
340 353
340 354
340 355
340 369
340 373
340 374
340 383
340 398
340 399
340 402
341 268
341 280
341 281
341 289
341 300
341 302
341 309
341 310
341 325
341 333
341 335
341 338
341 362
341 363
341 366
341 376
341 378
341 391
341 393
341 405
341 410
342 272
342 274
342 281
342 298
342 300
342 308
342 310
342 320
342 321
342 330
342 333
342 335
342 347
342 359
342 362
342 363
342 375
342 377
342 391
342 395
342 421
343 271
343 287
343 290
343 293
343 295
343 304
343 312
343 314
343 317
343 323
343 324
343 328
343 334
343 345
343 350
343 351
343 357
343 365
343 367
343 371
343 380
343 382
343 387
343 388
343 400
343 408
343 412
344 277
344 279
344 291
344 303
344 311
344 315
344 316
344 318
344 319
344 331
344 332
344 340
344 348
344 353
344 354
344 355
344 369
344 373
344 374
344 383
344 398
344 402
344 416
345 271
345 283
345 290
345 293
345 295
345 301
345 304
345 317
345 318
345 323
345 324
345 328
345 331
345 343
345 350
345 351
345 352
345 357
345 365
345 371
345 380
345 382
345 385
345 387
345 388
345 400
345 403
345 408
345 412
346 285
346 286
346 287
346 294
346 312
346 313
346 314
346 334
346 351
346 360
346 364
346 367
346 372
346 382
346 394
346 397
346 401
346 404
346 422
346 426
347 272
347 288
347 297
347 306
347 308
347 320
347 321
347 329
347 330
347 336
347 337
347 342
347 359
347 368
347 375
347 377
347 379
347 381
347 409
347 411
347 424
348 270
348 278
348 279
348 283
348 291
348 301
348 311
348 315
348 316
348 318
348 323
348 331
348 340
348 344
348 350
348 352
348 353
348 355
348 369
348 373
348 374
348 380
348 385
348 398
348 399
348 403
348 415
348 423
348 428
349 273
349 275
349 299
349 303
349 305
349 307
349 319
349 326
349 327
349 332
349 339
349 353
349 354
349 356
349 358
349 370
349 383
349 384
349 389
349 390
349 392
349 396
349 406
350 278
350 283
350 290
350 295
350 301
350 317
350 318
350 323
350 324
350 328
350 331
350 343
350 345
350 348
350 352
350 357
350 365
350 369
350 371
350 380
350 385
350 388
350 399
350 400
350 403
350 412
350 415
351 287
351 293
351 294
351 304
351 312
351 313
351 314
351 324
351 328
351 334
351 343
351 345
351 346
351 357
351 360
351 364
351 365
351 367
351 372
351 382
351 387
351 388
351 394
351 401
351 404
351 408
351 422
351 425
352 278
352 283
352 291
352 295
352 301
352 316
352 317
352 318
352 323
352 331
352 340
352 345
352 348
352 350
352 355
352 369
352 371
352 373
352 380
352 385
352 398
352 399
352 403
352 412
352 415
352 428
352 429
353 277
353 303
353 305
353 311
353 315
353 316
353 319
353 332
353 340
353 344
353 348
353 349
353 354
353 355
353 373
353 374
353 383
353 390
353 392
353 398
353 402
353 406
353 416
353 430
354 303
354 305
354 307
354 311
354 315
354 319
354 332
354 339
354 340
354 344
354 349
354 353
354 370
354 373
354 374
354 383
354 390
354 392
354 402
354 406
354 416
355 279
355 291
355 301
355 311
355 315
355 316
355 318
355 331
355 340
355 344
355 348
355 352
355 353
355 369
355 373
355 374
355 380
355 383
355 385
355 398
355 399
355 402
355 415
355 423
355 428
355 432
356 276
356 284
356 292
356 296
356 299
356 307
356 322
356 326
356 327
356 329
356 339
356 349
356 358
356 361
356 368
356 370
356 384
356 386
356 389
356 396
356 407
356 413
356 414
356 419
357 287
357 290
357 293
357 304
357 312
357 314
357 317
357 324
357 328
357 334
357 343
357 345
357 350
357 351
357 360
357 365
357 367
357 371
357 382
357 387
357 388
357 394
357 400
357 401
357 408
357 425
358 276
358 292
358 299
358 307
358 322
358 326
358 327
358 329
358 332
358 339
358 349
358 356
358 361
358 368
358 370
358 384
358 386
358 389
358 390
358 392
358 396
358 413
358 414
358 419
358 427
359 288
359 298
359 308
359 320
359 321
359 330
359 335
359 336
359 337
359 342
359 347
359 363
359 375
359 377
359 379
359 381
359 395
359 409
359 411
359 420
359 421
359 424
360 286
360 287
360 294
360 312
360 313
360 314
360 328
360 334
360 346
360 351
360 357
360 364
360 367
360 372
360 382
360 387
360 394
360 397
360 401
360 404
360 422
360 426
361 284
361 292
361 296
361 299
361 306
361 322
361 326
361 327
361 329
361 336
361 337
361 339
361 356
361 358
361 368
361 370
361 379
361 381
361 384
361 386
361 389
361 396
361 407
361 413
361 414
361 417
361 419
362 300
362 309
362 310
362 330
362 333
362 335
362 338
362 341
362 342
362 363
362 366
362 376
362 377
362 378
362 391
362 393
362 395
362 405
362 410
362 434
363 298
363 300
363 308
363 310
363 330
363 333
363 335
363 341
363 342
363 359
363 362
363 376
363 377
363 391
363 395
363 405
363 410
363 420
363 421
363 433
363 434
363 441
364 285
364 286
364 294
364 313
364 314
364 334
364 346
364 351
364 360
364 367
364 372
364 382
364 394
364 397
364 401
364 404
364 422
364 426
365 290
365 293
365 295
365 304
365 312
365 317
365 323
365 324
365 328
365 334
365 343
365 345
365 350
365 351
365 357
365 367
365 371
365 380
365 382
365 387
365 388
365 400
365 401
365 408
365 412
365 425
365 440
366 289
366 302
366 309
366 325
366 338
366 341
366 362
366 376
366 378
366 393
366 410
366 418
366 431
366 439
367 294
367 312
367 313
367 314
367 328
367 334
367 343
367 346
367 351
367 357
367 360
367 364
367 365
367 372
367 382
367 387
367 388
367 394
367 397
367 401
367 404
367 422
367 425
367 426
367 446
367 447
368 296
368 306
368 322
368 327
368 329
368 336
368 337
368 347
368 356
368 358
368 361
368 379
368 381
368 384
368 386
368 389
368 407
368 411
368 413
368 414
368 417
368 424
368 445
369 301
369 315
369 316
369 318
369 323
369 331
369 340
369 344
369 348
369 350
369 352
369 355
369 371
369 373
369 374
369 380
369 385
369 398
369 399
369 403
369 412
369 415
369 423
369 428
369 429
369 444
369 456
370 305
370 307
370 326
370 327
370 332
370 339
370 349
370 354
370 356
370 358
370 361
370 384
370 386
370 389
370 390
370 392
370 396
370 406
370 413
370 419
370 427
370 438
370 442
370 454
371 317
371 323
371 324
371 328
371 331
371 343
371 345
371 350
371 352
371 357
371 365
371 369
371 380
371 382
371 385
371 387
371 388
371 399
371 400
371 403
371 408
371 412
371 415
371 429
371 435
371 436
371 443
371 450
372 313
372 314
372 334
372 346
372 351
372 360
372 364
372 367
372 382
372 394
372 397
372 401
372 404
372 422
372 426
372 447
372 461
373 311
373 315
373 316
373 318
373 331
373 340
373 344
373 348
373 352
373 353
373 354
373 355
373 369
373 374
373 383
373 385
373 398
373 399
373 402
373 406
373 415
373 416
373 423
373 428
373 430
373 432
373 457
374 311
374 315
374 316
374 319
374 340
374 344
374 348
374 353
374 354
374 355
374 369
374 373
374 383
374 390
374 398
374 399
374 402
374 406
374 416
374 423
374 430
374 432
375 320
375 321
375 330
375 336
375 337
375 342
375 347
375 359
375 377
375 379
375 381
375 409
375 411
375 417
375 420
375 421
375 424
375 452
375 453
375 458
376 309
376 310
376 325
376 333
376 335
376 338
376 341
376 362
376 363
376 366
376 378
376 391
376 393
376 395
376 405
376 410
376 418
376 431
376 434
376 439
376 448
377 308
377 320
377 330
377 335
377 342
377 347
377 359
377 362
377 363
377 375
377 381
377 391
377 395
377 405
377 409
377 411
377 420
377 421
377 433
377 434
377 441
377 449
377 458
378 302
378 309
378 325
378 338
378 341
378 362
378 366
378 376
378 393
378 410
378 418
378 431
378 439
379 306
379 321
379 329
379 336
379 337
379 347
379 359
379 361
379 368
379 375
379 381
379 384
379 386
379 407
379 409
379 411
379 414
379 417
379 424
379 445
379 452
379 455
380 301
380 317
380 318
380 323
380 331
380 343
380 345
380 348
380 350
380 352
380 355
380 365
380 369
380 371
380 385
380 388
380 399
380 400
380 403
380 408
380 412
380 415
380 423
380 428
380 429
380 435
380 436
380 444
380 450
381 306
381 320
381 321
381 329
381 336
381 337
381 347
381 359
381 361
381 368
381 375
381 377
381 379
381 386
381 407
381 409
381 411
381 417
381 420
381 424
381 452
381 453
381 455
382 312
382 314
382 324
382 328
382 334
382 343
382 345
382 346
382 351
382 357
382 360
382 364
382 365
382 367
382 371
382 372
382 387
382 388
382 394
382 397
382 400
382 401
382 404
382 408
382 422
382 425
382 440
382 443
382 446
382 459
383 303
383 311
383 319
383 332
383 340
383 344
383 349
383 353
383 354
383 355
383 373
383 374
383 390
383 392
383 398
383 402
383 406
383 416
383 430
383 432
383 437
383 442
383 462
384 322
384 326
384 327
384 329
384 339
384 349
384 356
384 358
384 361
384 368
384 370
384 379
384 386
384 389
384 392
384 396
384 407
384 413
384 414
384 419
384 427
384 438
384 445
384 451
384 454
384 460
385 318
385 323
385 331
385 345
385 348
385 350
385 352
385 355
385 369
385 371
385 373
385 380
385 398
385 399
385 400
385 403
385 412
385 415
385 423
385 428
385 429
385 435
385 436
385 444
385 456
386 322
386 327
386 329
386 337
386 356
386 358
386 361
386 368
386 370
386 379
386 381
386 384
386 389
386 396
386 407
386 413
386 414
386 417
386 419
386 438
386 445
386 451
386 455
387 324
387 328
387 334
387 343
387 345
387 351
387 357
387 360
387 365
387 367
387 371
387 382
387 388
387 394
387 400
387 401
387 408
387 412
387 422
387 425
387 435
387 440
387 443
387 446
387 450
387 459
388 317
388 324
388 328
388 343
388 345
388 350
388 351
388 357
388 365
388 367
388 371
388 380
388 382
388 387
388 400
388 401
388 403
388 408
388 412
388 425
388 435
388 440
388 443
388 450
388 459
389 322
389 326
389 327
389 339
389 349
389 356
389 358
389 361
389 368
389 370
389 384
389 386
389 390
389 392
389 396
389 407
389 413
389 414
389 419
389 427
389 438
389 451
389 454
389 460
390 319
390 332
390 339
390 349
390 353
390 354
390 358
390 370
390 374
390 383
390 389
390 392
390 396
390 402
390 406
390 416
390 419
390 427
390 430
390 437
390 442
391 330
391 333
391 335
391 341
391 342
391 362
391 363
391 376
391 377
391 393
391 395
391 405
391 410
391 420
391 421
391 431
391 433
391 434
391 441
391 448
391 449
391 464
392 332
392 339
392 349
392 353
392 354
392 358
392 370
392 383
392 384
392 389
392 390
392 396
392 406
392 413
392 416
392 419
392 427
392 437
392 438
392 442
392 454
392 466
393 325
393 333
393 338
393 341
393 362
393 366
393 376
393 378
393 391
393 405
393 410
393 418
393 431
393 434
393 439
393 448
393 463
394 334
394 346
394 351
394 357
394 360
394 364
394 367
394 372
394 382
394 387
394 397
394 401
394 404
394 422
394 425
394 426
394 446
394 447
394 459
394 461
395 330
395 333
395 335
395 342
395 359
395 362
395 363
395 376
395 377
395 391
395 405
395 409
395 410
395 420
395 421
395 433
395 434
395 441
395 448
395 449
395 464
396 326
396 327
396 339
396 349
396 356
396 358
396 361
396 370
396 384
396 386
396 389
396 390
396 392
396 406
396 413
396 414
396 419
396 427
396 438
396 442
396 451
396 454
396 460
396 466
397 334
397 346
397 360
397 364
397 367
397 372
397 382
397 394
397 401
397 404
397 422
397 426
397 446
397 447
397 461
397 477
398 340
398 344
398 348
398 352
398 353
398 355
398 369
398 373
398 374
398 383
398 385
398 399
398 402
398 403
398 406
398 415
398 416
398 423
398 428
398 430
398 432
398 444
398 456
398 457
398 462
398 469
399 331
399 340
399 348
399 350
399 352
399 355
399 369
399 371
399 373
399 374
399 380
399 385
399 398
399 402
399 403
399 412
399 415
399 423
399 428
399 429
399 430
399 432
399 435
399 436
399 444
399 456
399 457
399 467
399 474
399 481
400 324
400 343
400 345
400 350
400 357
400 365
400 371
400 380
400 382
400 385
400 387
400 388
400 403
400 408
400 412
400 415
400 425
400 429
400 435
400 436
400 440
400 443
400 450
400 459
400 465
400 468
400 472
401 334
401 346
401 351
401 357
401 360
401 364
401 365
401 367
401 372
401 382
401 387
401 388
401 394
401 397
401 404
401 408
401 422
401 425
401 426
401 440
401 443
401 446
401 447
401 459
401 461
402 340
402 344
402 353
402 354
402 355
402 373
402 374
402 383
402 390
402 398
402 399
402 406
402 416
402 423
402 428
402 430
402 432
402 437
402 457
402 462
402 469
402 470
402 473
403 331
403 345
403 348
403 350
403 352
403 369
403 371
403 380
403 385
403 388
403 398
403 399
403 400
403 408
403 412
403 415
403 423
403 428
403 429
403 435
403 436
403 443
403 444
403 450
403 456
403 467
403 472
403 474
404 334
404 346
404 351
404 360
404 364
404 367
404 372
404 382
404 394
404 397
404 401
404 422
404 425
404 426
404 446
404 447
404 459
404 461
404 477
404 483
405 333
405 335
405 341
405 362
405 363
405 376
405 377
405 391
405 393
405 395
405 410
405 418
405 420
405 421
405 431
405 433
405 434
405 441
405 448
405 449
405 463
405 464
405 476
406 349
406 353
406 354
406 370
406 373
406 374
406 383
406 390
406 392
406 396
406 398
406 402
406 416
406 427
406 430
406 432
406 437
406 442
406 462
406 470
406 473
407 337
407 356
407 361
407 368
407 379
407 381
407 384
407 386
407 389
407 411
407 413
407 414
407 417
407 419
407 424
407 438
407 445
407 451
407 452
407 455
407 460
407 471
407 475
407 488
408 343
408 345
408 351
408 357
408 365
408 371
408 380
408 382
408 387
408 388
408 400
408 401
408 403
408 412
408 425
408 429
408 435
408 436
408 440
408 443
408 446
408 450
408 459
408 465
408 468
408 472
409 347
409 359
409 375
409 377
409 379
409 381
409 395
409 411
409 417
409 420
409 421
409 424
409 433
409 449
409 452
409 453
409 455
409 458
409 479
409 480
409 487
410 338
410 341
410 362
410 363
410 366
410 376
410 378
410 391
410 393
410 395
410 405
410 418
410 431
410 434
410 439
410 441
410 448
410 463
410 464
410 478
410 485
411 336
411 347
411 359
411 368
411 375
411 377
411 379
411 381
411 407
411 409
411 417
411 420
411 421
411 424
411 445
411 449
411 452
411 453
411 455
411 458
411 475
411 479
411 487
412 343
412 345
412 350
412 352
412 365
412 369
412 371
412 380
412 385
412 387
412 388
412 399
412 400
412 403
412 408
412 415
412 425
412 428
412 429
412 435
412 436
412 440
412 443
412 444
412 450
412 465
412 467
412 468
412 472
413 356
413 358
413 361
413 368
413 370
413 384
413 386
413 389
413 392
413 396
413 407
413 414
413 417
413 419
413 427
413 438
413 445
413 451
413 454
413 460
413 466
413 471
413 484
413 488
414 356
414 358
414 361
414 368
414 379
414 384
414 386
414 389
414 396
414 407
414 413
414 417
414 419
414 427
414 438
414 445
414 451
414 452
414 454
414 455
414 460
414 471
414 475
414 484
414 488
415 348
415 350
415 352
415 355
415 369
415 371
415 373
415 380
415 385
415 398
415 399
415 400
415 403
415 412
415 423
415 428
415 429
415 432
415 435
415 436
415 444
415 450
415 456
415 457
415 467
415 472
415 474
415 481
415 497
416 344
416 353
416 354
416 373
416 374
416 383
416 390
416 392
416 398
416 402
416 406
416 423
416 430
416 432
416 437
416 442
416 457
416 462
416 469
416 470
416 473
416 495
417 337
417 361
417 368
417 375
417 379
417 381
417 386
417 407
417 409
417 411
417 413
417 414
417 420
417 424
417 445
417 451
417 452
417 453
417 455
417 458
417 471
417 475
417 487
418 338
418 366
418 376
418 378
418 393
418 405
418 410
418 431
418 439
418 448
418 463
418 478
418 485
418 490
419 356
419 358
419 361
419 370
419 384
419 386
419 389
419 390
419 392
419 396
419 407
419 413
419 414
419 427
419 438
419 442
419 445
419 451
419 454
419 460
419 466
419 484
420 359
420 363
420 375
420 377
420 381
420 391
420 395
420 405
420 409
420 411
420 417
420 421
420 424
420 433
420 434
420 441
420 449
420 452
420 453
420 458
420 476
420 479
420 480
420 482
421 342
421 359
421 363
421 375
421 377
421 391
421 395
421 405
421 409
421 411
421 420
421 424
421 433
421 434
421 441
421 449
421 453
421 458
421 464
421 476
421 479
421 480
421 482
422 346
422 351
422 360
422 364
422 367
422 372
422 382
422 387
422 394
422 397
422 401
422 404
422 425
422 426
422 440
422 446
422 447
422 459
422 461
422 477
422 483
422 492
423 348
423 355
423 369
423 373
423 374
423 380
423 385
423 398
423 399
423 402
423 403
423 415
423 416
423 428
423 429
423 430
423 432
423 436
423 444
423 456
423 457
423 462
423 467
423 469
423 474
423 481
423 486
423 494
423 500
424 347
424 359
424 368
424 375
424 379
424 381
424 407
424 409
424 411
424 417
424 420
424 421
424 445
424 449
424 452
424 453
424 455
424 458
424 475
424 479
424 487
425 351
425 357
425 365
425 367
425 382
425 387
425 388
425 394
425 400
425 401
425 404
425 408
425 412
425 422
425 435
425 440
425 443
425 446
425 447
425 450
425 459
425 465
425 468
425 483
425 491
425 492
426 346
426 360
426 364
426 367
426 372
426 394
426 397
426 401
426 404
426 422
426 446
426 447
426 461
426 477
426 483
426 496
427 358
427 370
427 384
427 389
427 390
427 392
427 396
427 406
427 413
427 414
427 419
427 437
427 438
427 442
427 451
427 454
427 460
427 466
427 473
427 484
427 489
427 504
428 348
428 352
428 355
428 369
428 373
428 380
428 385
428 398
428 399
428 402
428 403
428 412
428 415
428 423
428 429
428 430
428 432
428 435
428 436
428 444
428 456
428 457
428 467
428 469
428 474
428 481
428 486
428 497
428 500
429 352
429 369
429 371
429 380
429 385
429 399
429 400
429 403
429 408
429 412
429 415
429 423
429 428
429 435
429 436
429 443
429 444
429 450
429 456
429 457
429 467
429 468
429 472
429 474
429 481
429 497
429 498
430 353
430 373
430 374
430 383
430 390
430 398
430 399
430 402
430 406
430 416
430 423
430 428
430 432
430 437
430 442
430 456
430 457
430 462
430 469
430 470
430 473
430 486
430 494
430 495
430 501
430 511
431 366
431 376
431 378
431 391
431 393
431 405
431 410
431 418
431 434
431 439
431 441
431 448
431 463
431 464
431 478
431 485
431 490
431 493
431 502
431 510
432 355
432 373
432 374
432 383
432 398
432 399
432 402
432 406
432 415
432 416
432 423
432 428
432 430
432 437
432 444
432 456
432 457
432 462
432 469
432 470
432 473
432 474
432 481
432 486
432 494
432 495
432 500
432 501
432 511
433 363
433 377
433 391
433 395
433 405
433 409
433 420
433 421
433 434
433 441
433 448
433 449
433 453
433 458
433 464
433 476
433 479
433 480
433 482
433 493
433 509
434 362
434 363
434 376
434 377
434 391
434 393
434 395
434 405
434 410
434 420
434 421
434 431
434 433
434 441
434 448
434 449
434 463
434 464
434 476
434 480
434 482
434 485
434 493
434 512
435 371
435 380
435 385
435 387
435 388
435 399
435 400
435 403
435 408
435 412
435 415
435 425
435 428
435 429
435 436
435 440
435 443
435 444
435 450
435 456
435 465
435 467
435 468
435 472
435 474
435 497
435 498
435 499
436 371
436 380
436 385
436 399
436 400
436 403
436 408
436 412
436 415
436 423
436 428
436 429
436 435
436 440
436 443
436 444
436 450
436 456
436 465
436 467
436 468
436 472
436 474
436 481
436 497
436 498
436 499
437 383
437 390
437 392
437 402
437 406
437 416
437 427
437 430
437 432
437 442
437 454
437 462
437 466
437 469
437 470
437 473
437 489
437 494
437 495
437 501
437 503
438 370
438 384
438 386
438 389
438 392
438 396
438 407
438 413
438 414
438 419
438 427
438 442
438 445
438 451
438 454
438 460
438 466
438 471
438 484
438 488
438 504
438 505
438 508
438 515
439 366
439 376
439 378
439 393
439 410
439 418
439 431
439 448
439 463
439 478
439 485
439 490
439 502
439 510
439 526
440 365
440 382
440 387
440 388
440 400
440 401
440 408
440 412
440 422
440 425
440 435
440 436
440 443
440 446
440 447
440 450
440 459
440 465
440 468
440 472
440 483
440 491
440 492
440 499
440 516
440 519
441 363
441 377
441 391
441 395
441 405
441 410
441 420
441 421
441 431
441 433
441 434
441 448
441 449
441 458
441 463
441 464
441 476
441 479
441 480
441 482
441 485
441 493
441 509
441 512
441 524
442 370
442 383
442 390
442 392
442 396
442 406
442 416
442 419
442 427
442 430
442 437
442 438
442 454
442 460
442 462
442 466
442 470
442 473
442 489
442 501
442 503
442 504
443 371
443 382
443 387
443 388
443 400
443 401
443 403
443 408
443 412
443 425
443 429
443 435
443 436
443 440
443 446
443 450
443 459
443 465
443 467
443 468
443 472
443 491
443 492
443 498
443 499
443 516
443 519
443 525
444 369
444 380
444 385
444 398
444 399
444 403
444 412
444 415
444 423
444 428
444 429
444 432
444 435
444 436
444 450
444 456
444 457
444 467
444 469
444 472
444 474
444 481
444 486
444 497
444 498
444 500
444 517
445 368
445 379
445 384
445 386
445 407
445 411
445 413
445 414
445 417
445 419
445 424
445 438
445 451
445 452
445 453
445 455
445 460
445 471
445 475
445 484
445 487
445 488
445 505
445 506
445 515
446 367
446 382
446 387
446 394
446 397
446 401
446 404
446 408
446 422
446 425
446 426
446 440
446 443
446 447
446 459
446 461
446 465
446 468
446 477
446 483
446 491
446 492
446 496
446 513
446 516
446 520
446 527
447 367
447 372
447 394
447 397
447 401
447 404
447 422
447 425
447 426
447 440
447 446
447 459
447 461
447 477
447 483
447 491
447 492
447 496
447 513
447 522
447 527
448 376
448 391
448 393
448 395
448 405
448 410
448 418
448 431
448 433
448 434
448 439
448 441
448 463
448 464
448 476
448 478
448 485
448 490
448 493
448 502
448 510
448 512
449 377
449 391
449 395
449 405
449 409
449 411
449 420
449 421
449 424
449 433
449 434
449 441
449 453
449 458
449 464
449 476
449 479
449 480
449 482
449 487
449 493
449 507
449 509
449 523
450 371
450 380
450 387
450 388
450 400
450 403
450 408
450 412
450 415
450 425
450 429
450 435
450 436
450 440
450 443
450 444
450 459
450 465
450 467
450 468
450 472
450 474
450 491
450 497
450 498
450 499
450 516
450 519
450 525
451 384
451 386
451 389
451 396
451 407
451 413
451 414
451 417
451 419
451 427
451 438
451 445
451 452
451 454
451 455
451 460
451 466
451 471
451 475
451 484
451 488
451 505
451 506
451 508
451 515
451 529
452 375
452 379
452 381
452 407
452 409
452 411
452 414
452 417
452 420
452 424
452 445
452 451
452 453
452 455
452 458
452 471
452 475
452 479
452 480
452 487
452 488
452 505
452 506
452 507
452 521
453 375
453 381
453 409
453 411
453 417
453 420
453 421
453 424
453 433
453 445
453 449
453 452
453 455
453 458
453 475
453 479
453 480
453 482
453 487
453 506
453 507
453 521
453 530
453 531
454 370
454 384
454 389
454 392
454 396
454 413
454 414
454 419
454 427
454 437
454 438
454 442
454 451
454 460
454 466
454 473
454 484
454 488
454 489
454 504
454 508
454 515
455 379
455 381
455 386
455 407
455 409
455 411
455 414
455 417
455 424
455 445
455 451
455 452
455 453
455 458
455 471
455 475
455 479
455 487
455 488
455 505
455 506
455 521
456 369
456 385
456 398
456 399
456 403
456 415
456 423
456 428
456 429
456 430
456 432
456 435
456 436
456 444
456 457
456 467
456 469
456 472
456 474
456 481
456 486
456 494
456 497
456 498
456 500
456 511
456 514
456 517
457 373
457 398
457 399
457 402
457 415
457 416
457 423
457 428
457 429
457 430
457 432
457 444
457 456
457 462
457 467
457 469
457 470
457 474
457 481
457 486
457 494
457 495
457 497
457 500
457 501
457 511
457 514
457 517
457 518
457 533
458 375
458 377
458 409
458 411
458 417
458 420
458 421
458 424
458 433
458 441
458 449
458 452
458 453
458 455
458 475
458 476
458 479
458 480
458 482
458 487
458 507
458 509
458 523
458 530
458 531
459 382
459 387
459 388
459 394
459 400
459 401
459 404
459 408
459 422
459 425
459 440
459 443
459 446
459 447
459 450
459 461
459 465
459 468
459 477
459 483
459 491
459 492
459 499
459 513
459 516
459 519
459 520
459 527
460 384
460 389
460 396
460 407
460 413
460 414
460 419
460 427
460 438
460 442
460 445
460 451
460 454
460 466
460 471
460 484
460 488
460 489
460 504
460 505
460 508
460 515
460 529
461 372
461 394
461 397
461 401
461 404
461 422
461 426
461 446
461 447
461 459
461 477
461 483
461 492
461 496
461 513
461 522
461 528
462 383
462 398
462 402
462 406
462 416
462 423
462 430
462 432
462 437
462 442
462 457
462 469
462 470
462 473
462 486
462 489
462 494
462 495
462 500
462 501
462 503
462 511
462 514
462 518
462 541
463 393
463 405
463 410
463 418
463 431
463 434
463 439
463 441
463 448
463 464
463 476
463 478
463 485
463 490
463 493
463 502
463 510
463 512
463 526
463 534
463 549
464 391
464 395
464 405
464 410
464 421
464 431
464 433
464 434
464 441
464 448
464 449
464 463
464 476
464 478
464 480
464 482
464 485
464 493
464 502
464 509
464 510
464 512
464 524
464 532
464 552
465 400
465 408
465 412
465 425
465 435
465 436
465 440
465 443
465 446
465 450
465 459
465 468
465 472
465 483
465 491
465 492
465 498
465 499
465 516
465 519
465 520
465 525
465 527
465 540
465 544
465 545
466 392
466 396
466 413
466 419
466 427
466 437
466 438
466 442
466 451
466 454
466 460
466 473
466 484
466 488
466 489
466 503
466 504
466 508
466 515
466 535
466 537
466 547
467 399
467 403
467 412
467 415
467 423
467 428
467 429
467 435
467 436
467 443
467 444
467 450
467 456
467 457
467 468
467 472
467 474
467 481
467 486
467 497
467 498
467 499
467 500
467 517
467 525
467 538
467 542
467 543
467 546
468 400
468 408
468 412
468 425
468 429
468 435
468 436
468 440
468 443
468 446
468 450
468 459
468 465
468 467
468 472
468 491
468 492
468 497
468 498
468 499
468 516
468 519
468 520
468 525
468 538
468 540
468 544
468 554
469 398
469 402
469 416
469 423
469 428
469 430
469 432
469 437
469 444
469 456
469 457
469 462
469 470
469 473
469 474
469 481
469 486
469 494
469 495
469 500
469 501
469 503
469 511
469 514
469 517
469 518
469 533
469 541
470 402
470 406
470 416
470 430
470 432
470 437
470 442
470 457
470 462
470 469
470 473
470 486
470 489
470 494
470 495
470 501
470 503
470 511
470 514
470 518
470 537
470 541
470 550
470 551
471 407
471 413
471 414
471 417
471 438
471 445
471 451
471 452
471 455
471 460
471 475
471 484
471 487
471 488
471 505
471 506
471 508
471 515
471 521
471 529
471 536
471 539
471 555
472 400
472 403
472 408
472 412
472 415
472 429
472 435
472 436
472 440
472 443
472 444
472 450
472 456
472 465
472 467
472 468
472 474
472 481
472 491
472 497
472 498
472 499
472 516
472 517
472 519
472 525
472 538
472 540
472 546
472 554
473 402
473 406
473 416
473 427
473 430
473 432
473 437
473 442
473 454
473 462
473 466
473 469
473 470
473 489
473 494
473 495
473 501
473 503
473 504
473 511
473 518
473 535
473 537
473 550
473 551
474 399
474 403
474 415
474 423
474 428
474 429
474 432
474 435
474 436
474 444
474 450
474 456
474 457
474 467
474 469
474 472
474 481
474 486
474 494
474 497
474 498
474 500
474 511
474 514
474 517
474 533
474 538
474 542
474 543
474 546
475 407
475 411
475 414
475 417
475 424
475 445
475 451
475 452
475 453
475 455
475 458
475 471
475 479
475 484
475 487
475 488
475 505
475 506
475 507
475 521
475 529
475 531
475 536
475 548
476 405
476 420
476 421
476 433
476 434
476 441
476 448
476 449
476 458
476 463
476 464
476 479
476 480
476 482
476 485
476 493
476 507
476 509
476 512
476 523
476 524
476 532
476 558
476 563
477 397
477 404
477 422
477 426
477 446
477 447
477 459
477 461
477 483
477 491
477 492
477 496
477 513
477 520
477 522
477 527
477 528
477 556
477 561
478 410
478 418
478 431
478 439
478 448
478 463
478 464
478 485
478 490
478 493
478 502
478 510
478 512
478 526
478 534
478 549
479 409
479 411
479 420
479 421
479 424
479 433
479 441
479 449
479 452
479 453
479 455
479 458
479 475
479 476
479 480
479 482
479 487
479 506
479 507
479 509
479 521
479 523
479 530
479 531
479 548
479 557
479 558
480 409
480 420
480 421
480 433
480 434
480 441
480 449
480 452
480 453
480 458
480 464
480 476
480 479
480 482
480 487
480 493
480 507
480 509
480 521
480 523
480 524
480 530
480 531
480 532
480 557
480 558
480 563
481 399
481 415
481 423
481 428
481 429
481 432
481 436
481 444
481 456
481 457
481 467
481 469
481 472
481 474
481 486
481 494
481 495
481 497
481 498
481 500
481 511
481 514
481 517
481 533
481 541
481 542
481 543
481 546
481 553
482 420
482 421
482 433
482 434
482 441
482 449
482 453
482 458
482 464
482 476
482 479
482 480
482 487
482 493
482 507
482 509
482 523
482 524
482 530
482 531
482 532
482 557
482 558
482 563
483 404
483 422
483 425
483 426
483 440
483 446
483 447
483 459
483 461
483 465
483 477
483 491
483 492
483 496
483 513
483 516
483 520
483 522
483 527
483 528
483 545
483 556
483 559
483 561
484 413
484 414
484 419
484 427
484 438
484 445
484 451
484 454
484 460
484 466
484 471
484 475
484 488
484 504
484 505
484 506
484 508
484 515
484 529
484 536
484 539
484 547
484 555
484 560
484 568
485 410
485 418
485 431
485 434
485 439
485 441
485 448
485 463
485 464
485 476
485 478
485 490
485 493
485 502
485 510
485 512
485 524
485 526
485 532
485 534
485 549
485 552
485 564
485 565
486 423
486 428
486 430
486 432
486 444
486 456
486 457
486 462
486 467
486 469
486 470
486 474
486 481
486 494
486 495
486 497
486 500
486 501
486 511
486 514
486 517
486 518
486 533
486 541
486 542
486 543
486 553
487 409
487 411
487 417
487 424
487 445
487 449
487 452
487 453
487 455
487 458
487 471
487 475
487 479
487 480
487 482
487 505
487 506
487 507
487 509
487 521
487 523
487 530
487 531
487 536
487 548
487 557
488 407
488 413
488 414
488 438
488 445
488 451
488 452
488 454
488 455
488 460
488 466
488 471
488 475
488 484
488 504
488 505
488 506
488 508
488 515
488 521
488 529
488 536
488 539
488 555
489 427
489 437
489 442
489 454
489 460
489 462
489 466
489 470
489 473
489 495
489 501
489 503
489 504
489 508
489 518
489 535
489 537
489 547
489 550
489 551
489 562
490 418
490 431
490 439
490 448
490 463
490 478
490 485
490 502
490 510
490 512
490 526
490 534
490 549
490 566
491 425
491 440
491 443
491 446
491 447
491 450
491 459
491 465
491 468
491 472
491 477
491 483
491 492
491 498
491 499
491 513
491 516
491 519
491 520
491 525
491 527
491 540
491 544
491 545
491 559
491 569
491 571
492 422
492 425
492 440
492 443
492 446
492 447
492 459
492 461
492 465
492 468
492 477
492 483
492 491
492 496
492 499
492 513
492 516
492 519
492 520
492 522
492 527
492 528
492 540
492 544
492 545
492 559
492 561
492 569
493 431
493 433
493 434
493 441
493 448
493 449
493 463
493 464
493 476
493 478
493 480
493 482
493 485
493 502
493 509
493 510
493 512
493 523
493 524
493 532
493 534
493 552
493 563
493 564
493 580
494 423
494 430
494 432
494 437
494 456
494 457
494 462
494 469
494 470
494 473
494 474
494 481
494 486
494 495
494 500
494 501
494 503
494 511
494 514
494 517
494 518
494 533
494 541
494 543
494 550
494 551
494 553
494 572
495 416
495 430
495 432
495 437
495 457
495 462
495 469
495 470
495 473
495 481
495 486
495 489
495 494
495 500
495 501
495 503
495 511
495 514
495 518
495 533
495 537
495 541
495 550
495 551
495 553
495 572
495 574
496 426
496 446
496 447
496 461
496 477
496 483
496 492
496 513
496 520
496 522
496 527
496 528
496 556
496 559
496 561
497 415
497 428
497 429
497 435
497 436
497 444
497 450
497 456
497 457
497 467
497 468
497 472
497 474
497 481
497 486
497 498
497 499
497 500
497 514
497 517
497 525
497 533
497 538
497 542
497 543
497 546
497 553
497 554
497 567
497 583
498 429
498 435
498 436
498 443
498 444
498 450
498 456
498 465
498 467
498 468
498 472
498 474
498 481
498 491
498 497
498 499
498 500
498 516
498 517
498 519
498 525
498 538
498 540
498 542
498 543
498 544
498 546
498 554
498 567
498 576
499 435
499 436
499 440
499 443
499 450
499 459
499 465
499 467
499 468
499 472
499 491
499 492
499 497
499 498
499 516
499 519
499 520
499 525
499 538
499 540
499 544
499 545
499 546
499 554
499 567
499 571
499 576
500 423
500 428
500 432
500 444
500 456
500 457
500 462
500 467
500 469
500 474
500 481
500 486
500 494
500 495
500 497
500 498
500 511
500 514
500 517
500 518
500 533
500 541
500 542
500 543
500 546
500 553
500 577
500 578
501 430
501 432
501 437
501 442
501 457
501 462
501 469
501 470
501 473
501 486
501 489
501 494
501 495
501 503
501 511
501 514
501 518
501 533
501 535
501 537
501 541
501 550
501 551
501 562
501 572
501 574
502 431
502 439
502 448
502 463
502 464
502 478
502 485
502 490
502 493
502 510
502 512
502 526
502 534
502 549
502 552
502 565
502 566
502 579
503 437
503 442
503 462
503 466
503 469
503 470
503 473
503 489
503 494
503 495
503 501
503 504
503 511
503 518
503 535
503 537
503 541
503 547
503 550
503 551
503 562
503 574
504 427
504 438
504 442
504 454
504 460
504 466
504 473
504 484
504 488
504 489
504 503
504 508
504 515
504 529
504 535
504 537
504 539
504 547
504 551
504 560
504 562
504 568
504 575
504 581
505 438
505 445
505 451
505 452
505 455
505 460
505 471
505 475
505 484
505 487
505 488
505 506
505 508
505 515
505 521
505 529
505 536
505 539
505 548
505 555
505 560
505 568
505 570
505 573
505 582
506 445
506 451
506 452
506 453
506 455
506 471
506 475
506 479
506 484
506 487
506 488
506 505
506 507
506 515
506 521
506 529
506 530
506 531
506 536
506 539
506 548
506 555
506 570
506 573
506 582
506 586
507 449
507 452
507 453
507 458
507 475
507 476
507 479
507 480
507 482
507 487
507 506
507 509
507 521
507 523
507 530
507 531
507 532
507 548
507 557
507 558
507 563
507 584
507 586
507 587
507 590
508 438
508 451
508 454
508 460
508 466
508 471
508 484
508 488
508 489
508 504
508 505
508 515
508 529
508 535
508 537
508 539
508 547
508 555
508 560
508 562
508 568
508 575
508 581
508 589
509 433
509 441
509 449
509 458
509 464
509 476
509 479
509 480
509 482
509 487
509 493
509 507
509 512
509 523
509 524
509 530
509 531
509 532
509 557
509 558
509 563
509 564
509 580
509 584
510 431
510 439
510 448
510 463
510 464
510 478
510 485
510 490
510 493
510 502
510 512
510 524
510 526
510 534
510 549
510 552
510 564
510 565
510 566
510 579
510 592
511 430
511 432
511 456
511 457
511 462
511 469
511 470
511 473
511 474
511 481
511 486
511 494
511 495
511 500
511 501
511 503
511 514
511 517
511 518
511 533
511 541
511 542
511 543
511 550
511 551
511 553
511 572
511 574
511 577
511 578
511 593
512 434
512 441
512 448
512 463
512 464
512 476
512 478
512 485
512 490
512 493
512 502
512 509
512 510
512 524
512 526
512 532
512 534
512 549
512 552
512 563
512 564
512 565
512 579
512 580
512 592
513 446
513 447
513 459
513 461
513 477
513 483
513 491
513 492
513 496
513 516
513 520
513 522
513 527
513 528
513 544
513 545
513 556
513 559
513 561
513 569
513 585
514 456
514 457
514 462
514 469
514 470
514 474
514 481
514 486
514 494
514 495
514 497
514 500
514 501
514 511
514 517
514 518
514 533
514 541
514 542
514 543
514 546
514 550
514 553
514 572
514 577
514 578
514 593
515 438
515 445
515 451
515 454
515 460
515 466
515 471
515 484
515 488
515 504
515 505
515 506
515 508
515 529
515 535
515 536
515 539
515 547
515 555
515 560
515 568
515 581
515 582
515 589
516 440
516 443
516 446
516 450
516 459
516 465
516 468
516 472
516 483
516 491
516 492
516 498
516 499
516 513
516 519
516 520
516 525
516 527
516 538
516 540
516 544
516 545
516 554
516 559
516 561
516 569
516 571
516 576
516 585
516 591
517 444
517 456
517 457
517 467
517 469
517 472
517 474
517 481
517 486
517 494
517 497
517 498
517 500
517 511
517 514
517 533
517 538
517 541
517 542
517 543
517 546
517 553
517 567
517 577
517 578
517 583
517 588
517 593
518 457
518 462
518 469
518 470
518 473
518 486
518 489
518 494
518 495
518 500
518 501
518 503
518 511
518 514
518 533
518 535
518 537
518 541
518 550
518 551
518 553
518 562
518 572
518 574
518 578
518 593
519 440
519 443
519 450
519 459
519 465
519 468
519 472
519 491
519 492
519 498
519 499
519 516
519 520
519 525
519 527
519 538
519 540
519 544
519 545
519 546
519 554
519 559
519 567
519 569
519 571
519 576
519 585
519 591
519 594
520 446
520 459
520 465
520 468
520 477
520 483
520 491
520 492
520 496
520 499
520 513
520 516
520 519
520 522
520 525
520 527
520 528
520 540
520 544
520 545
520 556
520 559
520 561
520 569
520 571
520 576
520 585
520 591
521 452
521 453
521 455
521 471
521 475
521 479
521 480
521 487
521 488
521 505
521 506
521 507
521 523
521 529
521 530
521 531
521 536
521 548
521 555
521 557
521 570
521 573
521 586
521 587
521 590
522 447
522 461
522 477
522 483
522 492
522 496
522 513
522 520
522 527
522 528
522 545
522 556
522 559
522 561
522 585
523 449
523 458
523 476
523 479
523 480
523 482
523 487
523 493
523 507
523 509
523 521
523 524
523 530
523 531
523 532
523 557
523 558
523 563
523 564
523 580
523 584
523 587
523 590
524 441
524 464
524 476
524 480
524 482
524 485
524 493
524 509
524 510
524 512
524 523
524 532
524 534
524 552
524 557
524 558
524 563
524 564
524 565
524 580
525 443
525 450
525 465
525 467
525 468
525 472
525 491
525 497
525 498
525 499
525 516
525 519
525 520
525 538
525 540
525 542
525 544
525 545
525 546
525 554
525 567
525 569
525 571
525 576
525 588
525 591
525 594
526 439
526 463
526 478
526 485
526 490
526 502
526 510
526 512
526 534
526 549
526 552
526 565
526 566
526 579
526 592
527 446
527 447
527 459
527 465
527 477
527 483
527 491
527 492
527 496
527 513
527 516
527 519
527 520
527 522
527 528
527 540
527 544
527 545
527 556
527 559
527 561
527 569
527 571
527 585
527 591
528 461
528 477
528 483
528 492
528 496
528 513
528 520
528 522
528 527
528 556
528 559
528 561
529 451
529 460
529 471
529 475
529 484
529 488
529 504
529 505
529 506
529 508
529 515
529 521
529 536
529 539
529 547
529 548
529 555
529 560
529 568
529 570
529 573
529 581
529 582
529 589
530 453
530 458
530 479
530 480
530 482
530 487
530 506
530 507
530 509
530 521
530 523
530 531
530 532
530 536
530 548
530 557
530 558
530 563
530 570
530 573
530 584
530 586
530 587
530 590
531 453
531 458
531 475
531 479
531 480
531 482
531 487
531 506
531 507
531 509
531 521
531 523
531 530
531 536
531 548
531 557
531 558
531 563
531 570
531 573
531 584
531 586
531 587
531 590
532 464
532 476
532 480
532 482
532 485
532 493
532 507
532 509
532 512
532 523
532 524
532 530
532 552
532 557
532 558
532 563
532 564
532 580
532 584
533 457
533 469
533 474
533 481
533 486
533 494
533 495
533 497
533 500
533 501
533 511
533 514
533 517
533 518
533 541
533 542
533 543
533 546
533 550
533 551
533 553
533 572
533 574
533 577
533 578
533 583
533 593
534 463
534 478
534 485
534 490
534 493
534 502
534 510
534 512
534 524
534 526
534 549
534 552
534 564
534 565
534 566
534 579
534 580
534 592
535 466
535 473
535 489
535 501
535 503
535 504
535 508
535 515
535 518
535 537
535 539
535 547
535 550
535 551
535 560
535 562
535 568
535 574
535 575
535 581
535 589
535 595
536 471
536 475
536 484
536 487
536 488
536 505
536 506
536 515
536 521
536 529
536 530
536 531
536 539
536 548
536 555
536 568
536 570
536 573
536 582
536 586
536 590
537 466
537 470
537 473
537 489
537 495
537 501
537 503
537 504
537 508
537 518
537 535
537 541
537 547
537 550
537 551
537 560
537 562
537 572
537 574
537 575
537 581
537 595
538 467
538 468
538 472
538 474
538 497
538 498
538 499
538 516
538 517
538 519
538 525
538 540
538 542
538 543
538 544
538 546
538 553
538 554
538 567
538 571
538 576
538 577
538 583
538 588
538 594
539 471
539 484
539 488
539 504
539 505
539 506
539 508
539 515
539 529
539 535
539 536
539 547
539 555
539 560
539 568
539 570
539 575
539 581
539 582
539 589
540 465
540 468
540 472
540 491
540 492
540 498
540 499
540 516
540 519
540 520
540 525
540 527
540 538
540 544
540 545
540 546
540 554
540 559
540 567
540 569
540 571
540 576
540 585
540 588
540 591
540 594
541 462
541 469
541 470
541 481
541 486
541 494
541 495
541 500
541 501
541 503
541 511
541 514
541 517
541 518
541 533
541 537
541 542
541 543
541 550
541 551
541 553
541 572
541 574
541 577
541 578
541 593
542 467
542 474
542 481
542 486
542 497
542 498
542 500
542 511
542 514
542 517
542 525
542 533
542 538
542 541
542 543
542 546
542 553
542 554
542 567
542 577
542 578
542 583
542 588
542 593
543 467
543 474
543 481
543 486
543 494
543 497
543 498
543 500
543 511
543 514
543 517
543 533
543 538
543 541
543 542
543 546
543 553
543 567
543 572
543 577
543 578
543 583
543 588
543 593
544 465
544 468
544 491
544 492
544 498
544 499
544 513
544 516
544 519
544 520
544 525
544 527
544 538
544 540
544 545
544 554
544 559
544 561
544 567
544 569
544 571
544 576
544 585
544 591
544 594
545 465
545 483
545 491
545 492
545 499
545 513
545 516
545 519
545 520
545 522
545 525
545 527
545 540
545 544
545 554
545 559
545 561
545 569
545 571
545 576
545 585
545 591
545 594
546 467
546 472
546 474
546 481
546 497
546 498
546 499
546 500
546 514
546 517
546 519
546 525
546 533
546 538
546 540
546 542
546 543
546 553
546 554
546 567
546 576
546 577
546 578
546 583
546 588
546 594
547 466
547 484
547 489
547 503
547 504
547 508
547 515
547 529
547 535
547 537
547 539
547 551
547 555
547 560
547 562
547 568
547 575
547 581
547 582
547 589
547 595
548 475
548 479
548 487
548 505
548 506
548 507
548 521
548 529
548 530
548 531
548 536
548 555
548 557
548 570
548 573
548 582
548 584
548 586
548 587
548 590
549 463
549 478
549 485
549 490
549 502
549 510
549 512
549 526
549 534
549 552
549 564
549 565
549 566
549 579
549 592
550 470
550 473
550 489
550 494
550 495
550 501
550 503
550 511
550 514
550 518
550 533
550 535
550 537
550 541
550 551
550 553
550 562
550 572
550 574
550 575
550 578
550 593
550 595
551 470
551 473
551 489
551 494
551 495
551 501
551 503
551 504
551 511
551 518
551 533
551 535
551 537
551 541
551 547
551 550
551 562
551 572
551 574
551 575
551 581
551 595
552 464
552 485
552 493
552 502
552 510
552 512
552 524
552 526
552 532
552 534
552 549
552 563
552 564
552 565
552 566
552 579
552 580
552 592
553 481
553 486
553 494
553 495
553 497
553 500
553 511
553 514
553 517
553 518
553 533
553 538
553 541
553 542
553 543
553 546
553 550
553 572
553 574
553 577
553 578
553 583
553 588
553 593
554 468
554 472
554 497
554 498
554 499
554 516
554 519
554 525
554 538
554 540
554 542
554 544
554 545
554 546
554 567
554 569
554 571
554 576
554 583
554 588
554 591
554 594
555 471
555 484
555 488
555 505
555 506
555 508
555 515
555 521
555 529
555 536
555 539
555 547
555 548
555 560
555 568
555 570
555 573
555 581
555 582
555 589
556 477
556 483
556 496
556 513
556 520
556 522
556 527
556 528
556 559
556 561
556 585
557 479
557 480
557 482
557 487
557 507
557 509
557 521
557 523
557 524
557 530
557 531
557 532
557 548
557 558
557 563
557 564
557 573
557 580
557 584
557 586
557 587
557 590
558 476
558 479
558 480
558 482
558 507
558 509
558 523
558 524
558 530
558 531
558 532
558 557
558 563
558 564
558 580
558 584
558 586
558 587
558 590
559 483
559 491
559 492
559 496
559 513
559 516
559 519
559 520
559 522
559 527
559 528
559 540
559 544
559 545
559 556
559 561
559 569
559 571
559 576
559 585
559 591
560 484
560 504
560 505
560 508
560 515
560 529
560 535
560 537
560 539
560 547
560 555
560 562
560 568
560 575
560 581
560 582
560 589
560 595
561 477
561 483
561 492
561 496
561 513
561 516
561 520
561 522
561 527
561 528
561 544
561 545
561 556
561 559
561 569
561 571
561 585
561 591
562 489
562 501
562 503
562 504
562 508
562 518
562 535
562 537
562 547
562 550
562 551
562 560
562 568
562 574
562 575
562 581
562 589
562 595
563 476
563 480
563 482
563 493
563 507
563 509
563 512
563 523
563 524
563 530
563 531
563 532
563 552
563 557
563 558
563 564
563 580
563 584
563 587
564 485
564 493
564 509
564 510
564 512
564 523
564 524
564 532
564 534
564 549
564 552
564 557
564 558
564 563
564 565
564 579
564 580
564 584
564 592
565 485
565 502
565 510
565 512
565 524
565 526
565 534
565 549
565 552
565 564
565 566
565 579
565 580
565 592
566 490
566 502
566 510
566 526
566 534
566 549
566 552
566 565
566 579
566 592
567 497
567 498
567 499
567 517
567 519
567 525
567 538
567 540
567 542
567 543
567 544
567 546
567 554
567 569
567 571
567 576
567 577
567 583
567 588
567 594
568 484
568 504
568 505
568 508
568 515
568 529
568 535
568 536
568 539
568 547
568 555
568 560
568 562
568 570
568 575
568 581
568 582
568 589
569 491
569 492
569 513
569 516
569 519
569 520
569 525
569 527
569 540
569 544
569 545
569 554
569 559
569 561
569 567
569 571
569 576
569 585
569 591
569 594
570 505
570 506
570 521
570 529
570 530
570 531
570 536
570 539
570 548
570 555
570 568
570 573
570 582
570 586
570 587
570 590
571 491
571 499
571 516
571 519
571 520
571 525
571 527
571 538
571 540
571 544
571 545
571 554
571 559
571 561
571 567
571 569
571 576
571 585
571 591
571 594
572 494
572 495
572 501
572 511
572 514
572 518
572 533
572 537
572 541
572 543
572 550
572 551
572 553
572 574
572 577
572 578
572 593
573 505
573 506
573 521
573 529
573 530
573 531
573 536
573 548
573 555
573 557
573 570
573 582
573 584
573 586
573 587
573 590
574 495
574 501
574 503
574 511
574 518
574 533
574 535
574 537
574 541
574 550
574 551
574 553
574 562
574 572
574 575
574 578
574 593
574 595
575 504
575 508
575 535
575 537
575 539
575 547
575 550
575 551
575 560
575 562
575 568
575 574
575 581
575 589
575 595
576 498
576 499
576 516
576 519
576 520
576 525
576 538
576 540
576 544
576 545
576 546
576 554
576 559
576 567
576 569
576 571
576 583
576 585
576 588
576 591
576 594
577 500
577 511
577 514
577 517
577 533
577 538
577 541
577 542
577 543
577 546
577 553
577 567
577 572
577 578
577 583
577 588
577 593
578 500
578 511
578 514
578 517
578 518
578 533
578 541
578 542
578 543
578 546
578 550
578 553
578 572
578 574
578 577
578 583
578 588
578 593
579 502
579 510
579 512
579 526
579 534
579 549
579 552
579 564
579 565
579 566
579 592
580 493
580 509
580 512
580 523
580 524
580 532
580 534
580 552
580 557
580 558
580 563
580 564
580 565
580 584
580 592
581 504
581 508
581 515
581 529
581 535
581 537
581 539
581 547
581 551
581 555
581 560
581 562
581 568
581 575
581 589
581 595
582 505
582 506
582 515
582 529
582 536
582 539
582 547
582 548
582 555
582 560
582 568
582 570
582 573
582 586
582 589
583 497
583 517
583 533
583 538
583 542
583 543
583 546
583 553
583 554
583 567
583 576
583 577
583 578
583 588
583 593
583 594
584 507
584 509
584 523
584 530
584 531
584 532
584 548
584 557
584 558
584 563
584 564
584 573
584 580
584 586
584 587
584 590
585 513
585 516
585 519
585 520
585 522
585 527
585 540
585 544
585 545
585 556
585 559
585 561
585 569
585 571
585 576
585 591
585 594
586 506
586 507
586 521
586 530
586 531
586 536
586 548
586 557
586 558
586 570
586 573
586 582
586 584
586 587
586 590
587 507
587 521
587 523
587 530
587 531
587 548
587 557
587 558
587 563
587 570
587 573
587 584
587 586
587 590
588 517
588 525
588 538
588 540
588 542
588 543
588 546
588 553
588 554
588 567
588 576
588 577
588 578
588 583
588 594
589 508
589 515
589 529
589 535
589 539
589 547
589 555
589 560
589 562
589 568
589 575
589 581
589 582
589 595
590 507
590 521
590 523
590 530
590 531
590 536
590 548
590 557
590 558
590 570
590 573
590 584
590 586
590 587
591 516
591 519
591 520
591 525
591 527
591 540
591 544
591 545
591 554
591 559
591 561
591 569
591 571
591 576
591 585
591 594
592 510
592 512
592 526
592 534
592 549
592 552
592 564
592 565
592 566
592 579
592 580
593 511
593 514
593 517
593 518
593 533
593 541
593 542
593 543
593 550
593 553
593 572
593 574
593 577
593 578
593 583
594 519
594 525
594 538
594 540
594 544
594 545
594 546
594 554
594 567
594 569
594 571
594 576
594 583
594 585
594 588
594 591
595 535
595 537
595 547
595 550
595 551
595 560
595 562
595 574
595 575
595 581
595 589
