1 7
1 16
1 20
1 29
1 31
2 5
2 13
2 17
2 21
2 22
2 34
2 37
3 4
3 8
3 15
3 18
3 32
3 33
3 39
4 3
4 6
4 8
4 18
4 23
4 25
4 32
5 2
5 17
5 21
5 34
5 40
6 4
6 10
6 18
6 23
6 25
6 52
7 1
7 19
7 20
7 29
7 42
7 48
8 3
8 4
8 15
8 18
8 32
8 33
8 39
8 44
9 14
9 41
9 45
9 47
10 6
10 19
10 23
10 25
10 36
10 52
10 54
11 24
11 28
11 55
12 27
12 30
12 35
12 51
12 57
13 2
13 17
13 22
13 28
13 34
13 37
13 43
13 59
14 9
14 27
14 30
14 45
14 47
14 53
15 3
15 8
15 32
15 33
15 39
15 56
15 58
16 1
16 20
16 31
16 38
16 46
16 61
17 2
17 5
17 13
17 21
17 22
17 34
17 37
17 40
17 43
17 59
18 3
18 4
18 6
18 8
18 23
18 25
18 32
18 39
18 44
18 49
19 7
19 10
19 23
19 36
19 42
19 54
19 63
20 1
20 7
20 16
20 29
20 31
20 38
20 42
20 46
20 48
20 61
21 2
21 5
21 17
21 34
21 37
21 40
21 41
21 60
21 68
22 2
22 13
22 17
22 28
22 37
22 43
22 59
22 65
23 4
23 6
23 10
23 18
23 19
23 25
23 36
23 49
23 52
23 54
24 11
24 26
24 28
24 50
24 55
25 4
25 6
25 10
25 18
25 23
25 44
25 49
25 52
25 54
25 69
26 24
26 50
27 12
27 14
27 30
27 35
27 45
27 51
27 53
27 57
28 11
28 13
28 22
28 24
28 43
28 55
28 65
29 1
29 7
29 20
29 31
29 42
29 48
29 61
29 62
29 70
30 12
30 14
30 27
30 35
30 45
30 47
30 51
30 53
30 57
30 71
30 74
31 1
31 16
31 20
31 29
31 38
31 46
31 48
31 61
31 70
32 3
32 4
32 8
32 15
32 18
32 33
32 39
32 44
32 49
32 56
32 58
32 64
32 69
33 3
33 8
33 15
33 32
33 39
33 44
33 56
33 58
33 64
33 72
34 2
34 5
34 13
34 17
34 21
34 37
34 40
34 41
34 59
34 60
34 67
34 68
35 12
35 27
35 30
35 51
35 53
35 56
35 57
35 76
36 10
36 19
36 23
36 42
36 52
36 54
36 63
36 73
37 2
37 13
37 17
37 21
37 22
37 34
37 40
37 43
37 59
37 60
37 65
37 67
38 16
38 20
38 31
38 46
38 61
38 82
39 3
39 8
39 15
39 18
39 32
39 33
39 44
39 49
39 56
39 58
39 64
39 72
39 77
39 87
40 5
40 17
40 21
40 34
40 37
40 41
40 60
40 67
40 68
41 9
41 21
41 34
41 40
41 47
41 60
41 66
41 68
41 75
42 7
42 19
42 20
42 29
42 36
42 48
42 62
42 63
42 70
42 84
43 13
43 17
43 22
43 28
43 37
43 55
43 59
43 65
43 79
43 85
43 92
44 8
44 18
44 25
44 32
44 33
44 39
44 49
44 58
44 64
44 69
44 77
44 80
44 87
45 9
45 14
45 27
45 30
45 47
45 51
45 53
45 66
45 71
45 74
45 75
45 88
45 90
46 16
46 20
46 31
46 38
46 48
46 61
46 70
46 82
47 9
47 14
47 30
47 41
47 45
47 53
47 66
47 71
47 74
47 75
47 88
47 90
48 7
48 20
48 29
48 31
48 42
48 46
48 61
48 62
48 70
48 84
48 94
49 18
49 23
49 25
49 32
49 39
49 44
49 52
49 64
49 69
49 80
49 86
50 24
50 26
50 55
50 78
50 83
50 91
51 12
51 27
51 30
51 35
51 45
51 53
51 57
51 71
51 74
51 76
51 81
51 95
51 97
51 100
52 6
52 10
52 23
52 25
52 36
52 49
52 54
52 63
52 69
52 73
52 80
52 86
52 89
53 14
53 27
53 30
53 35
53 45
53 47
53 51
53 57
53 71
53 74
53 76
53 88
53 90
53 97
54 10
54 19
54 23
54 25
54 36
54 52
54 63
54 73
54 86
54 89
54 96
55 11
55 24
55 28
55 43
55 50
55 65
55 79
55 85
55 91
55 105
56 15
56 32
56 33
56 35
56 39
56 57
56 58
56 64
56 72
56 77
56 81
56 103
57 12
57 27
57 30
57 35
57 51
57 53
57 56
57 76
57 81
57 95
57 97
57 100
58 15
58 32
58 33
58 39
58 44
58 56
58 64
58 69
58 72
58 77
58 87
58 103
58 104
59 13
59 17
59 22
59 34
59 37
59 43
59 60
59 65
59 67
59 85
59 92
59 93
59 98
59 108
60 21
60 34
60 37
60 40
60 41
60 59
60 67
60 68
60 93
60 101
61 16
61 20
61 29
61 31
61 38
61 46
61 48
61 62
61 70
61 82
61 84
61 94
62 29
62 42
62 48
62 61
62 63
62 70
62 84
62 94
62 106
63 19
63 36
63 42
63 52
63 54
63 62
63 73
63 89
63 96
63 106
64 32
64 33
64 39
64 44
64 49
64 56
64 58
64 69
64 72
64 77
64 80
64 87
64 102
64 104
64 109
65 22
65 28
65 37
65 43
65 55
65 59
65 79
65 85
65 92
65 98
65 105
66 41
66 45
66 47
66 68
66 71
66 75
66 88
66 90
66 99
66 112
67 34
67 37
67 40
67 59
67 60
67 68
67 92
67 93
67 101
67 108
67 115
68 21
68 34
68 40
68 41
68 60
68 66
68 67
68 93
68 99
68 101
68 123
69 25
69 32
69 44
69 49
69 52
69 58
69 64
69 77
69 80
69 86
69 87
69 89
69 102
69 109
69 111
70 29
70 31
70 42
70 46
70 48
70 61
70 62
70 82
70 84
70 94
70 117
71 30
71 45
71 47
71 51
71 53
71 66
71 74
71 75
71 76
71 88
71 90
71 97
71 120
71 124
72 33
72 39
72 56
72 58
72 64
72 77
72 81
72 87
72 103
72 104
72 109
73 36
73 52
73 54
73 63
73 86
73 89
73 96
73 106
73 116
73 119
74 30
74 45
74 47
74 51
74 53
74 71
74 75
74 76
74 88
74 90
74 95
74 97
74 100
74 120
74 124
75 41
75 45
75 47
75 66
75 71
75 74
75 88
75 90
75 99
75 112
75 120
75 121
75 134
76 35
76 51
76 53
76 57
76 71
76 74
76 81
76 90
76 95
76 97
76 100
76 118
76 124
76 126
76 128
77 39
77 44
77 56
77 58
77 64
77 69
77 72
77 87
77 102
77 103
77 104
77 109
77 131
77 135
78 50
78 83
78 91
78 107
78 110
78 114
78 132
79 43
79 55
79 65
79 85
79 91
79 98
79 105
79 127
79 130
79 138
80 44
80 49
80 52
80 64
80 69
80 86
80 87
80 89
80 102
80 109
80 111
80 116
80 141
81 51
81 56
81 57
81 72
81 76
81 95
81 97
81 100
81 103
81 118
81 126
81 128
82 38
82 46
82 61
82 70
82 94
82 113
82 137
83 50
83 78
83 91
83 107
83 110
83 114
83 132
83 136
83 140
84 42
84 48
84 61
84 62
84 70
84 94
84 106
84 117
84 122
85 43
85 55
85 59
85 65
85 79
85 92
85 98
85 105
85 108
85 125
85 127
86 49
86 52
86 54
86 69
86 73
86 80
86 89
86 96
86 102
86 111
86 116
86 141
87 39
87 44
87 58
87 64
87 69
87 72
87 77
87 80
87 102
87 103
87 104
87 109
87 111
87 131
87 135
88 45
88 47
88 53
88 66
88 71
88 74
88 75
88 90
88 97
88 112
88 120
88 121
88 124
88 134
89 52
89 54
89 63
89 69
89 73
89 80
89 86
89 96
89 102
89 106
89 111
89 116
89 119
90 45
90 47
90 53
90 66
90 71
90 74
90 75
90 76
90 88
90 97
90 100
90 112
90 120
90 124
90 134
91 50
91 55
91 78
91 79
91 83
91 105
91 107
91 114
91 130
91 136
91 138
91 140
92 43
92 59
92 65
92 67
92 85
92 93
92 98
92 108
92 115
92 125
92 127
92 129
92 149
93 59
93 60
93 67
93 68
93 92
93 98
93 101
93 108
93 115
93 123
93 125
93 129
94 48
94 61
94 62
94 70
94 82
94 84
94 113
94 117
94 137
94 142
95 51
95 57
95 74
95 76
95 81
95 97
95 100
95 103
95 118
95 124
95 126
95 128
95 143
96 54
96 63
96 73
96 86
96 89
96 106
96 116
96 119
96 148
96 151
97 51
97 53
97 57
97 71
97 74
97 76
97 81
97 88
97 90
97 95
97 100
97 118
97 120
97 124
97 126
97 128
97 154
97 155
98 59
98 65
98 79
98 85
98 92
98 93
98 105
98 108
98 115
98 125
98 127
98 138
98 149
98 158
99 66
99 68
99 75
99 101
99 112
99 121
99 123
99 133
99 144
99 146
100 51
100 57
100 74
100 76
100 81
100 90
100 95
100 97
100 118
100 124
100 126
100 128
100 143
100 154
101 60
101 67
101 68
101 93
101 99
101 108
101 115
101 121
101 123
101 129
101 133
101 146
102 64
102 69
102 77
102 80
102 86
102 87
102 89
102 104
102 109
102 111
102 135
102 141
102 147
102 150
103 56
103 58
103 72
103 77
103 81
103 87
103 95
103 104
103 109
103 118
103 131
103 135
103 143
104 58
104 64
104 72
104 77
104 87
104 102
104 103
104 109
104 131
104 135
104 150
104 160
105 55
105 65
105 79
105 85
105 91
105 98
105 107
105 114
105 127
105 130
105 136
105 138
105 156
106 62
106 63
106 73
106 84
106 89
106 96
106 116
106 117
106 119
106 122
106 139
106 148
106 151
107 78
107 83
107 91
107 105
107 110
107 114
107 130
107 132
107 136
107 138
107 140
107 145
107 164
108 59
108 67
108 85
108 92
108 93
108 98
108 101
108 115
108 123
108 125
108 127
108 129
108 149
108 157
108 158
108 159
109 64
109 69
109 72
109 77
109 80
109 87
109 102
109 103
109 104
109 111
109 131
109 135
109 147
109 150
109 160
110 78
110 83
110 107
110 114
110 132
110 136
110 140
110 145
110 169
111 69
111 80
111 86
111 87
111 89
111 102
111 109
111 116
111 141
111 147
111 150
111 153
111 167
112 66
112 75
112 88
112 90
112 99
112 120
112 121
112 133
112 134
112 144
112 152
112 163
113 82
113 94
113 117
113 137
113 142
113 161
113 168
114 78
114 83
114 91
114 105
114 107
114 110
114 130
114 132
114 136
114 138
114 140
114 145
114 164
114 173
115 67
115 92
115 93
115 98
115 101
115 108
115 123
115 125
115 129
115 133
115 146
115 149
115 157
115 159
116 73
116 80
116 86
116 89
116 96
116 106
116 111
116 119
116 141
116 148
116 151
116 153
117 70
117 84
117 94
117 106
117 113
117 122
117 137
117 139
117 142
117 161
117 162
118 76
118 81
118 95
118 97
118 100
118 103
118 126
118 128
118 131
118 143
118 154
118 174
118 176
119 73
119 89
119 96
119 106
119 116
119 122
119 139
119 148
119 151
119 153
120 71
120 74
120 75
120 88
120 90
120 97
120 112
120 121
120 124
120 134
120 152
120 155
120 163
120 175
121 75
121 88
121 99
121 101
121 112
121 120
121 123
121 133
121 134
121 144
121 146
121 163
121 165
121 177
122 84
122 106
122 117
122 119
122 139
122 142
122 148
122 162
122 171
123 68
123 93
123 99
123 101
123 108
123 115
123 121
123 129
123 133
123 144
123 146
123 157
123 159
123 165
123 172
124 71
124 74
124 76
124 88
124 90
124 95
124 97
124 100
124 120
124 126
124 128
124 134
124 152
124 154
124 155
125 85
125 92
125 93
125 98
125 108
125 115
125 127
125 129
125 149
125 156
125 157
125 158
125 159
125 170
126 76
126 81
126 95
126 97
126 100
126 118
126 124
126 128
126 143
126 152
126 154
126 155
126 174
127 79
127 85
127 92
127 98
127 105
127 108
127 125
127 130
127 138
127 149
127 156
127 157
127 158
127 166
127 170
128 76
128 81
128 95
128 97
128 100
128 118
128 124
128 126
128 143
128 154
128 155
128 174
128 176
129 92
129 93
129 101
129 108
129 115
129 123
129 125
129 133
129 146
129 149
129 157
129 159
129 165
129 172
130 79
130 91
130 105
130 107
130 114
130 127
130 136
130 138
130 140
130 156
130 164
130 166
130 170
131 77
131 87
131 103
131 104
131 109
131 118
131 135
131 143
131 150
131 160
131 187
132 78
132 83
132 107
132 110
132 114
132 136
132 140
132 145
132 164
132 169
132 173
133 99
133 101
133 112
133 115
133 121
133 123
133 129
133 144
133 146
133 159
133 163
133 165
133 172
133 177
134 75
134 88
134 90
134 112
134 120
134 121
134 124
134 144
134 152
134 155
134 163
134 175
134 177
134 185
135 77
135 87
135 102
135 103
135 104
135 109
135 131
135 147
135 150
135 160
135 180
135 187
135 189
136 83
136 91
136 105
136 107
136 110
136 114
136 130
136 132
136 138
136 140
136 145
136 156
136 164
136 166
136 173
136 184
137 82
137 94
137 113
137 117
137 142
137 161
137 168
137 179
137 188
137 192
138 79
138 91
138 98
138 105
138 107
138 114
138 127
138 130
138 136
138 140
138 156
138 158
138 164
138 166
138 170
138 191
139 106
139 117
139 119
139 122
139 142
139 148
139 151
139 162
139 171
139 186
140 83
140 91
140 107
140 110
140 114
140 130
140 132
140 136
140 138
140 145
140 164
140 166
140 169
140 173
140 184
140 196
141 80
141 86
141 102
141 111
141 116
141 147
141 150
141 151
141 153
141 167
141 178
141 180
141 194
142 94
142 113
142 117
142 122
142 137
142 139
142 161
142 162
142 168
142 171
142 179
142 188
142 198
143 95
143 100
143 103
143 118
143 126
143 128
143 131
143 154
143 174
143 176
143 183
143 190
144 99
144 112
144 121
144 123
144 133
144 134
144 146
144 163
144 165
144 172
144 175
144 177
144 185
144 207
145 107
145 110
145 114
145 132
145 136
145 140
145 164
145 169
145 173
145 184
145 196
145 206
146 99
146 101
146 115
146 121
146 123
146 129
146 133
146 144
146 157
146 159
146 165
146 172
146 177
146 202
146 205
147 102
147 109
147 111
147 135
147 141
147 150
147 153
147 160
147 167
147 180
147 189
147 194
148 96
148 106
148 116
148 119
148 122
148 139
148 151
148 153
148 162
148 171
148 178
148 186
148 200
149 92
149 98
149 108
149 115
149 125
149 127
149 129
149 156
149 157
149 158
149 159
149 170
149 182
149 193
150 102
150 104
150 109
150 111
150 131
150 135
150 141
150 147
150 160
150 167
150 180
150 187
150 189
150 194
151 96
151 106
151 116
151 119
151 139
151 141
151 148
151 153
151 167
151 171
151 178
151 186
151 199
151 200
152 112
152 120
152 124
152 126
152 134
152 154
152 155
152 163
152 175
152 181
152 183
152 185
152 201
152 204
153 111
153 116
153 119
153 141
153 147
153 148
153 151
153 167
153 178
153 199
153 200
154 97
154 100
154 118
154 124
154 126
154 128
154 143
154 152
154 155
154 174
154 176
154 181
154 183
154 190
154 201
155 97
155 120
155 124
155 126
155 128
155 134
155 152
155 154
155 174
155 175
155 181
155 183
155 190
155 201
156 105
156 125
156 127
156 130
156 136
156 138
156 149
156 158
156 164
156 166
156 170
156 191
156 193
156 211
157 108
157 115
157 123
157 125
157 127
157 129
157 146
157 149
157 158
157 159
157 170
157 172
157 182
157 203
158 98
158 108
158 125
158 127
158 138
158 149
158 156
158 157
158 159
158 166
158 170
158 182
158 193
158 211
159 108
159 115
159 123
159 125
159 129
159 133
159 146
159 149
159 157
159 158
159 165
159 172
159 182
159 202
159 203
160 104
160 109
160 131
160 135
160 147
160 150
160 180
160 187
160 189
161 113
161 117
161 137
161 142
161 162
161 168
161 179
161 188
161 192
161 198
161 215
162 117
162 122
162 139
162 142
162 148
162 161
162 171
162 179
162 186
162 188
162 197
162 198
163 112
163 120
163 121
163 133
163 134
163 144
163 152
163 165
163 175
163 177
163 185
163 204
163 207
163 212
164 107
164 114
164 130
164 132
164 136
164 138
164 140
164 145
164 156
164 166
164 169
164 173
164 184
164 191
164 196
164 218
164 219
165 121
165 123
165 129
165 133
165 144
165 146
165 159
165 163
165 172
165 177
165 185
165 202
165 205
165 207
166 127
166 130
166 136
166 138
166 140
166 156
166 158
166 164
166 170
166 173
166 184
166 191
166 193
166 196
166 211
166 218
167 111
167 141
167 147
167 150
167 151
167 153
167 178
167 180
167 194
167 199
167 208
168 113
168 137
168 142
168 161
168 179
168 188
168 192
168 195
168 215
169 110
169 132
169 140
169 145
169 164
169 173
169 184
169 196
169 206
169 219
169 227
170 125
170 127
170 130
170 138
170 149
170 156
170 157
170 158
170 166
170 182
170 191
170 193
170 211
170 214
170 222
171 122
171 139
171 142
171 148
171 151
171 162
171 179
171 186
171 197
171 198
171 200
171 221
171 224
172 123
172 129
172 133
172 144
172 146
172 157
172 159
172 165
172 177
172 202
172 203
172 205
172 207
173 114
173 132
173 136
173 140
173 145
173 164
173 166
173 169
173 184
173 191
173 196
173 206
173 218
173 219
174 118
174 126
174 128
174 143
174 154
174 155
174 176
174 181
174 183
174 190
174 201
174 209
174 210
174 217
175 120
175 134
175 144
175 152
175 155
175 163
175 177
175 181
175 185
175 201
175 204
175 212
175 213
175 233
175 234
176 118
176 128
176 143
176 154
176 174
176 183
176 187
176 190
176 209
176 210
176 217
176 230
177 121
177 133
177 134
177 144
177 146
177 163
177 165
177 172
177 175
177 185
177 202
177 204
177 205
177 207
177 212
177 229
178 141
178 148
178 151
178 153
178 167
178 186
178 194
178 199
178 200
178 208
178 223
179 137
179 142
179 161
179 162
179 168
179 171
179 188
179 192
179 197
179 198
179 215
179 221
179 225
180 135
180 141
180 147
180 150
180 160
180 167
180 187
180 189
180 194
180 208
180 216
180 220
180 226
181 152
181 154
181 155
181 174
181 175
181 183
181 190
181 201
181 204
181 213
181 217
181 234
181 238
181 239
182 149
182 157
182 158
182 159
182 170
182 193
182 203
182 211
182 214
182 222
182 235
182 241
183 143
183 152
183 154
183 155
183 174
183 176
183 181
183 190
183 201
183 209
183 210
183 213
183 217
183 239
183 244
184 136
184 140
184 145
184 164
184 166
184 169
184 173
184 191
184 196
184 206
184 218
184 219
184 231
184 240
184 242
185 134
185 144
185 152
185 163
185 165
185 175
185 177
185 204
185 205
185 207
185 212
185 213
185 229
185 233
185 237
186 139
186 148
186 151
186 162
186 171
186 178
186 197
186 198
186 200
186 221
186 223
186 224
187 131
187 135
187 150
187 160
187 176
187 180
187 189
187 209
187 210
187 216
187 226
188 137
188 142
188 161
188 162
188 168
188 179
188 192
188 195
188 198
188 215
188 225
189 135
189 147
189 150
189 160
189 180
189 187
189 194
189 216
189 220
189 226
189 248
190 143
190 154
190 155
190 174
190 176
190 181
190 183
190 201
190 209
190 210
190 217
190 230
190 239
190 243
190 244
191 138
191 156
191 164
191 166
191 170
191 173
191 184
191 193
191 196
191 211
191 218
191 219
191 231
191 236
191 242
192 137
192 161
192 168
192 179
192 188
192 195
192 215
193 149
193 156
193 158
193 166
193 170
193 182
193 191
193 211
193 214
193 222
193 231
193 236
193 241
193 249
194 141
194 147
194 150
194 167
194 178
194 180
194 189
194 199
194 208
194 220
194 226
194 232
195 168
195 188
195 192
195 215
196 140
196 145
196 164
196 166
196 169
196 173
196 184
196 191
196 206
196 218
196 219
196 227
196 231
196 240
196 242
197 162
197 171
197 179
197 186
197 198
197 200
197 221
197 224
197 225
197 247
198 142
198 161
198 162
198 171
198 179
198 186
198 188
198 197
198 215
198 221
198 224
198 225
198 247
198 250
199 151
199 153
199 167
199 178
199 194
199 200
199 208
199 220
199 223
199 232
199 258
200 148
200 151
200 153
200 171
200 178
200 186
200 197
200 199
200 221
200 223
200 224
200 245
201 152
201 154
201 155
201 174
201 175
201 181
201 183
201 190
201 204
201 210
201 213
201 217
201 234
201 238
201 239
201 244
202 146
202 159
202 165
202 172
202 177
202 203
202 205
202 207
202 228
202 229
202 235
202 246
202 251
202 257
203 157
203 159
203 172
203 182
203 202
203 205
203 214
203 228
203 235
203 241
203 251
204 152
204 163
204 175
204 177
204 181
204 185
204 201
204 207
204 212
204 213
204 233
204 234
204 237
204 238
204 254
204 259
205 146
205 165
205 172
205 177
205 185
205 202
205 203
205 207
205 212
205 228
205 229
205 246
205 252
205 257
206 145
206 169
206 173
206 184
206 196
206 218
206 219
206 227
206 240
207 144
207 163
207 165
207 172
207 177
207 185
207 202
207 204
207 205
207 212
207 228
207 229
207 233
207 237
207 246
207 252
207 254
208 167
208 178
208 180
208 194
208 199
208 220
208 223
208 226
208 232
208 255
208 258
209 174
209 176
209 183
209 187
209 190
209 210
209 216
209 217
209 230
209 243
209 244
209 253
210 174
210 176
210 183
210 187
210 190
210 201
210 209
210 216
210 217
210 230
210 239
210 243
210 244
210 253
211 156
211 158
211 166
211 170
211 182
211 191
211 193
211 214
211 218
211 222
211 231
211 236
211 241
211 249
211 261
212 163
212 175
212 177
212 185
212 204
212 205
212 207
212 213
212 229
212 233
212 234
212 237
212 246
212 252
212 254
213 175
213 181
213 183
213 185
213 201
213 204
213 212
213 217
213 233
213 234
213 237
213 238
213 239
213 259
213 263
214 170
214 182
214 193
214 203
214 211
214 222
214 235
214 241
214 249
214 251
214 268
214 269
215 161
215 168
215 179
215 188
215 192
215 195
215 198
215 225
215 250
216 180
216 187
216 189
216 209
216 210
216 220
216 226
216 230
216 248
216 260
216 267
217 174
217 176
217 181
217 183
217 190
217 201
217 209
217 210
217 213
217 230
217 238
217 239
217 243
217 244
217 253
217 270
218 164
218 166
218 173
218 184
218 191
218 196
218 206
218 211
218 219
218 227
218 231
218 236
218 240
218 242
218 261
218 262
218 272
219 164
219 169
219 173
219 184
219 191
219 196
219 206
219 218
219 227
219 231
219 240
219 242
219 262
219 266
219 272
220 180
220 189
220 194
220 199
220 208
220 216
220 226
220 232
220 248
220 255
220 258
220 264
221 171
221 179
221 186
221 197
221 198
221 200
221 224
221 225
221 245
221 247
221 250
221 256
221 280
222 170
222 182
222 193
222 211
222 214
222 231
222 235
222 236
222 241
222 249
222 261
222 268
222 269
222 273
223 178
223 186
223 199
223 200
223 208
223 224
223 232
223 245
223 255
223 256
223 258
223 265
223 271
224 171
224 186
224 197
224 198
224 200
224 221
224 223
224 225
224 245
224 247
224 250
224 256
224 283
225 179
225 188
225 197
225 198
225 215
225 221
225 224
225 247
225 250
225 256
225 280
225 282
226 180
226 187
226 189
226 194
226 208
226 216
226 220
226 232
226 248
226 255
226 260
226 264
226 278
227 169
227 196
227 206
227 218
227 219
227 240
227 242
227 266
228 202
228 203
228 205
228 207
228 229
228 235
228 246
228 251
228 252
228 257
228 268
228 274
228 288
229 177
229 185
229 202
229 205
229 207
229 212
229 228
229 233
229 237
229 246
229 252
229 254
229 257
229 274
229 275
229 276
230 176
230 190
230 209
230 210
230 216
230 217
230 239
230 243
230 244
230 253
230 267
230 270
230 279
231 184
231 191
231 193
231 196
231 211
231 218
231 219
231 222
231 236
231 240
231 242
231 249
231 261
231 262
231 272
231 273
231 286
232 194
232 199
232 208
232 220
232 223
232 226
232 248
232 255
232 258
232 264
232 271
232 281
233 175
233 185
233 204
233 207
233 212
233 213
233 229
233 234
233 237
233 238
233 252
233 254
233 259
233 263
233 276
233 291
234 175
234 181
234 201
234 204
234 212
234 213
234 233
234 237
234 238
234 239
234 244
234 254
234 259
234 263
234 276
234 277
234 291
235 182
235 202
235 203
235 214
235 222
235 228
235 241
235 249
235 251
235 257
235 268
235 269
235 287
235 294
236 191
236 193
236 211
236 218
236 222
236 231
236 241
236 242
236 249
236 261
236 262
236 272
236 273
236 286
236 297
237 185
237 204
237 207
237 212
237 213
237 229
237 233
237 234
237 246
237 252
237 254
237 259
237 274
237 275
237 276
237 291
238 181
238 201
238 204
238 213
238 217
238 233
238 234
238 239
238 243
238 244
238 259
238 263
238 270
238 277
238 296
239 181
239 183
239 190
239 201
239 210
239 213
239 217
239 230
239 234
239 238
239 243
239 244
239 259
239 263
239 270
239 277
239 296
240 184
240 196
240 206
240 218
240 219
240 227
240 231
240 242
240 261
240 262
240 266
240 272
240 284
240 293
241 182
241 193
241 203
241 211
241 214
241 222
241 235
241 236
241 249
241 251
241 268
241 269
241 273
241 287
241 290
241 294
241 301
242 184
242 191
242 196
242 218
242 219
242 227
242 231
242 236
242 240
242 261
242 262
242 266
242 272
242 284
242 286
242 299
243 190
243 209
243 210
243 217
243 230
243 238
243 239
243 244
243 253
243 270
243 277
243 279
243 300
244 183
244 190
244 201
244 209
244 210
244 217
244 230
244 234
244 238
244 239
244 243
244 253
244 263
244 270
244 277
244 279
244 300
245 200
245 221
245 223
245 224
245 247
245 256
245 258
245 265
245 271
245 283
245 298
246 202
246 205
246 207
246 212
246 228
246 229
246 237
246 251
246 252
246 254
246 257
246 274
246 275
246 276
246 288
246 302
246 306
247 197
247 198
247 221
247 224
247 225
247 245
247 250
247 256
247 280
247 282
247 283
247 309
248 189
248 216
248 220
248 226
248 232
248 255
248 260
248 264
248 267
248 278
248 292
248 308
249 193
249 211
249 214
249 222
249 231
249 235
249 236
249 241
249 261
249 262
249 268
249 269
249 273
249 286
249 290
249 297
249 301
250 198
250 215
250 221
250 224
250 225
250 247
250 256
250 280
250 282
250 283
250 285
250 309
251 202
251 203
251 214
251 228
251 235
251 241
251 246
251 257
251 268
251 269
251 274
251 287
251 288
251 294
251 301
252 205
252 207
252 212
252 228
252 229
252 233
252 237
252 246
252 254
252 257
252 274
252 275
252 276
252 288
252 302
252 306
252 310
253 209
253 210
253 217
253 230
253 243
253 244
253 260
253 267
253 270
253 279
253 300
253 304
254 204
254 207
254 212
254 229
254 233
254 234
254 237
254 246
254 252
254 259
254 263
254 274
254 275
254 276
254 291
254 302
254 310
255 208
255 220
255 223
255 226
255 232
255 248
255 258
255 264
255 265
255 271
255 278
255 281
255 289
255 292
255 315
256 221
256 223
256 224
256 225
256 245
256 247
256 250
256 265
256 280
256 283
256 298
256 311
257 202
257 205
257 228
257 229
257 235
257 246
257 251
257 252
257 268
257 274
257 275
257 287
257 288
257 294
257 306
257 313
258 199
258 208
258 220
258 223
258 232
258 245
258 255
258 264
258 265
258 271
258 281
258 289
258 292
258 315
259 204
259 213
259 233
259 234
259 237
259 238
259 239
259 254
259 263
259 276
259 277
259 291
259 296
259 307
259 314
260 216
260 226
260 248
260 253
260 264
260 267
260 278
260 292
260 303
260 308
261 211
261 218
261 222
261 231
261 236
261 240
261 242
261 249
261 262
261 272
261 273
261 284
261 286
261 290
261 297
261 299
261 319
262 218
262 219
262 231
262 236
262 240
262 242
262 249
262 261
262 266
262 272
262 273
262 284
262 286
262 293
262 297
262 299
262 317
262 319
263 213
263 233
263 234
263 238
263 239
263 244
263 254
263 259
263 270
263 276
263 277
263 291
263 296
263 300
263 307
263 323
264 220
264 226
264 232
264 248
264 255
264 258
264 260
264 278
264 281
264 289
264 292
264 308
264 315
265 223
265 245
265 255
265 256
265 258
265 271
265 281
265 283
265 289
265 298
265 312
265 325
265 328
266 219
266 227
266 240
266 242
266 262
266 272
266 284
266 293
266 317
267 216
267 230
267 248
267 253
267 260
267 278
267 279
267 303
267 304
267 308
268 214
268 222
268 228
268 235
268 241
268 249
268 251
268 257
268 269
268 273
268 287
268 288
268 290
268 294
268 301
268 322
268 326
269 214
269 222
269 235
269 241
269 249
269 251
269 268
269 273
269 287
269 290
269 294
269 297
269 301
269 322
270 217
270 230
270 238
270 239
270 243
270 244
270 253
270 263
270 277
270 279
270 296
270 300
270 304
270 307
270 324
271 223
271 232
271 245
271 255
271 258
271 265
271 281
271 289
271 298
271 312
271 315
271 325
271 328
272 218
272 219
272 231
272 236
272 240
272 242
272 261
272 262
272 266
272 284
272 286
272 293
272 297
272 299
272 317
272 319
273 222
273 231
273 236
273 241
273 249
273 261
273 262
273 268
273 269
273 286
273 290
273 294
273 297
273 299
273 301
273 321
274 228
274 229
274 237
274 246
274 251
274 252
274 254
274 257
274 275
274 276
274 287
274 288
274 302
274 306
274 310
274 313
274 320
274 339
275 229
275 237
275 246
275 252
275 254
275 257
275 274
275 276
275 288
275 291
275 302
275 306
275 310
275 313
275 320
275 339
276 229
276 233
276 234
276 237
276 246
276 252
276 254
276 259
276 263
276 274
276 275
276 291
276 296
276 302
276 306
276 310
276 314
276 320
276 342
277 234
277 238
277 239
277 243
277 244
277 259
277 263
277 270
277 279
277 291
277 296
277 300
277 307
277 323
277 324
278 226
278 248
278 255
278 260
278 264
278 267
278 281
278 292
278 303
278 308
278 329
278 330
279 230
279 243
279 244
279 253
279 267
279 270
279 277
279 300
279 303
279 304
279 333
279 338
280 221
280 225
280 247
280 250
280 256
280 282
280 283
280 285
280 298
280 309
280 311
280 316
280 343
281 232
281 255
281 258
281 264
281 265
281 271
281 278
281 289
281 292
281 308
281 315
281 325
281 330
281 344
282 225
282 247
282 250
282 280
282 283
282 285
282 295
282 309
282 311
282 316
282 318
282 343
283 224
283 245
283 247
283 250
283 256
283 265
283 280
283 282
283 298
283 309
283 311
283 312
283 332
283 340
284 240
284 242
284 261
284 262
284 266
284 272
284 286
284 293
284 299
284 317
284 319
284 331
284 337
284 347
285 250
285 280
285 282
285 295
285 305
285 316
285 318
285 327
285 346
286 231
286 236
286 242
286 249
286 261
286 262
286 272
286 273
286 284
286 290
286 297
286 299
286 317
286 319
286 321
287 235
287 241
287 251
287 257
287 268
287 269
287 274
287 288
287 290
287 294
287 301
287 306
287 313
287 322
287 326
287 335
287 341
288 228
288 246
288 251
288 252
288 257
288 268
288 274
288 275
288 287
288 294
288 302
288 306
288 313
288 320
288 322
288 326
288 339
288 341
289 255
289 258
289 264
289 265
289 271
289 281
289 292
289 298
289 312
289 315
289 325
289 328
289 344
290 241
290 249
290 261
290 268
290 269
290 273
290 286
290 287
290 294
290 297
290 299
290 301
290 319
290 321
290 322
290 334
290 335
291 233
291 234
291 237
291 254
291 259
291 263
291 275
291 276
291 277
291 296
291 302
291 307
291 310
291 314
291 320
291 323
291 342
291 349
292 248
292 255
292 258
292 260
292 264
292 278
292 281
292 289
292 308
292 315
292 330
292 344
292 348
292 350
293 240
293 262
293 266
293 272
293 284
293 317
293 331
293 337
293 347
294 235
294 241
294 251
294 257
294 268
294 269
294 273
294 287
294 288
294 290
294 301
294 313
294 322
294 326
294 334
294 335
295 282
295 285
295 305
295 316
295 318
295 327
295 345
295 346
296 238
296 239
296 259
296 263
296 270
296 276
296 277
296 291
296 300
296 307
296 310
296 314
296 323
296 324
296 349
296 352
296 356
297 236
297 249
297 261
297 262
297 269
297 272
297 273
297 286
297 290
297 299
297 301
297 319
297 321
297 334
297 335
297 355
298 245
298 256
298 265
298 271
298 280
298 283
298 289
298 309
298 311
298 312
298 325
298 328
298 332
298 340
298 351
299 242
299 261
299 262
299 272
299 273
299 284
299 286
299 290
299 297
299 317
299 319
299 321
299 347
299 354
300 243
300 244
300 253
300 263
300 270
300 277
300 279
300 296
300 304
300 307
300 323
300 324
300 333
300 336
300 338
300 352
301 241
301 249
301 251
301 268
301 269
301 273
301 287
301 290
301 294
301 297
301 321
301 322
301 326
301 334
301 335
301 359
302 246
302 252
302 254
302 274
302 275
302 276
302 288
302 291
302 306
302 310
302 313
302 314
302 320
302 339
302 341
302 342
303 260
303 267
303 278
303 279
303 304
303 308
303 329
303 330
303 338
303 348
303 357
304 253
304 267
304 270
304 279
304 300
304 303
304 307
304 324
304 329
304 333
304 336
304 338
305 285
305 295
305 318
305 327
305 345
305 346
306 246
306 252
306 257
306 274
306 275
306 276
306 287
306 288
306 302
306 310
306 313
306 320
306 326
306 339
306 341
306 342
306 363
307 259
307 263
307 270
307 277
307 291
307 296
307 300
307 304
307 314
307 323
307 324
307 333
307 336
307 352
308 248
308 260
308 264
308 267
308 278
308 281
308 292
308 303
308 315
308 329
308 330
308 348
308 350
309 247
309 250
309 280
309 282
309 283
309 298
309 311
309 316
309 318
309 332
309 340
309 343
310 252
310 254
310 274
310 275
310 276
310 291
310 296
310 302
310 306
310 314
310 320
310 323
310 339
310 342
310 349
310 356
310 364
311 256
311 280
311 282
311 283
311 298
311 309
311 312
311 316
311 328
311 332
311 340
311 343
311 351
311 365
311 369
312 265
312 271
312 283
312 289
312 298
312 311
312 315
312 325
312 328
312 332
312 340
312 351
312 353
312 362
312 365
313 257
313 274
313 275
313 287
313 288
313 294
313 302
313 306
313 320
313 322
313 326
313 339
313 341
313 360
313 363
313 366
314 259
314 276
314 291
314 296
314 302
314 307
314 310
314 320
314 323
314 342
314 349
314 352
314 356
314 364
314 371
315 255
315 258
315 264
315 271
315 281
315 289
315 292
315 308
315 312
315 325
315 328
315 330
315 344
315 350
315 353
315 372
315 374
316 280
316 282
316 285
316 295
316 309
316 311
316 318
316 327
316 340
316 343
316 346
316 367
316 377
317 262
317 266
317 272
317 284
317 286
317 293
317 299
317 319
317 331
317 337
317 347
317 354
317 358
318 282
318 285
318 295
318 305
318 309
318 316
318 327
318 343
318 345
318 346
318 367
318 370
319 261
319 262
319 272
319 284
319 286
319 290
319 297
319 299
319 317
319 321
319 331
319 334
319 347
319 354
319 355
319 358
319 384
320 274
320 275
320 276
320 288
320 291
320 302
320 306
320 310
320 313
320 314
320 339
320 341
320 342
320 349
320 363
320 364
320 366
321 273
321 286
321 290
321 297
321 299
321 301
321 319
321 334
321 335
321 354
321 355
321 359
322 268
322 269
322 287
322 288
322 290
322 294
322 301
322 313
322 326
322 334
322 335
322 341
322 359
322 360
322 361
322 366
322 379
323 263
323 277
323 291
323 296
323 300
323 307
323 310
323 314
323 324
323 336
323 342
323 349
323 352
323 356
323 371
323 376
324 270
324 277
324 296
324 300
324 304
324 307
324 323
324 333
324 336
324 338
324 352
324 356
324 368
324 371
324 376
325 265
325 271
325 281
325 289
325 298
325 312
325 315
325 328
325 344
325 351
325 353
325 362
325 374
325 386
326 268
326 287
326 288
326 294
326 301
326 306
326 313
326 322
326 334
326 335
326 339
326 341
326 360
326 361
326 366
326 379
327 285
327 295
327 305
327 316
327 318
327 345
327 346
327 370
328 265
328 271
328 289
328 298
328 311
328 312
328 315
328 325
328 332
328 344
328 351
328 353
328 362
328 365
328 386
329 278
329 303
329 304
329 308
329 330
329 333
329 338
329 348
329 357
329 373
329 375
329 380
330 278
330 281
330 292
330 303
330 308
330 315
330 329
330 344
330 348
330 350
330 357
330 372
330 373
330 374
330 375
331 284
331 293
331 317
331 319
331 337
331 347
331 354
331 358
331 378
331 383
332 283
332 298
332 309
332 311
332 312
332 328
332 340
332 343
332 351
332 353
332 362
332 365
332 369
332 381
332 394
333 279
333 300
333 304
333 307
333 324
333 329
333 336
333 338
333 352
333 368
333 380
333 390
334 290
334 294
334 297
334 301
334 319
334 321
334 322
334 326
334 335
334 354
334 355
334 359
334 361
334 391
334 395
335 287
335 290
335 294
335 297
335 301
335 321
335 322
335 326
335 334
335 355
335 359
335 360
335 361
335 379
335 392
335 395
336 300
336 304
336 307
336 323
336 324
336 333
336 338
336 352
336 368
336 376
336 380
336 390
336 400
337 284
337 293
337 317
337 331
337 347
337 358
337 378
337 383
338 279
338 300
338 303
338 304
338 324
338 329
338 333
338 336
338 357
338 368
338 380
338 390
339 274
339 275
339 288
339 302
339 306
339 310
339 313
339 320
339 326
339 341
339 342
339 349
339 360
339 363
339 364
339 366
339 385
339 389
339 396
340 283
340 298
340 309
340 311
340 312
340 316
340 332
340 343
340 351
340 362
340 365
340 367
340 369
340 377
340 381
340 394
341 287
341 288
341 302
341 306
341 313
341 320
341 322
341 326
341 339
341 360
341 361
341 363
341 366
341 379
341 389
341 396
342 276
342 291
342 302
342 306
342 310
342 314
342 320
342 323
342 339
342 349
342 356
342 363
342 364
342 371
342 382
342 385
342 389
343 280
343 282
343 309
343 311
343 316
343 318
343 332
343 340
343 346
343 365
343 367
343 369
343 377
343 381
344 281
344 289
344 292
344 315
344 325
344 328
344 330
344 350
344 353
344 372
344 373
344 374
344 386
344 393
344 404
345 295
345 305
345 318
345 327
345 346
345 370
345 398
346 285
346 295
346 305
346 316
346 318
346 327
346 343
346 345
346 367
346 370
346 377
346 387
346 398
346 401
347 284
347 293
347 299
347 317
347 319
347 331
347 337
347 354
347 358
347 378
347 383
347 384
347 388
347 402
348 292
348 303
348 308
348 329
348 330
348 350
348 357
348 372
348 373
348 375
348 397
348 408
349 291
349 296
349 310
349 314
349 320
349 323
349 339
349 342
349 352
349 356
349 363
349 364
349 371
349 376
349 382
349 385
349 399
349 407
350 292
350 308
350 315
350 330
350 344
350 348
350 357
350 372
350 373
350 374
350 375
351 298
351 311
351 312
351 325
351 328
351 332
351 340
351 353
351 362
351 365
351 369
351 386
351 394
351 403
352 296
352 300
352 307
352 314
352 323
352 324
352 333
352 336
352 349
352 356
352 368
352 371
352 376
352 382
352 399
352 400
352 406
353 312
353 315
353 325
353 328
353 332
353 344
353 351
353 362
353 365
353 374
353 386
353 393
353 403
353 404
354 299
354 317
354 319
354 321
354 331
354 334
354 347
354 355
354 358
354 359
354 384
354 388
354 391
354 395
354 402
355 297
355 319
355 321
355 334
355 335
355 354
355 358
355 359
355 361
355 384
355 391
355 395
356 296
356 310
356 314
356 323
356 324
356 342
356 349
356 352
356 364
356 371
356 376
356 382
356 385
356 399
356 406
356 407
357 303
357 329
357 330
357 338
357 348
357 350
357 373
357 375
357 380
357 397
357 408
358 317
358 319
358 331
358 337
358 347
358 354
358 355
358 383
358 384
358 388
358 391
358 402
358 405
358 419
359 301
359 321
359 322
359 334
359 335
359 354
359 355
359 361
359 379
359 384
359 391
359 392
359 395
359 409
360 313
360 322
360 326
360 335
360 339
360 341
360 361
360 363
360 366
360 379
360 389
360 392
360 396
360 409
360 410
360 421
361 322
361 326
361 334
361 335
361 341
361 355
361 359
361 360
361 366
361 379
361 392
361 395
361 409
361 410
361 421
362 312
362 325
362 328
362 332
362 340
362 351
362 353
362 365
362 369
362 386
362 393
362 394
362 403
362 417
362 420
363 306
363 313
363 320
363 339
363 341
363 342
363 349
363 360
363 364
363 366
363 382
363 385
363 389
363 396
363 412
363 415
363 418
364 310
364 314
364 320
364 339
364 342
364 349
364 356
364 363
364 371
364 382
364 385
364 389
364 407
364 412
364 415
365 311
365 312
365 328
365 332
365 340
365 343
365 351
365 353
365 362
365 369
365 381
365 386
365 394
365 403
365 411
365 417
365 420
366 313
366 320
366 322
366 326
366 339
366 341
366 360
366 361
366 363
366 379
366 389
366 392
366 396
366 410
366 418
367 316
367 318
367 340
367 343
367 346
367 370
367 377
367 381
367 387
367 398
367 401
367 413
368 324
368 333
368 336
368 338
368 352
368 376
368 380
368 390
368 400
368 414
368 416
369 311
369 332
369 340
369 343
369 351
369 362
369 365
369 377
369 381
369 394
369 403
369 411
369 417
369 420
369 424
370 318
370 327
370 345
370 346
370 367
370 387
370 398
370 401
370 427
371 314
371 323
371 324
371 342
371 349
371 352
371 356
371 364
371 376
371 382
371 385
371 399
371 400
371 406
371 407
371 432
372 315
372 330
372 344
372 348
372 350
372 373
372 374
372 375
372 393
372 404
372 408
372 422
372 423
373 329
373 330
373 344
373 348
373 350
373 357
373 372
373 374
373 375
373 397
373 404
373 408
373 422
373 423
374 315
374 325
374 330
374 344
374 350
374 353
374 372
374 373
374 386
374 393
374 404
374 422
374 423
375 329
375 330
375 348
375 350
375 357
375 372
375 373
375 397
375 408
375 422
376 323
376 324
376 336
376 349
376 352
376 356
376 368
376 371
376 382
376 390
376 399
376 400
376 406
376 407
376 416
376 432
377 316
377 340
377 343
377 346
377 367
377 369
377 381
377 387
377 398
377 401
377 411
377 413
378 331
378 337
378 347
378 383
378 388
378 402
378 405
378 425
379 322
379 326
379 335
379 341
379 359
379 360
379 361
379 366
379 392
379 396
379 409
379 410
379 418
379 421
379 443
380 329
380 333
380 336
380 338
380 357
380 368
380 390
380 397
380 400
380 414
380 416
381 332
381 340
381 343
381 365
381 367
381 369
381 377
381 387
381 394
381 401
381 411
381 413
381 420
381 424
381 440
382 342
382 349
382 352
382 356
382 363
382 364
382 371
382 376
382 385
382 389
382 399
382 406
382 407
382 412
382 415
382 426
383 331
383 337
383 347
383 358
383 378
383 384
383 388
383 402
383 405
383 425
383 430
383 433
384 319
384 347
384 354
384 355
384 358
384 359
384 383
384 388
384 391
384 395
384 402
384 419
384 428
384 429
384 430
384 442
385 339
385 342
385 349
385 356
385 363
385 364
385 371
385 382
385 389
385 399
385 407
385 412
385 415
385 426
385 441
385 450
386 325
386 328
386 344
386 351
386 353
386 362
386 365
386 374
386 393
386 394
386 403
386 404
386 417
386 420
386 431
387 346
387 367
387 370
387 377
387 381
387 398
387 401
387 413
387 427
387 434
387 435
387 436
388 347
388 354
388 358
388 378
388 383
388 384
388 391
388 402
388 405
388 419
388 428
388 430
388 433
388 442
389 339
389 341
389 342
389 360
389 363
389 364
389 366
389 382
389 385
389 396
389 410
389 412
389 415
389 418
389 426
389 437
389 441
390 333
390 336
390 338
390 368
390 376
390 380
390 400
390 406
390 414
390 416
390 446
391 334
391 354
391 355
391 358
391 359
391 384
391 388
391 395
391 409
391 419
391 428
391 429
391 439
391 442
391 452
392 335
392 359
392 360
392 361
392 366
392 379
392 395
392 396
392 409
392 410
392 421
392 429
392 438
392 439
392 443
392 449
393 344
393 353
393 362
393 372
393 374
393 386
393 403
393 404
393 417
393 422
393 423
393 431
393 447
394 332
394 340
394 351
394 362
394 365
394 369
394 381
394 386
394 403
394 411
394 417
394 420
394 424
394 445
395 334
395 335
395 354
395 355
395 359
395 361
395 384
395 391
395 392
395 409
395 421
395 428
395 429
395 438
395 439
395 452
396 339
396 341
396 360
396 363
396 366
396 379
396 389
396 392
396 410
396 415
396 418
396 421
396 437
396 441
396 443
397 348
397 357
397 373
397 375
397 380
397 408
397 414
397 422
397 444
397 448
397 453
397 456
398 345
398 346
398 367
398 370
398 377
398 387
398 401
398 427
398 434
398 435
398 436
398 458
399 349
399 352
399 356
399 371
399 376
399 382
399 385
399 400
399 406
399 407
399 412
399 426
399 432
400 336
400 352
400 368
400 371
400 376
400 380
400 390
400 399
400 406
400 414
400 416
400 432
400 446
400 454
401 346
401 367
401 370
401 377
401 381
401 387
401 398
401 411
401 413
401 427
401 434
401 435
401 436
401 440
401 457
402 347
402 354
402 358
402 378
402 383
402 384
402 388
402 405
402 419
402 425
402 428
402 430
402 433
402 442
402 451
403 351
403 353
403 362
403 365
403 369
403 386
403 393
403 394
403 404
403 411
403 417
403 420
403 424
403 431
403 445
404 344
404 353
404 372
404 373
404 374
404 386
404 393
404 403
404 408
404 422
404 423
404 431
404 447
404 465
405 358
405 378
405 383
405 388
405 402
405 419
405 425
405 430
405 433
405 451
406 352
406 356
406 371
406 376
406 382
406 390
406 399
406 400
406 407
406 416
406 432
406 446
406 454
406 464
407 349
407 356
407 364
407 371
407 376
407 382
407 385
407 399
407 406
407 412
407 415
407 426
407 432
407 441
407 450
407 469
408 348
408 357
408 372
408 373
408 375
408 397
408 404
408 422
408 423
408 444
408 448
408 456
409 359
409 360
409 361
409 379
409 391
409 392
409 395
409 410
409 421
409 429
409 438
409 439
409 443
409 449
409 459
409 460
410 360
410 361
410 366
410 379
410 389
410 392
410 396
410 409
410 418
410 421
410 437
410 438
410 439
410 443
410 449
410 460
411 365
411 369
411 377
411 381
411 394
411 401
411 403
411 413
411 417
411 420
411 424
411 440
411 445
411 455
411 466
411 473
412 363
412 364
412 382
412 385
412 389
412 399
412 407
412 415
412 418
412 426
412 441
412 450
412 468
412 469
412 472
413 367
413 377
413 381
413 387
413 401
413 411
413 420
413 424
413 434
413 436
413 440
413 455
413 457
413 466
414 368
414 380
414 390
414 397
414 400
414 416
414 444
414 446
414 453
414 454
414 461
415 363
415 364
415 382
415 385
415 389
415 396
415 407
415 412
415 418
415 426
415 437
415 441
415 450
415 463
415 468
415 472
416 368
416 376
416 380
416 390
416 400
416 406
416 414
416 432
416 446
416 453
416 454
417 362
417 365
417 369
417 386
417 393
417 394
417 403
417 411
417 420
417 424
417 431
417 445
417 462
417 470
417 476
418 363
418 366
418 379
418 389
418 396
418 410
418 412
418 415
418 421
418 437
418 441
418 443
418 449
418 450
418 463
418 468
418 478
419 358
419 384
419 388
419 391
419 402
419 405
419 428
419 429
419 430
419 433
419 442
419 452
419 467
419 475
419 483
420 362
420 365
420 369
420 381
420 386
420 394
420 403
420 411
420 413
420 417
420 424
420 431
420 445
420 455
420 470
420 473
420 476
421 360
421 361
421 379
421 392
421 395
421 396
421 409
421 410
421 418
421 429
421 437
421 438
421 439
421 443
421 449
421 459
421 460
421 478
421 479
422 372
422 373
422 374
422 375
422 393
422 397
422 404
422 408
422 423
422 444
422 447
422 448
422 456
422 465
422 484
423 372
423 373
423 374
423 393
423 404
423 408
423 422
423 431
423 447
423 448
423 462
423 465
423 474
424 369
424 381
424 394
424 403
424 411
424 413
424 417
424 420
424 440
424 445
424 455
424 466
424 470
424 473
424 476
424 485
425 378
425 383
425 402
425 405
425 430
425 433
425 451
425 471
425 475
426 382
426 385
426 389
426 399
426 407
426 412
426 415
426 432
426 441
426 450
426 464
426 468
426 469
426 472
427 370
427 387
427 398
427 401
427 434
427 435
427 436
427 457
427 458
427 487
427 489
428 384
428 388
428 391
428 395
428 402
428 419
428 429
428 430
428 439
428 442
428 452
428 459
428 467
428 477
428 483
428 488
429 384
429 391
429 392
429 395
429 409
429 419
429 421
429 428
429 438
429 439
429 442
429 452
429 459
429 460
429 477
430 383
430 384
430 388
430 402
430 405
430 419
430 425
430 428
430 433
430 442
430 451
430 452
430 467
430 471
430 475
430 483
431 386
431 393
431 403
431 404
431 417
431 420
431 423
431 445
431 447
431 462
431 470
431 474
432 371
432 376
432 399
432 400
432 406
432 407
432 416
432 426
432 446
432 454
432 464
432 469
432 480
433 383
433 388
433 402
433 405
433 419
433 425
433 430
433 442
433 451
433 467
433 471
433 475
433 493
434 387
434 398
434 401
434 413
434 427
434 435
434 436
434 440
434 455
434 457
434 458
434 466
434 489
434 490
434 496
435 387
435 398
435 401
435 427
435 434
435 436
435 457
435 458
435 487
435 489
436 387
436 398
436 401
436 413
436 427
436 434
436 435
436 440
436 457
436 458
436 466
436 489
436 490
437 389
437 396
437 410
437 415
437 418
437 421
437 441
437 443
437 449
437 450
437 463
437 468
437 478
437 479
437 491
437 492
438 392
438 395
438 409
438 410
438 421
438 429
438 439
438 443
438 449
438 459
438 460
438 478
438 479
438 497
438 502
439 391
439 392
439 395
439 409
439 410
439 421
439 428
439 429
439 438
439 443
439 449
439 452
439 459
439 460
439 477
439 479
439 497
440 381
440 401
440 411
440 413
440 424
440 434
440 436
440 455
440 457
440 466
440 473
440 485
440 490
440 496
441 385
441 389
441 396
441 407
441 412
441 415
441 418
441 426
441 437
441 450
441 463
441 468
441 469
441 472
441 491
441 492
442 384
442 388
442 391
442 402
442 419
442 428
442 429
442 430
442 433
442 452
442 467
442 475
442 477
442 483
442 488
442 504
443 379
443 392
443 396
443 409
443 410
443 418
443 421
443 437
443 438
443 439
443 449
443 460
443 463
443 478
443 479
443 491
444 397
444 408
444 414
444 422
444 448
444 453
444 456
444 461
444 482
444 484
444 486
445 394
445 403
445 411
445 417
445 420
445 424
445 431
445 447
445 462
445 470
445 473
445 476
445 500
446 390
446 400
446 406
446 414
446 416
446 432
446 453
446 454
446 464
446 480
446 481
446 482
446 494
446 498
447 393
447 404
447 422
447 423
447 431
447 445
447 448
447 462
447 465
447 474
447 495
448 397
448 408
448 422
448 423
448 444
448 447
448 456
448 461
448 465
448 484
448 486
448 495
449 392
449 409
449 410
449 418
449 421
449 437
449 438
449 439
449 443
449 459
449 460
449 463
449 478
449 479
449 502
450 385
450 407
450 412
450 415
450 418
450 426
450 437
450 441
450 463
450 468
450 469
450 472
450 492
450 501
451 402
451 405
451 425
451 430
451 433
451 467
451 471
451 475
451 493
451 505
452 391
452 395
452 419
452 428
452 429
452 430
452 439
452 442
452 459
452 467
452 477
452 483
452 488
452 499
452 504
452 510
453 397
453 414
453 416
453 444
453 446
453 456
453 461
453 481
453 482
453 486
453 494
453 508
454 400
454 406
454 414
454 416
454 432
454 446
454 464
454 480
454 481
454 494
454 498
454 503
455 411
455 413
455 420
455 424
455 434
455 440
455 457
455 466
455 473
455 476
455 485
455 490
455 496
455 507
456 397
456 408
456 422
456 444
456 448
456 453
456 461
456 465
456 482
456 484
456 486
456 511
456 516
456 519
457 401
457 413
457 427
457 434
457 435
457 436
457 440
457 455
457 458
457 466
457 489
457 490
457 496
457 522
458 398
458 427
458 434
458 435
458 436
458 457
458 487
458 489
458 490
458 522
459 409
459 421
459 428
459 429
459 438
459 439
459 449
459 452
459 460
459 477
459 479
459 488
459 497
459 499
459 502
459 510
459 523
459 524
460 409
460 410
460 421
460 429
460 438
460 439
460 443
460 449
460 459
460 477
460 478
460 479
460 497
460 499
460 502
460 524
460 525
461 414
461 444
461 448
461 453
461 456
461 481
461 482
461 484
461 486
461 508
461 516
462 417
462 423
462 431
462 445
462 447
462 465
462 470
462 474
462 476
462 500
462 509
462 515
463 415
463 418
463 437
463 441
463 443
463 449
463 450
463 468
463 472
463 478
463 479
463 491
463 492
463 513
463 526
463 527
464 406
464 426
464 432
464 446
464 454
464 469
464 480
464 494
464 498
464 501
464 503
464 517
465 404
465 422
465 423
465 447
465 448
465 456
465 462
465 474
465 484
465 495
465 511
465 520
466 411
466 413
466 424
466 434
466 436
466 440
466 455
466 457
466 473
466 476
466 485
466 490
466 496
466 507
466 529
467 419
467 428
467 430
467 433
467 442
467 451
467 452
467 471
467 475
467 477
467 483
467 488
467 493
467 504
467 510
467 512
468 412
468 415
468 418
468 426
468 437
468 441
468 450
468 463
468 469
468 472
468 478
468 491
468 492
468 501
468 514
468 527
469 407
469 412
469 426
469 432
469 441
469 450
469 464
469 468
469 472
469 480
469 492
469 501
469 503
469 514
469 528
470 417
470 420
470 424
470 431
470 445
470 462
470 473
470 474
470 476
470 485
470 500
470 506
470 507
470 509
471 425
471 430
471 433
471 451
471 467
471 475
471 483
471 493
471 504
471 505
471 512
471 518
472 412
472 415
472 426
472 441
472 450
472 463
472 468
472 469
472 491
472 492
472 501
472 514
472 528
473 411
473 420
473 424
473 440
473 445
473 455
473 466
473 470
473 476
473 485
473 496
473 500
473 506
473 507
474 423
474 431
474 447
474 462
474 465
474 470
474 484
474 495
474 509
474 515
474 520
475 419
475 425
475 430
475 433
475 442
475 451
475 467
475 471
475 483
475 488
475 493
475 504
475 505
475 512
475 518
476 417
476 420
476 424
476 445
476 455
476 462
476 466
476 470
476 473
476 485
476 500
476 506
476 507
476 509
477 428
477 429
477 439
477 442
477 452
477 459
477 460
477 467
477 483
477 488
477 497
477 499
477 504
477 510
477 523
477 524
478 418
478 421
478 437
478 438
478 443
478 449
478 460
478 463
478 468
478 479
478 491
478 492
478 502
478 513
478 525
478 526
479 421
479 437
479 438
479 439
479 443
479 449
479 459
479 460
479 463
479 478
479 491
479 497
479 502
479 513
479 524
479 525
479 526
480 432
480 446
480 454
480 464
480 469
480 481
480 494
480 498
480 501
480 503
480 517
480 530
481 446
481 453
481 454
481 461
481 480
481 482
481 486
481 494
481 498
481 508
481 521
481 537
482 444
482 446
482 453
482 456
482 461
482 481
482 486
482 494
482 498
482 508
482 516
482 521
482 537
483 419
483 428
483 430
483 442
483 452
483 467
483 471
483 475
483 477
483 488
483 493
483 499
483 504
483 510
483 512
483 518
483 536
483 544
484 422
484 444
484 448
484 456
484 461
484 465
484 474
484 486
484 495
484 511
484 516
484 519
484 520
484 538
485 424
485 440
485 455
485 466
485 470
485 473
485 476
485 490
485 496
485 500
485 506
485 507
485 529
485 543
485 546
486 444
486 448
486 453
486 456
486 461
486 481
486 482
486 484
486 495
486 508
486 511
486 516
486 519
487 427
487 435
487 458
487 489
487 490
487 522
487 531
487 532
488 428
488 442
488 452
488 459
488 467
488 475
488 477
488 483
488 497
488 499
488 504
488 510
488 512
488 523
488 536
488 547
489 427
489 434
489 435
489 436
489 457
489 458
489 487
489 490
489 496
489 522
489 531
489 532
489 533
490 434
490 436
490 440
490 455
490 457
490 458
490 466
490 485
490 487
490 489
490 496
490 522
490 529
490 532
490 533
491 437
491 441
491 443
491 463
491 468
491 472
491 478
491 479
491 492
491 513
491 514
491 526
491 527
491 534
491 542
492 437
492 441
492 450
492 463
492 468
492 469
492 472
492 478
492 491
492 501
492 513
492 514
492 526
492 527
492 534
492 539
493 433
493 451
493 467
493 471
493 475
493 483
493 504
493 505
493 512
493 518
493 541
493 544
493 545
494 446
494 453
494 454
494 464
494 480
494 481
494 482
494 498
494 503
494 508
494 517
494 521
494 537
494 540
495 447
495 448
495 465
495 474
495 484
495 486
495 511
495 515
495 519
495 520
495 538
495 555
496 434
496 440
496 455
496 457
496 466
496 473
496 485
496 489
496 490
496 507
496 522
496 529
496 532
496 533
496 553
497 438
497 439
497 459
497 460
497 477
497 479
497 488
497 499
497 502
497 510
497 523
497 524
497 525
497 548
497 551
498 446
498 454
498 464
498 480
498 481
498 482
498 494
498 503
498 508
498 517
498 521
498 540
499 452
499 459
499 460
499 477
499 483
499 488
499 497
499 502
499 504
499 510
499 523
499 524
499 536
499 547
499 548
499 551
500 445
500 462
500 470
500 473
500 476
500 485
500 506
500 507
500 509
500 515
500 535
500 543
501 450
501 464
501 468
501 469
501 472
501 480
501 492
501 503
501 514
501 517
501 528
501 530
501 534
501 539
501 552
502 438
502 449
502 459
502 460
502 478
502 479
502 497
502 499
502 513
502 523
502 524
502 525
502 526
502 542
502 548
502 549
503 454
503 464
503 469
503 480
503 494
503 498
503 501
503 517
503 528
503 530
503 552
503 561
504 442
504 452
504 467
504 471
504 475
504 477
504 483
504 488
504 493
504 499
504 510
504 512
504 518
504 523
504 536
504 544
504 545
504 547
505 451
505 471
505 475
505 493
505 512
505 518
505 541
505 545
506 470
506 473
506 476
506 485
506 500
506 507
506 509
506 529
506 535
506 543
506 546
506 569
507 455
507 466
507 470
507 473
507 476
507 485
507 496
507 500
507 506
507 529
507 543
507 546
507 553
507 570
508 453
508 461
508 481
508 482
508 486
508 494
508 498
508 516
508 519
508 521
508 537
508 540
509 462
509 470
509 474
509 476
509 500
509 506
509 515
509 520
509 535
509 543
509 550
509 557
510 452
510 459
510 467
510 477
510 483
510 488
510 497
510 499
510 504
510 512
510 523
510 524
510 536
510 544
510 547
510 551
510 565
511 456
511 465
511 484
511 486
511 495
511 516
511 519
511 520
511 538
511 555
511 556
511 562
512 467
512 471
512 475
512 483
512 488
512 493
512 504
512 505
512 510
512 518
512 536
512 541
512 544
512 545
513 463
513 478
513 479
513 491
513 492
513 502
513 524
513 525
513 526
513 527
513 542
513 548
513 549
513 554
513 558
513 574
514 468
514 469
514 472
514 491
514 492
514 501
514 526
514 527
514 528
514 530
514 534
514 539
514 552
514 554
514 566
514 567
515 462
515 474
515 495
515 500
515 509
515 520
515 535
515 550
515 555
515 557
515 578
516 456
516 461
516 482
516 484
516 486
516 508
516 511
516 519
516 537
516 538
516 556
516 562
516 575
517 464
517 480
517 494
517 498
517 501
517 503
517 521
517 528
517 530
517 540
517 559
517 561
518 471
518 475
518 483
518 493
518 504
518 505
518 512
518 541
518 544
518 545
518 568
519 456
519 484
519 486
519 495
519 508
519 511
519 516
519 520
519 538
519 555
519 556
519 562
519 575
520 465
520 474
520 484
520 495
520 509
520 511
520 515
520 519
520 535
520 538
520 550
520 555
520 557
520 562
520 578
521 481
521 482
521 494
521 498
521 508
521 517
521 537
521 540
521 559
521 563
521 573
522 457
522 458
522 487
522 489
522 490
522 496
522 529
522 531
522 532
522 533
522 553
522 560
522 564
522 571
522 572
523 459
523 477
523 488
523 497
523 499
523 502
523 504
523 510
523 524
523 525
523 536
523 547
523 548
523 551
523 565
523 580
524 459
524 460
524 477
524 479
524 497
524 499
524 502
524 510
524 513
524 523
524 525
524 547
524 548
524 549
524 551
524 580
525 460
525 478
525 479
525 497
525 502
525 513
525 523
525 524
525 526
525 542
525 548
525 549
525 551
525 558
525 574
526 463
526 478
526 479
526 491
526 492
526 502
526 513
526 514
526 525
526 527
526 534
526 542
526 549
526 554
526 558
526 574
526 577
526 583
527 463
527 468
527 491
527 492
527 513
527 514
527 526
527 534
527 539
527 542
527 554
527 558
527 566
527 577
527 583
528 469
528 472
528 501
528 503
528 514
528 517
528 530
528 534
528 539
528 552
528 561
528 566
528 567
529 466
529 485
529 490
529 496
529 506
529 507
529 522
529 532
529 533
529 543
529 546
529 553
529 570
529 571
529 579
530 480
530 501
530 503
530 514
530 517
530 528
530 539
530 552
530 559
530 561
530 567
531 487
531 489
531 522
531 532
531 533
531 560
531 564
531 571
531 572
532 487
532 489
532 490
532 496
532 522
532 529
532 531
532 533
532 553
532 560
532 564
532 571
532 572
533 489
533 490
533 496
533 522
533 529
533 531
533 532
533 546
533 553
533 560
533 564
533 571
533 572
533 579
534 491
534 492
534 501
534 514
534 526
534 527
534 528
534 539
534 542
534 552
534 554
534 558
534 566
534 567
534 577
534 583
535 500
535 506
535 509
535 515
535 520
535 543
535 550
535 557
535 569
535 576
535 578
536 483
536 488
536 499
536 504
536 510
536 512
536 523
536 544
536 545
536 547
536 551
536 565
537 481
537 482
537 494
537 508
537 516
537 521
537 540
537 556
537 563
537 573
537 581
537 582
537 585
538 484
538 495
538 511
538 516
538 519
538 520
538 550
538 555
538 556
538 562
538 575
538 585
538 586
539 492
539 501
539 514
539 527
539 528
539 530
539 534
539 552
539 554
539 566
539 567
539 577
540 494
540 498
540 508
540 517
540 521
540 537
540 559
540 561
540 563
540 573
540 582
540 584
541 493
541 505
541 512
541 518
541 544
541 545
541 568
542 491
542 502
542 513
542 525
542 526
542 527
542 534
542 548
542 549
542 554
542 558
542 574
542 577
542 583
543 485
543 500
543 506
543 507
543 509
543 529
543 535
543 546
543 553
543 569
543 570
543 576
544 483
544 493
544 504
544 510
544 512
544 518
544 536
544 541
544 545
544 547
544 565
544 568
545 493
545 504
545 505
545 512
545 518
545 536
545 541
545 544
545 568
546 485
546 506
546 507
546 529
546 533
546 543
546 553
546 569
546 570
546 579
547 488
547 499
547 504
547 510
547 523
547 524
547 536
547 544
547 548
547 551
547 565
547 580
548 497
548 499
548 502
548 513
548 523
548 524
548 525
548 542
548 547
548 549
548 551
548 574
548 580
549 502
549 513
549 524
549 525
549 526
549 542
549 548
549 551
549 558
549 574
549 580
549 583
550 509
550 515
550 520
550 535
550 538
550 555
550 557
550 562
550 576
550 578
550 586
551 497
551 499
551 510
551 523
551 524
551 525
551 536
551 547
551 548
551 549
551 565
551 580
552 501
552 503
552 514
552 528
552 530
552 534
552 539
552 559
552 561
552 566
552 567
553 496
553 507
553 522
553 529
553 532
553 533
553 543
553 546
553 570
553 571
553 572
553 579
554 513
554 514
554 526
554 527
554 534
554 539
554 542
554 558
554 566
554 567
554 577
554 583
555 495
555 511
555 515
555 519
555 520
555 538
555 550
555 556
555 557
555 562
555 575
555 578
555 586
556 511
556 516
556 519
556 537
556 538
556 555
556 562
556 573
556 575
556 581
556 585
556 586
557 509
557 515
557 520
557 535
557 550
557 555
557 569
557 576
557 578
558 513
558 525
558 526
558 527
558 534
558 542
558 549
558 554
558 566
558 574
558 577
558 583
559 517
559 521
559 530
559 540
559 552
559 561
559 563
559 573
559 582
559 584
560 522
560 531
560 532
560 533
560 564
560 571
560 572
561 503
561 517
561 528
561 530
561 540
561 552
561 559
561 563
561 567
561 582
561 584
562 511
562 516
562 519
562 520
562 538
562 550
562 555
562 556
562 575
562 585
562 586
563 521
563 537
563 540
563 559
563 561
563 573
563 581
563 582
563 584
564 522
564 531
564 532
564 533
564 560
564 571
564 572
564 579
565 510
565 523
565 536
565 544
565 547
565 551
565 580
566 514
566 527
566 528
566 534
566 539
566 552
566 554
566 558
566 567
566 577
566 583
567 514
567 528
567 530
567 534
567 539
567 552
567 554
567 561
567 566
567 577
568 518
568 541
568 544
568 545
569 506
569 535
569 543
569 546
569 557
569 570
569 576
570 507
570 529
570 543
570 546
570 553
570 569
570 576
570 579
571 522
571 529
571 531
571 532
571 533
571 553
571 560
571 564
571 572
571 579
572 522
572 531
572 532
572 533
572 553
572 560
572 564
572 571
572 579
573 521
573 537
573 540
573 556
573 559
573 563
573 581
573 582
573 584
573 585
574 513
574 525
574 526
574 542
574 548
574 549
574 558
574 577
574 580
574 583
575 516
575 519
575 538
575 555
575 556
575 562
575 581
575 585
575 586
576 535
576 543
576 550
576 557
576 569
576 570
576 578
577 526
577 527
577 534
577 539
577 542
577 554
577 558
577 566
577 567
577 574
577 583
578 515
578 520
578 535
578 550
578 555
578 557
578 576
578 586
579 529
579 533
579 546
579 553
579 564
579 570
579 571
579 572
580 523
580 524
580 547
580 548
580 549
580 551
580 565
580 574
581 537
581 556
581 563
581 573
581 575
581 582
581 585
582 537
582 540
582 559
582 561
582 563
582 573
582 581
582 584
583 526
583 527
583 534
583 542
583 549
583 554
583 558
583 566
583 574
583 577
584 540
584 559
584 561
584 563
584 573
584 582
585 537
585 538
585 556
585 562
585 573
585 575
585 581
585 586
586 538
586 550
586 555
586 556
586 562
586 575
586 578
586 585
