1 5
1 10
1 11
1 19
1 23
1 27
1 35
1 36
1 41
1 50
1 69
1 74
2 3
2 4
2 12
2 24
2 25
2 46
2 63
2 64
2 66
3 2
3 4
3 7
3 24
3 25
3 28
3 52
3 63
3 64
4 2
4 3
4 7
4 24
4 25
4 28
4 31
4 52
4 64
4 65
5 1
5 10
5 22
5 23
5 26
5 35
5 41
5 50
5 56
5 70
6 8
6 15
6 16
6 30
6 37
6 39
6 43
6 47
6 57
6 67
7 3
7 4
7 25
7 26
7 28
7 31
7 48
7 52
7 64
7 65
8 6
8 16
8 29
8 37
8 39
8 43
8 47
8 62
8 67
9 13
9 17
9 18
9 32
9 44
9 45
9 54
9 71
10 1
10 5
10 11
10 22
10 23
10 27
10 35
10 41
10 50
10 56
10 70
10 74
11 1
11 10
11 19
11 27
11 35
11 36
11 50
11 55
11 69
11 72
11 74
12 2
12 14
12 17
12 24
12 33
12 40
12 46
12 60
12 66
12 79
12 82
13 9
13 15
13 18
13 32
13 34
13 44
13 45
13 49
13 54
13 71
13 86
14 12
14 17
14 33
14 40
14 44
14 46
14 60
14 61
14 73
14 82
14 84
15 6
15 13
15 18
15 30
15 34
15 37
15 45
15 49
15 54
15 57
15 78
15 80
16 6
16 8
16 21
16 29
16 39
16 43
16 47
16 51
16 62
16 76
17 9
17 12
17 14
17 32
17 33
17 40
17 44
17 60
17 61
17 73
17 84
18 9
18 13
18 15
18 30
18 32
18 34
18 45
18 49
18 54
18 71
18 80
18 86
19 1
19 11
19 27
19 35
19 36
19 55
19 69
19 72
20 21
20 38
20 42
20 53
20 59
20 68
20 77
20 81
21 16
21 20
21 29
21 38
21 42
21 51
21 53
21 68
21 76
21 92
22 5
22 10
22 23
22 26
22 31
22 41
22 48
22 50
22 56
22 58
22 70
22 75
23 1
23 5
23 10
23 22
23 26
23 35
23 41
23 50
23 56
23 58
23 70
23 74
23 91
24 2
24 3
24 4
24 12
24 25
24 33
24 46
24 52
24 63
24 64
24 66
24 79
24 90
25 2
25 3
25 4
25 7
25 24
25 28
25 52
25 63
25 64
25 65
25 88
25 89
25 90
26 5
26 7
26 22
26 23
26 28
26 31
26 41
26 48
26 56
26 58
26 65
26 75
26 87
26 98
27 1
27 10
27 11
27 19
27 35
27 36
27 50
27 55
27 69
27 72
27 74
27 96
28 3
28 4
28 7
28 25
28 26
28 31
28 48
28 52
28 58
28 64
28 65
28 75
28 87
28 88
29 8
29 16
29 21
29 38
29 39
29 47
29 51
29 53
29 62
29 68
29 76
29 92
29 94
30 6
30 15
30 18
30 34
30 37
30 43
30 49
30 54
30 57
30 67
30 78
30 80
30 95
31 4
31 7
31 22
31 26
31 28
31 48
31 52
31 56
31 58
31 65
31 75
31 87
32 9
32 13
32 17
32 18
32 44
32 45
32 54
32 61
32 71
32 73
32 83
32 86
32 104
33 12
33 14
33 17
33 24
33 40
33 46
33 60
33 61
33 66
33 79
33 82
33 84
33 102
34 13
34 15
34 18
34 30
34 37
34 45
34 49
34 54
34 57
34 78
34 80
34 86
35 1
35 5
35 10
35 11
35 19
35 23
35 27
35 36
35 41
35 50
35 55
35 69
35 70
35 72
35 74
35 93
35 96
36 1
36 11
36 19
36 27
36 35
36 55
36 69
36 72
36 74
36 96
37 6
37 8
37 15
37 30
37 34
37 43
37 47
37 49
37 57
37 67
37 78
37 85
37 95
37 101
38 20
38 21
38 29
38 42
38 53
38 59
38 68
38 77
38 81
38 92
38 97
39 6
39 8
39 16
39 29
39 43
39 47
39 51
39 62
39 67
39 76
39 85
39 94
40 12
40 14
40 17
40 33
40 44
40 46
40 60
40 61
40 73
40 79
40 82
40 84
41 1
41 5
41 10
41 22
41 23
41 26
41 35
41 50
41 56
41 58
41 70
41 74
41 91
41 93
41 99
42 20
42 21
42 38
42 53
42 59
42 68
42 77
42 81
42 97
43 6
43 8
43 16
43 30
43 37
43 39
43 47
43 57
43 62
43 67
43 85
43 95
43 101
44 9
44 13
44 14
44 17
44 32
44 40
44 60
44 61
44 71
44 73
44 83
44 84
44 100
44 104
45 9
45 13
45 15
45 18
45 32
45 34
45 49
45 54
45 71
45 80
45 83
45 86
45 103
45 106
46 2
46 12
46 14
46 24
46 33
46 40
46 60
46 63
46 66
46 79
46 82
46 84
46 90
46 102
47 6
47 8
47 16
47 29
47 37
47 39
47 43
47 51
47 62
47 67
47 76
47 85
47 94
47 101
48 7
48 22
48 26
48 28
48 31
48 52
48 56
48 58
48 65
48 75
48 87
48 88
48 98
48 111
49 13
49 15
49 18
49 30
49 34
49 37
49 45
49 54
49 57
49 67
49 78
49 80
49 86
49 95
49 106
49 109
49 115
50 1
50 5
50 10
50 11
50 22
50 23
50 27
50 35
50 41
50 56
50 69
50 70
50 74
50 91
50 93
50 121
51 16
51 21
51 29
51 39
51 47
51 53
51 62
51 68
51 76
51 85
51 92
51 94
51 105
52 3
52 4
52 7
52 24
52 25
52 28
52 31
52 48
52 63
52 64
52 65
52 75
52 87
52 88
52 89
52 90
52 113
52 118
53 20
53 21
53 29
53 38
53 42
53 51
53 68
53 76
53 81
53 92
53 97
53 105
53 122
54 9
54 13
54 15
54 18
54 30
54 32
54 34
54 45
54 49
54 57
54 71
54 78
54 80
54 83
54 86
54 103
54 106
54 115
55 11
55 19
55 27
55 35
55 36
55 69
55 72
55 74
55 96
55 112
56 5
56 10
56 22
56 23
56 26
56 31
56 41
56 48
56 50
56 58
56 70
56 75
56 91
56 93
56 98
56 99
56 114
56 117
57 6
57 15
57 30
57 34
57 37
57 43
57 49
57 54
57 67
57 78
57 80
57 85
57 95
57 101
57 109
57 115
57 127
58 22
58 23
58 26
58 28
58 31
58 41
58 48
58 56
58 65
58 70
58 75
58 87
58 91
58 98
58 99
58 111
58 114
59 20
59 38
59 42
59 68
59 77
59 81
59 97
59 108
60 12
60 14
60 17
60 33
60 40
60 44
60 46
60 61
60 66
60 73
60 79
60 82
60 84
60 102
60 110
61 14
61 17
61 32
61 33
61 40
61 44
61 60
61 71
61 73
61 82
61 83
61 84
61 100
61 104
61 110
61 116
62 8
62 16
62 29
62 39
62 43
62 47
62 51
62 67
62 76
62 85
62 94
62 101
62 119
62 126
63 2
63 3
63 24
63 25
63 46
63 52
63 64
63 66
63 79
63 88
63 89
63 90
63 102
63 107
63 118
63 128
64 2
64 3
64 4
64 7
64 24
64 25
64 28
64 52
64 63
64 65
64 66
64 87
64 88
64 89
64 90
64 107
64 113
64 118
65 4
65 7
65 25
65 26
65 28
65 31
65 48
65 52
65 58
65 64
65 75
65 87
65 88
65 89
65 113
65 118
65 124
65 130
66 2
66 12
66 24
66 33
66 46
66 60
66 63
66 64
66 79
66 82
66 89
66 90
66 102
66 107
66 125
66 128
67 6
67 8
67 30
67 37
67 39
67 43
67 47
67 49
67 57
67 62
67 78
67 85
67 94
67 95
67 101
67 109
67 119
67 133
68 20
68 21
68 29
68 38
68 42
68 51
68 53
68 59
68 76
68 77
68 81
68 92
68 97
68 105
68 108
68 122
69 1
69 11
69 19
69 27
69 35
69 36
69 50
69 55
69 70
69 72
69 74
69 93
69 96
69 112
69 121
69 123
69 131
70 5
70 10
70 22
70 23
70 35
70 41
70 50
70 56
70 58
70 69
70 74
70 91
70 93
70 98
70 99
70 114
70 117
70 121
71 9
71 13
71 18
71 32
71 44
71 45
71 54
71 61
71 73
71 80
71 83
71 86
71 100
71 103
71 104
71 106
71 116
71 120
71 138
72 11
72 19
72 27
72 35
72 36
72 55
72 69
72 74
72 96
72 112
72 123
72 131
73 14
73 17
73 32
73 40
73 44
73 60
73 61
73 71
73 82
73 83
73 84
73 100
73 104
73 110
73 116
73 120
73 132
73 134
74 1
74 10
74 11
74 23
74 27
74 35
74 36
74 41
74 50
74 55
74 69
74 70
74 72
74 91
74 93
74 96
74 121
74 123
75 22
75 26
75 28
75 31
75 48
75 52
75 56
75 58
75 65
75 87
75 88
75 98
75 99
75 111
75 113
75 114
75 124
75 130
75 141
76 16
76 21
76 29
76 39
76 47
76 51
76 53
76 62
76 68
76 85
76 92
76 94
76 105
76 122
76 126
76 137
77 20
77 38
77 42
77 59
77 68
77 81
77 97
77 108
77 129
77 140
78 15
78 30
78 34
78 37
78 49
78 54
78 57
78 67
78 80
78 86
78 95
78 101
78 106
78 109
78 115
78 127
78 135
79 12
79 24
79 33
79 40
79 46
79 60
79 63
79 66
79 82
79 84
79 90
79 102
79 107
79 110
79 125
79 128
80 15
80 18
80 30
80 34
80 45
80 49
80 54
80 57
80 71
80 78
80 86
80 95
80 103
80 106
80 109
80 115
80 127
80 135
80 138
81 20
81 38
81 42
81 53
81 59
81 68
81 77
81 97
81 108
81 122
81 129
81 140
82 12
82 14
82 33
82 40
82 46
82 60
82 61
82 66
82 73
82 79
82 84
82 102
82 110
82 125
82 132
83 32
83 44
83 45
83 54
83 61
83 71
83 73
83 86
83 100
83 103
83 104
83 106
83 116
83 120
83 134
83 138
83 147
84 14
84 17
84 33
84 40
84 44
84 46
84 60
84 61
84 73
84 79
84 82
84 100
84 102
84 110
84 116
84 125
84 132
84 134
84 154
85 37
85 39
85 43
85 47
85 51
85 57
85 62
85 67
85 76
85 94
85 95
85 101
85 119
85 126
85 133
85 145
86 13
86 18
86 32
86 34
86 45
86 49
86 54
86 71
86 78
86 80
86 83
86 100
86 103
86 104
86 106
86 115
86 120
86 135
86 138
86 153
87 26
87 28
87 31
87 48
87 52
87 58
87 64
87 65
87 75
87 88
87 89
87 98
87 111
87 113
87 118
87 124
87 130
87 141
87 144
88 25
88 28
88 48
88 52
88 63
88 64
88 65
88 75
88 87
88 89
88 90
88 107
88 113
88 118
88 124
88 130
88 136
88 144
89 25
89 52
89 63
89 64
89 65
89 66
89 87
89 88
89 90
89 107
89 113
89 118
89 128
89 136
89 144
90 24
90 25
90 46
90 52
90 63
90 64
90 66
90 79
90 88
90 89
90 102
90 107
90 113
90 118
90 125
90 128
90 136
90 148
91 23
91 41
91 50
91 56
91 58
91 70
91 74
91 93
91 98
91 99
91 114
91 117
91 121
91 139
91 142
91 146
92 21
92 29
92 38
92 51
92 53
92 68
92 76
92 94
92 97
92 105
92 122
92 126
92 137
92 151
93 35
93 41
93 50
93 56
93 69
93 70
93 74
93 91
93 96
93 99
93 117
93 121
93 123
93 142
93 143
93 146
94 29
94 39
94 47
94 51
94 62
94 67
94 76
94 85
94 92
94 101
94 105
94 119
94 126
94 137
94 145
94 157
95 30
95 37
95 43
95 49
95 57
95 67
95 78
95 80
95 85
95 101
95 106
95 109
95 115
95 119
95 127
95 133
95 135
95 155
95 156
96 27
96 35
96 36
96 55
96 69
96 72
96 74
96 93
96 112
96 121
96 123
96 131
96 149
96 150
97 38
97 42
97 53
97 59
97 68
97 77
97 81
97 92
97 105
97 108
97 122
97 140
97 151
97 162
98 26
98 48
98 56
98 58
98 70
98 75
98 87
98 91
98 99
98 111
98 114
98 117
98 124
98 130
98 139
98 141
98 142
98 158
99 41
99 56
99 58
99 70
99 75
99 91
99 93
99 98
99 111
99 114
99 117
99 121
99 124
99 139
99 141
99 142
99 146
100 44
100 61
100 71
100 73
100 83
100 84
100 86
100 103
100 104
100 110
100 116
100 120
100 132
100 134
100 147
100 159
100 160
101 37
101 43
101 47
101 57
101 62
101 67
101 78
101 85
101 94
101 95
101 109
101 115
101 119
101 126
101 127
101 133
101 145
101 155
101 156
101 163
102 33
102 46
102 60
102 63
102 66
102 79
102 82
102 84
102 90
102 107
102 110
102 125
102 128
102 132
102 148
102 152
102 154
103 45
103 54
103 71
103 80
103 83
103 86
103 100
103 104
103 106
103 115
103 120
103 135
103 138
103 147
103 153
103 161
103 164
104 32
104 44
104 61
104 71
104 73
104 83
104 86
104 100
104 103
104 106
104 116
104 120
104 134
104 138
104 147
104 153
104 160
104 164
105 51
105 53
105 68
105 76
105 92
105 94
105 97
105 122
105 126
105 137
105 151
105 157
105 168
106 45
106 49
106 54
106 71
106 78
106 80
106 83
106 86
106 95
106 103
106 104
106 109
106 115
106 120
106 127
106 135
106 138
106 153
106 161
106 164
106 165
107 63
107 64
107 66
107 79
107 88
107 89
107 90
107 102
107 118
107 125
107 128
107 136
107 148
107 152
107 177
108 59
108 68
108 77
108 81
108 97
108 129
108 140
108 172
109 49
109 57
109 67
109 78
109 80
109 95
109 101
109 106
109 115
109 127
109 133
109 135
109 155
109 156
109 165
110 60
110 61
110 73
110 79
110 82
110 84
110 100
110 102
110 116
110 120
110 125
110 132
110 134
110 147
110 152
110 154
110 159
110 160
110 179
110 183
111 48
111 58
111 75
111 87
111 98
111 99
111 113
111 114
111 117
111 124
111 130
111 139
111 141
111 142
111 158
111 166
111 173
111 182
112 55
112 69
112 72
112 96
112 123
112 131
112 149
112 150
112 169
113 52
113 64
113 65
113 75
113 87
113 88
113 89
113 90
113 111
113 118
113 124
113 130
113 136
113 141
113 144
113 158
113 170
113 171
113 182
114 56
114 58
114 70
114 75
114 91
114 98
114 99
114 111
114 117
114 124
114 130
114 139
114 141
114 142
114 146
114 158
114 166
114 173
114 175
115 49
115 54
115 57
115 78
115 80
115 86
115 95
115 101
115 103
115 106
115 109
115 127
115 135
115 138
115 153
115 156
115 161
115 165
115 187
116 61
116 71
116 73
116 83
116 84
116 100
116 104
116 110
116 120
116 132
116 134
116 147
116 154
116 159
116 160
116 164
116 180
116 183
117 56
117 70
117 91
117 93
117 98
117 99
117 111
117 114
117 121
117 139
117 141
117 142
117 143
117 146
117 166
117 173
117 175
118 52
118 63
118 64
118 65
118 87
118 88
118 89
118 90
118 107
118 113
118 128
118 130
118 136
118 144
118 148
118 170
118 171
118 177
119 62
119 67
119 85
119 94
119 95
119 101
119 126
119 127
119 133
119 137
119 145
119 155
119 157
119 163
119 176
119 184
119 185
120 71
120 73
120 83
120 86
120 100
120 103
120 104
120 106
120 110
120 116
120 134
120 138
120 147
120 153
120 159
120 160
120 161
120 164
120 180
120 186
120 189
121 50
121 69
121 70
121 74
121 91
121 93
121 96
121 99
121 117
121 123
121 131
121 142
121 143
121 146
121 149
121 150
121 167
121 174
121 175
122 53
122 68
122 76
122 81
122 92
122 97
122 105
122 137
122 151
122 157
122 162
122 168
122 188
123 69
123 72
123 74
123 93
123 96
123 112
123 121
123 131
123 143
123 146
123 149
123 150
123 167
123 169
123 174
124 65
124 75
124 87
124 88
124 98
124 99
124 111
124 113
124 114
124 130
124 139
124 141
124 144
124 158
124 166
124 170
124 173
124 182
125 66
125 79
125 82
125 84
125 90
125 102
125 107
125 110
125 128
125 132
125 148
125 152
125 154
125 177
125 178
125 179
126 62
126 76
126 85
126 92
126 94
126 101
126 105
126 119
126 133
126 137
126 145
126 155
126 157
126 163
126 168
126 184
126 185
126 190
127 57
127 78
127 80
127 95
127 101
127 106
127 109
127 115
127 119
127 133
127 135
127 155
127 156
127 163
127 165
127 176
127 181
127 187
127 199
128 63
128 66
128 79
128 89
128 90
128 102
128 107
128 118
128 125
128 136
128 148
128 152
128 171
128 177
128 178
129 77
129 81
129 108
129 140
129 172
130 65
130 75
130 87
130 88
130 98
130 111
130 113
130 114
130 118
130 124
130 136
130 139
130 141
130 144
130 158
130 170
130 171
130 173
130 182
130 196
131 69
131 72
131 96
131 112
131 121
131 123
131 143
131 149
131 150
131 167
131 169
131 174
131 195
132 73
132 82
132 84
132 100
132 102
132 110
132 116
132 125
132 134
132 147
132 152
132 154
132 159
132 160
132 178
132 179
132 180
132 183
132 202
133 67
133 85
133 95
133 101
133 109
133 119
133 126
133 127
133 145
133 155
133 156
133 163
133 176
133 181
133 184
133 185
134 73
134 83
134 84
134 100
134 104
134 110
134 116
134 120
134 132
134 147
134 154
134 159
134 160
134 164
134 179
134 180
134 183
134 189
134 203
135 78
135 80
135 86
135 95
135 103
135 106
135 109
135 115
135 127
135 138
135 153
135 156
135 161
135 164
135 165
135 181
135 186
135 187
135 191
135 194
136 88
136 89
136 90
136 107
136 113
136 118
136 128
136 130
136 144
136 148
136 170
136 171
136 177
136 200
137 76
137 92
137 94
137 105
137 119
137 122
137 126
137 145
137 151
137 157
137 163
137 168
137 184
137 188
137 190
137 207
138 71
138 80
138 83
138 86
138 103
138 104
138 106
138 115
138 120
138 135
138 147
138 153
138 160
138 161
138 164
138 165
138 186
138 191
138 193
138 194
139 91
139 98
139 99
139 111
139 114
139 117
139 124
139 130
139 141
139 142
139 146
139 158
139 166
139 173
139 175
139 182
139 196
139 205
139 209
139 210
140 77
140 81
140 97
140 108
140 129
140 162
140 172
140 192
140 206
141 75
141 87
141 98
141 99
141 111
141 113
141 114
141 117
141 124
141 130
141 139
141 142
141 144
141 158
141 166
141 170
141 173
141 182
141 196
141 209
142 91
142 93
142 98
142 99
142 111
142 114
142 117
142 121
142 139
142 141
142 143
142 146
142 166
142 167
142 173
142 175
142 197
142 205
142 210
143 93
143 117
143 121
143 123
143 131
143 142
143 146
143 149
143 150
143 167
143 169
143 174
143 175
143 195
143 197
143 198
144 87
144 88
144 89
144 113
144 118
144 124
144 130
144 136
144 141
144 158
144 170
144 171
144 177
144 182
144 200
144 201
145 85
145 94
145 101
145 119
145 126
145 133
145 137
145 155
145 157
145 163
145 168
145 176
145 184
145 185
145 190
145 213
146 91
146 93
146 99
146 114
146 117
146 121
146 123
146 139
146 142
146 143
146 149
146 166
146 167
146 174
146 175
146 197
146 198
146 205
147 83
147 100
147 103
147 104
147 110
147 116
147 120
147 132
147 134
147 138
147 153
147 159
147 160
147 161
147 164
147 180
147 183
147 186
147 189
147 193
147 203
147 218
148 90
148 102
148 107
148 118
148 125
148 128
148 136
148 152
148 171
148 177
148 178
148 179
148 200
148 204
148 214
148 215
149 96
149 112
149 121
149 123
149 131
149 143
149 146
149 150
149 167
149 169
149 174
149 195
149 197
149 198
149 211
149 220
150 96
150 112
150 121
150 123
150 131
150 143
150 149
150 167
150 169
150 174
150 195
150 198
150 211
151 92
151 97
151 105
151 122
151 137
151 157
151 162
151 168
151 188
151 190
151 192
151 207
151 212
152 102
152 107
152 110
152 125
152 128
152 132
152 148
152 154
152 177
152 178
152 179
152 183
152 202
152 204
152 215
153 86
153 103
153 104
153 106
153 115
153 120
153 135
153 138
153 147
153 160
153 161
153 164
153 165
153 180
153 186
153 189
153 191
153 193
153 194
153 221
154 84
154 102
154 110
154 116
154 125
154 132
154 134
154 152
154 159
154 160
154 178
154 179
154 180
154 183
154 202
154 203
154 204
154 219
154 223
155 95
155 101
155 109
155 119
155 126
155 127
155 133
155 145
155 156
155 163
155 176
155 181
155 184
155 185
155 187
155 199
155 208
155 216
156 95
156 101
156 109
156 115
156 127
156 133
156 135
156 155
156 161
156 163
156 165
156 176
156 181
156 187
156 191
156 199
156 208
156 222
157 94
157 105
157 119
157 122
157 126
157 137
157 145
157 151
157 163
157 168
157 184
157 185
157 188
157 190
157 207
157 213
157 226
158 98
158 111
158 113
158 114
158 124
158 130
158 139
158 141
158 144
158 166
158 170
158 171
158 173
158 182
158 196
158 201
158 209
158 217
159 100
159 110
159 116
159 120
159 132
159 134
159 147
159 154
159 160
159 164
159 179
159 180
159 183
159 189
159 202
159 203
159 223
159 225
160 100
160 104
160 110
160 116
160 120
160 132
160 134
160 138
160 147
160 153
160 154
160 159
160 161
160 164
160 180
160 183
160 186
160 189
160 193
160 202
160 203
160 218
160 225
161 103
161 106
161 115
161 120
161 135
161 138
161 147
161 153
161 156
161 160
161 164
161 165
161 186
161 187
161 191
161 193
161 194
161 221
161 228
162 97
162 122
162 140
162 151
162 168
162 172
162 188
162 192
162 206
162 212
163 101
163 119
163 126
163 127
163 133
163 137
163 145
163 155
163 156
163 157
163 176
163 181
163 184
163 185
163 190
163 208
163 213
163 216
164 103
164 104
164 106
164 116
164 120
164 134
164 135
164 138
164 147
164 153
164 159
164 160
164 161
164 165
164 180
164 186
164 189
164 191
164 193
164 194
164 218
164 221
165 106
165 109
165 115
165 127
165 135
165 138
165 153
165 156
165 161
165 164
165 181
165 186
165 187
165 191
165 193
165 194
165 199
165 222
165 228
166 111
166 114
166 117
166 124
166 139
166 141
166 142
166 146
166 158
166 173
166 175
166 182
166 196
166 205
166 209
166 210
166 224
166 227
167 121
167 123
167 131
167 142
167 143
167 146
167 149
167 150
167 169
167 174
167 175
167 195
167 197
167 198
167 205
167 220
167 230
168 105
168 122
168 126
168 137
168 145
168 151
168 157
168 162
168 184
168 188
168 190
168 192
168 207
168 212
168 226
169 112
169 123
169 131
169 143
169 149
169 150
169 167
169 174
169 195
169 197
169 198
169 211
169 220
169 231
170 113
170 118
170 124
170 130
170 136
170 141
170 144
170 158
170 171
170 173
170 177
170 182
170 196
170 200
170 201
170 217
170 229
170 233
171 113
171 118
171 128
171 130
171 136
171 144
171 148
171 158
171 170
171 177
171 182
171 200
171 201
171 214
171 233
171 235
172 108
172 129
172 140
172 162
172 192
172 206
172 212
172 236
173 111
173 114
173 117
173 124
173 130
173 139
173 141
173 142
173 158
173 166
173 170
173 175
173 182
173 196
173 205
173 209
173 210
173 217
173 224
173 239
174 121
174 123
174 131
174 143
174 146
174 149
174 150
174 167
174 169
174 175
174 195
174 197
174 198
174 211
174 220
174 231
174 242
175 114
175 117
175 121
175 139
175 142
175 143
175 146
175 166
175 167
175 173
175 174
175 197
175 198
175 205
175 209
175 210
175 224
175 227
175 230
176 119
176 127
176 133
176 145
176 155
176 156
176 163
176 181
176 184
176 185
176 187
176 199
176 208
176 213
176 216
176 222
176 237
177 107
177 118
177 125
177 128
177 136
177 144
177 148
177 152
177 170
177 171
177 178
177 200
177 204
177 214
177 215
177 234
177 235
178 125
178 128
178 132
178 148
178 152
178 154
178 177
178 179
178 183
178 202
178 204
178 214
178 215
178 219
178 234
178 238
179 110
179 125
179 132
179 134
179 148
179 152
179 154
179 159
179 178
179 180
179 183
179 202
179 203
179 204
179 219
179 223
179 238
180 116
180 120
180 132
180 134
180 147
180 153
180 154
180 159
180 160
180 164
180 179
180 183
180 186
180 189
180 193
180 202
180 203
180 218
180 221
180 223
180 225
180 244
181 127
181 133
181 135
181 155
181 156
181 163
181 165
181 176
181 185
181 187
181 191
181 199
181 208
181 216
181 222
181 237
182 111
182 113
182 124
182 130
182 139
182 141
182 144
182 158
182 166
182 170
182 171
182 173
182 196
182 200
182 201
182 209
182 217
182 229
182 233
182 239
182 250
183 110
183 116
183 132
183 134
183 147
183 152
183 154
183 159
183 160
183 178
183 179
183 180
183 189
183 202
183 203
183 204
183 218
183 219
183 223
183 225
183 244
183 247
184 119
184 126
184 133
184 137
184 145
184 155
184 157
184 163
184 168
184 176
184 185
184 190
184 207
184 208
184 213
184 216
184 226
184 232
184 243
185 119
185 126
185 133
185 145
185 155
185 157
185 163
185 176
185 181
185 184
185 190
185 199
185 208
185 213
185 216
185 232
185 237
186 120
186 135
186 138
186 147
186 153
186 160
186 161
186 164
186 165
186 180
186 187
186 189
186 191
186 193
186 194
186 218
186 221
186 228
186 241
187 115
187 127
187 135
187 155
187 156
187 161
187 165
187 176
187 181
187 186
187 191
187 194
187 199
187 208
187 222
187 228
187 249
187 255
188 122
188 137
188 151
188 157
188 162
188 168
188 190
188 192
188 207
188 212
188 226
188 240
189 120
189 134
189 147
189 153
189 159
189 160
189 164
189 180
189 183
189 186
189 193
189 194
189 202
189 203
189 218
189 221
189 223
189 225
189 241
189 244
189 254
190 126
190 137
190 145
190 151
190 157
190 163
190 168
190 184
190 185
190 188
190 207
190 213
190 216
190 226
190 232
190 243
190 259
191 135
191 138
191 153
191 156
191 161
191 164
191 165
191 181
191 186
191 187
191 193
191 194
191 199
191 221
191 222
191 228
191 241
191 249
191 255
192 140
192 151
192 162
192 168
192 172
192 188
192 206
192 207
192 212
192 236
192 240
192 253
193 138
193 147
193 153
193 160
193 161
193 164
193 165
193 180
193 186
193 189
193 191
193 194
193 203
193 218
193 221
193 225
193 228
193 241
193 254
193 262
194 135
194 138
194 153
194 161
194 164
194 165
194 186
194 187
194 189
194 191
194 193
194 218
194 221
194 222
194 228
194 241
194 254
194 262
195 131
195 143
195 149
195 150
195 167
195 169
195 174
195 197
195 198
195 211
195 220
195 231
195 242
195 261
196 130
196 139
196 141
196 158
196 166
196 170
196 173
196 182
196 201
196 209
196 210
196 217
196 224
196 229
196 233
196 239
196 245
196 250
197 142
197 143
197 146
197 149
197 167
197 169
197 174
197 175
197 195
197 198
197 205
197 210
197 220
197 224
197 227
197 230
197 242
197 258
197 263
198 143
198 146
198 149
198 150
198 167
198 169
198 174
198 175
198 195
198 197
198 205
198 211
198 220
198 227
198 230
198 231
198 242
198 258
198 261
199 127
199 155
199 156
199 165
199 176
199 181
199 185
199 187
199 191
199 208
199 216
199 222
199 228
199 237
199 249
199 255
199 260
200 136
200 144
200 148
200 170
200 171
200 177
200 182
200 201
200 214
200 215
200 229
200 233
200 234
200 235
200 248
200 251
201 144
201 158
201 170
201 171
201 182
201 196
201 200
201 214
201 217
201 229
201 233
201 235
201 239
201 248
201 250
202 132
202 152
202 154
202 159
202 160
202 178
202 179
202 180
202 183
202 189
202 203
202 204
202 218
202 219
202 223
202 225
202 238
202 244
202 247
202 264
202 268
203 134
203 147
203 154
203 159
203 160
203 179
203 180
203 183
203 189
203 193
203 202
203 218
203 219
203 221
203 223
203 225
203 244
203 247
203 264
204 148
204 152
204 154
204 177
204 178
204 179
204 183
204 202
204 214
204 215
204 219
204 223
204 234
204 238
204 247
204 252
204 256
205 139
205 142
205 146
205 166
205 167
205 173
205 175
205 197
205 198
205 209
205 210
205 220
205 224
205 227
205 230
205 245
205 258
205 263
205 266
205 272
206 140
206 162
206 172
206 192
206 212
206 236
206 246
206 253
206 270
207 137
207 151
207 157
207 168
207 184
207 188
207 190
207 192
207 212
207 213
207 226
207 232
207 240
207 243
207 259
208 155
208 156
208 163
208 176
208 181
208 184
208 185
208 187
208 199
208 213
208 216
208 222
208 232
208 237
208 249
208 257
208 260
208 273
209 139
209 141
209 158
209 166
209 173
209 175
209 182
209 196
209 205
209 210
209 217
209 224
209 227
209 229
209 239
209 245
209 250
209 266
210 139
210 142
210 166
210 173
210 175
210 196
210 197
210 205
210 209
210 217
210 224
210 227
210 230
210 239
210 245
210 263
210 266
211 149
211 150
211 169
211 174
211 195
211 198
211 220
211 231
211 242
211 261
211 269
212 151
212 162
212 168
212 172
212 188
212 192
212 206
212 207
212 226
212 236
212 240
212 253
212 259
212 267
213 145
213 157
213 163
213 176
213 184
213 185
213 190
213 207
213 208
213 216
213 226
213 232
213 237
213 243
213 257
213 273
213 275
214 148
214 171
214 177
214 178
214 200
214 201
214 204
214 215
214 233
214 234
214 235
214 238
214 248
214 251
214 252
214 274
214 280
215 148
215 152
215 177
215 178
215 200
215 204
215 214
215 219
215 234
215 235
215 238
215 251
215 252
215 256
215 274
216 155
216 163
216 176
216 181
216 184
216 185
216 190
216 199
216 208
216 213
216 232
216 237
216 243
216 257
216 260
216 273
217 158
217 170
217 173
217 182
217 196
217 201
217 209
217 210
217 224
217 229
217 233
217 239
217 245
217 248
217 250
217 266
217 279
218 147
218 160
218 164
218 180
218 183
218 186
218 189
218 193
218 194
218 202
218 203
218 221
218 223
218 225
218 241
218 244
218 254
218 262
218 264
218 271
218 278
219 154
219 178
219 179
219 183
219 202
219 203
219 204
219 215
219 223
219 225
219 238
219 244
219 247
219 252
219 256
219 264
219 268
219 277
219 284
220 149
220 167
220 169
220 174
220 195
220 197
220 198
220 205
220 211
220 227
220 230
220 231
220 242
220 258
220 261
220 263
220 269
220 287
221 153
221 161
221 164
221 180
221 186
221 189
221 191
221 193
221 194
221 203
221 218
221 225
221 228
221 241
221 244
221 254
221 262
221 265
221 271
221 278
222 156
222 165
222 176
222 181
222 187
222 191
222 194
222 199
222 208
222 228
222 237
222 241
222 249
222 255
222 260
222 265
223 154
223 159
223 179
223 180
223 183
223 189
223 202
223 203
223 204
223 218
223 219
223 225
223 238
223 244
223 247
223 256
223 264
223 268
223 277
224 166
224 173
224 175
224 196
224 197
224 205
224 209
224 210
224 217
224 227
224 230
224 239
224 245
224 263
224 266
224 272
224 276
225 159
225 160
225 180
225 183
225 189
225 193
225 202
225 203
225 218
225 219
225 221
225 223
225 244
225 247
225 254
225 264
225 268
225 271
225 277
226 157
226 168
226 184
226 188
226 190
226 207
226 212
226 213
226 232
226 240
226 243
226 259
226 267
226 275
226 283
226 289
227 166
227 175
227 197
227 198
227 205
227 209
227 210
227 220
227 224
227 230
227 245
227 258
227 263
227 266
227 272
227 276
228 161
228 165
228 186
228 187
228 191
228 193
228 194
228 199
228 221
228 222
228 241
228 249
228 255
228 262
228 265
228 285
228 292
229 170
229 182
229 196
229 200
229 201
229 209
229 217
229 233
229 239
229 245
229 248
229 250
229 279
229 281
230 167
230 175
230 197
230 198
230 205
230 210
230 220
230 224
230 227
230 242
230 245
230 258
230 261
230 263
230 272
230 287
231 169
231 174
231 195
231 198
231 211
231 220
231 242
231 258
231 261
231 269
231 291
231 294
232 184
232 185
232 190
232 207
232 208
232 213
232 216
232 226
232 237
232 243
232 257
232 259
232 273
232 275
232 283
233 170
233 171
233 182
233 196
233 200
233 201
233 214
233 217
233 229
233 234
233 235
233 239
233 248
233 250
233 251
233 280
233 281
234 177
234 178
234 200
234 204
234 214
234 215
234 233
234 235
234 238
234 251
234 252
234 256
234 274
234 280
234 290
234 296
235 171
235 177
235 200
235 201
235 214
235 215
235 233
235 234
235 238
235 248
235 251
235 252
235 274
235 280
235 296
236 172
236 192
236 206
236 212
236 240
236 246
236 253
236 267
236 270
236 282
236 286
236 293
237 176
237 181
237 185
237 199
237 208
237 213
237 216
237 222
237 232
237 243
237 249
237 257
237 260
237 273
237 288
237 295
238 178
238 179
238 202
238 204
238 214
238 215
238 219
238 223
238 234
238 235
238 247
238 251
238 252
238 256
238 268
238 274
238 284
238 290
238 296
239 173
239 182
239 196
239 201
239 209
239 210
239 217
239 224
239 229
239 233
239 245
239 248
239 250
239 266
239 276
239 279
239 281
239 299
239 301
240 188
240 192
240 207
240 212
240 226
240 236
240 243
240 253
240 259
240 267
240 275
240 282
240 289
241 186
241 189
241 191
241 193
241 194
241 218
241 221
241 222
241 228
241 254
241 255
241 262
241 265
241 271
241 278
241 285
241 298
242 174
242 195
242 197
242 198
242 211
242 220
242 230
242 231
242 258
242 261
242 263
242 269
242 287
242 291
242 294
242 308
243 184
243 190
243 207
243 213
243 216
243 226
243 232
243 237
243 240
243 257
243 259
243 273
243 275
243 283
243 289
243 302
243 310
244 180
244 183
244 189
244 202
244 203
244 218
244 219
244 221
244 223
244 225
244 247
244 254
244 264
244 268
244 271
244 277
244 300
244 305
245 196
245 205
245 209
245 210
245 217
245 224
245 227
245 229
245 230
245 239
245 250
245 263
245 266
245 272
245 276
245 279
245 297
245 299
245 301
245 314
246 206
246 236
246 253
246 270
246 286
246 293
247 183
247 202
247 203
247 204
247 219
247 223
247 225
247 238
247 244
247 252
247 256
247 264
247 268
247 277
247 284
247 290
247 300
247 306
248 200
248 201
248 214
248 217
248 229
248 233
248 235
248 239
248 250
248 251
248 279
248 280
248 281
248 304
248 311
249 187
249 191
249 199
249 208
249 222
249 228
249 237
249 255
249 260
249 265
249 273
249 285
249 288
249 292
249 318
250 182
250 196
250 201
250 209
250 217
250 229
250 233
250 239
250 245
250 248
250 266
250 276
250 279
250 281
250 301
250 304
250 311
251 200
251 214
251 215
251 233
251 234
251 235
251 238
251 248
251 252
251 256
251 274
251 280
251 281
251 290
251 296
251 304
251 309
251 313
252 204
252 214
252 215
252 219
252 234
252 235
252 238
252 247
252 251
252 256
252 268
252 274
252 280
252 284
252 290
252 296
252 313
253 192
253 206
253 212
253 236
253 240
253 246
253 259
253 267
253 270
253 282
253 286
253 289
253 293
253 315
253 317
254 189
254 193
254 194
254 218
254 221
254 225
254 241
254 244
254 262
254 264
254 265
254 271
254 278
254 285
254 298
254 305
254 316
255 187
255 191
255 199
255 222
255 228
255 241
255 249
255 260
255 262
255 265
255 278
255 285
255 288
255 292
255 307
255 318
255 320
256 204
256 215
256 219
256 223
256 234
256 238
256 247
256 251
256 252
256 268
256 274
256 277
256 284
256 290
256 296
256 306
257 208
257 213
257 216
257 232
257 237
257 243
257 260
257 273
257 275
257 283
257 288
257 295
257 302
258 197
258 198
258 205
258 220
258 227
258 230
258 231
258 242
258 261
258 263
258 269
258 272
258 287
258 294
258 303
258 308
258 322
259 190
259 207
259 212
259 226
259 232
259 240
259 243
259 253
259 267
259 275
259 282
259 283
259 289
259 310
259 315
259 319
260 199
260 208
260 216
260 222
260 237
260 249
260 255
260 257
260 273
260 288
260 292
260 295
260 302
261 195
261 198
261 211
261 220
261 230
261 231
261 242
261 258
261 263
261 269
261 287
261 291
261 294
261 308
261 312
261 326
262 193
262 194
262 218
262 221
262 228
262 241
262 254
262 255
262 265
262 271
262 278
262 285
262 292
262 298
262 307
262 316
262 321
263 197
263 205
263 210
263 220
263 224
263 227
263 230
263 242
263 245
263 258
263 261
263 266
263 272
263 276
263 287
263 297
263 303
263 308
263 322
263 324
264 202
264 203
264 218
264 219
264 223
264 225
264 244
264 247
264 254
264 268
264 271
264 277
264 278
264 300
264 305
264 306
264 316
265 221
265 222
265 228
265 241
265 249
265 254
265 255
265 262
265 278
265 285
265 288
265 292
265 298
265 307
265 318
265 320
265 321
266 205
266 209
266 210
266 217
266 224
266 227
266 239
266 245
266 250
266 263
266 272
266 276
266 279
266 297
266 299
266 301
266 303
266 314
266 324
267 212
267 226
267 236
267 240
267 253
267 259
267 275
267 282
267 286
267 289
267 315
267 317
267 319
268 202
268 219
268 223
268 225
268 238
268 244
268 247
268 252
268 256
268 264
268 277
268 284
268 290
268 300
268 305
268 306
268 331
269 211
269 220
269 231
269 242
269 258
269 261
269 287
269 291
269 294
269 308
269 312
269 326
269 329
270 206
270 236
270 246
270 253
270 282
270 286
270 293
270 317
270 328
271 218
271 221
271 225
271 241
271 244
271 254
271 262
271 264
271 277
271 278
271 298
271 300
271 305
271 316
271 321
272 205
272 224
272 227
272 230
272 245
272 258
272 263
272 266
272 276
272 287
272 297
272 299
272 303
272 308
272 314
272 322
272 324
273 208
273 213
273 216
273 232
273 237
273 243
273 249
273 257
273 260
273 275
273 283
273 288
273 295
273 302
273 323
273 330
273 333
274 214
274 215
274 234
274 235
274 238
274 251
274 252
274 256
274 280
274 284
274 290
274 296
274 304
274 309
274 313
274 325
274 336
275 213
275 226
275 232
275 240
275 243
275 257
275 259
275 267
275 273
275 283
275 289
275 295
275 302
275 310
275 319
275 323
276 224
276 227
276 239
276 245
276 250
276 263
276 266
276 272
276 279
276 297
276 299
276 301
276 303
276 311
276 314
276 324
276 327
276 340
277 219
277 223
277 225
277 244
277 247
277 256
277 264
277 268
277 271
277 284
277 290
277 300
277 305
277 306
277 331
277 334
277 335
278 218
278 221
278 241
278 254
278 255
278 262
278 264
278 265
278 271
278 285
278 292
278 298
278 305
278 307
278 316
278 320
278 321
278 342
278 347
279 217
279 229
279 239
279 245
279 248
279 250
279 266
279 276
279 281
279 297
279 299
279 301
279 304
279 311
279 314
279 327
279 346
280 214
280 233
280 234
280 235
280 248
280 251
280 252
280 274
280 281
280 296
280 304
280 309
280 313
280 332
280 337
281 229
281 233
281 239
281 248
281 250
281 251
281 279
281 280
281 301
281 304
281 309
281 311
281 327
281 332
282 236
282 240
282 253
282 259
282 267
282 270
282 286
282 289
282 293
282 315
282 317
282 319
282 343
283 226
283 232
283 243
283 257
283 259
283 273
283 275
283 289
283 295
283 302
283 310
283 319
283 323
283 339
283 345
284 219
284 238
284 247
284 252
284 256
284 268
284 274
284 277
284 290
284 296
284 300
284 306
284 313
284 325
284 331
284 335
285 228
285 241
285 249
285 254
285 255
285 262
285 265
285 278
285 288
285 292
285 298
285 307
285 318
285 320
285 321
285 342
285 349
286 236
286 246
286 253
286 267
286 270
286 282
286 293
286 315
286 317
286 328
286 343
287 220
287 230
287 242
287 258
287 261
287 263
287 269
287 272
287 291
287 294
287 303
287 308
287 312
287 322
287 326
287 329
287 338
288 237
288 249
288 255
288 257
288 260
288 265
288 273
288 285
288 292
288 295
288 307
288 318
288 320
288 330
288 333
289 226
289 240
289 243
289 253
289 259
289 267
289 275
289 282
289 283
289 310
289 315
289 317
289 319
289 344
289 351
290 234
290 238
290 247
290 251
290 252
290 256
290 268
290 274
290 277
290 284
290 296
290 306
290 309
290 313
290 325
290 331
290 336
291 231
291 242
291 261
291 269
291 287
291 294
291 308
291 312
291 326
291 329
292 228
292 249
292 255
292 260
292 262
292 265
292 278
292 285
292 288
292 307
292 318
292 320
292 321
292 330
292 348
292 349
293 236
293 246
293 253
293 270
293 282
293 286
293 317
293 328
293 343
293 353
294 231
294 242
294 258
294 261
294 269
294 287
294 291
294 308
294 312
294 322
294 326
294 329
294 338
294 356
295 237
295 257
295 260
295 273
295 275
295 283
295 288
295 302
295 310
295 318
295 323
295 330
295 333
295 339
295 345
295 360
296 234
296 235
296 238
296 251
296 252
296 256
296 274
296 280
296 284
296 290
296 304
296 309
296 313
296 325
296 336
296 337
296 355
297 245
297 263
297 266
297 272
297 276
297 279
297 299
297 301
297 303
297 314
297 322
297 324
297 327
297 340
297 346
298 241
298 254
298 262
298 265
298 271
298 278
298 285
298 305
298 307
298 316
298 320
298 321
298 341
298 342
298 347
299 239
299 245
299 266
299 272
299 276
299 279
299 297
299 301
299 303
299 311
299 314
299 324
299 327
299 340
299 346
300 244
300 247
300 264
300 268
300 271
300 277
300 284
300 305
300 306
300 316
300 331
300 334
300 335
300 341
300 354
301 239
301 245
301 250
301 266
301 276
301 279
301 281
301 297
301 299
301 311
301 314
301 324
301 327
301 340
301 346
301 350
302 243
302 257
302 260
302 273
302 275
302 283
302 295
302 310
302 323
302 333
302 339
302 345
302 352
302 360
303 258
303 263
303 266
303 272
303 276
303 287
303 297
303 299
303 308
303 314
303 322
303 324
303 326
303 338
303 340
303 364
304 248
304 250
304 251
304 274
304 279
304 280
304 281
304 296
304 309
304 311
304 313
304 327
304 332
304 337
304 350
305 244
305 254
305 264
305 268
305 271
305 277
305 278
305 298
305 300
305 306
305 316
305 334
305 335
305 341
305 347
305 354
305 359
306 247
306 256
306 264
306 268
306 277
306 284
306 290
306 300
306 305
306 325
306 331
306 334
306 335
306 354
306 361
307 255
307 262
307 265
307 278
307 285
307 288
307 292
307 298
307 316
307 318
307 320
307 321
307 342
307 347
307 348
307 349
307 366
308 242
308 258
308 261
308 263
308 269
308 272
308 287
308 291
308 294
308 303
308 312
308 322
308 324
308 326
308 329
308 338
308 356
308 364
308 372
309 251
309 274
309 280
309 281
309 290
309 296
309 304
309 311
309 313
309 332
309 336
309 337
309 355
310 243
310 259
310 275
310 283
310 289
310 295
310 302
310 315
310 319
310 323
310 339
310 344
310 345
310 351
310 352
310 367
310 369
311 248
311 250
311 276
311 279
311 281
311 299
311 301
311 304
311 309
311 314
311 327
311 332
311 346
311 350
312 261
312 269
312 287
312 291
312 294
312 308
312 326
312 329
312 356
312 362
313 251
313 252
313 274
313 280
313 284
313 290
313 296
313 304
313 309
313 325
313 331
313 332
313 336
313 337
313 355
313 357
314 245
314 266
314 272
314 276
314 279
314 297
314 299
314 301
314 303
314 311
314 324
314 327
314 340
314 346
314 368
314 375
315 253
315 259
315 267
315 282
315 286
315 289
315 310
315 317
315 319
315 328
315 343
315 344
315 351
315 358
315 365
315 367
316 254
316 262
316 264
316 271
316 278
316 298
316 300
316 305
316 307
316 321
316 334
316 341
316 342
316 347
316 359
316 366
316 374
317 253
317 267
317 270
317 282
317 286
317 289
317 293
317 315
317 319
317 328
317 343
317 351
317 353
317 358
317 365
317 373
318 249
318 255
318 265
318 285
318 288
318 292
318 295
318 307
318 320
318 330
318 333
318 348
318 349
318 363
318 370
319 259
319 267
319 275
319 282
319 283
319 289
319 310
319 315
319 317
319 323
319 343
319 344
319 345
319 351
319 352
319 358
319 367
319 369
319 383
320 255
320 265
320 278
320 285
320 288
320 292
320 298
320 307
320 318
320 321
320 330
320 342
320 347
320 348
320 349
320 363
320 366
320 370
320 378
321 262
321 265
321 271
321 278
321 285
321 292
321 298
321 307
321 316
321 320
321 341
321 342
321 347
321 348
321 349
321 366
321 374
322 258
322 263
322 272
322 287
322 294
322 297
322 303
322 308
322 324
322 326
322 338
322 340
322 356
322 364
322 368
322 372
323 273
323 275
323 283
323 295
323 302
323 310
323 319
323 333
323 339
323 344
323 345
323 352
323 360
323 369
323 377
323 384
324 263
324 266
324 272
324 276
324 297
324 299
324 301
324 303
324 308
324 314
324 322
324 338
324 340
324 346
324 364
324 368
325 274
325 284
325 290
325 296
325 306
325 313
325 331
325 335
325 336
325 355
325 357
325 361
326 261
326 269
326 287
326 291
326 294
326 303
326 308
326 312
326 322
326 329
326 338
326 356
326 362
326 364
326 372
326 381
327 276
327 279
327 281
327 297
327 299
327 301
327 304
327 311
327 314
327 332
327 340
327 346
327 350
327 375
327 376
327 380
328 270
328 286
328 293
328 315
328 317
328 343
328 353
328 365
328 373
329 269
329 287
329 291
329 294
329 308
329 312
329 326
329 338
329 356
329 362
329 381
330 273
330 288
330 292
330 295
330 318
330 320
330 333
330 339
330 348
330 349
330 360
330 363
330 370
330 386
331 268
331 277
331 284
331 290
331 300
331 306
331 313
331 325
331 334
331 335
331 336
331 354
331 357
331 361
331 371
332 280
332 281
332 304
332 309
332 311
332 313
332 327
332 336
332 337
332 350
332 355
332 376
332 380
332 385
332 390
333 273
333 288
333 295
333 302
333 318
333 323
333 330
333 339
333 345
333 348
333 360
333 363
333 370
333 377
333 384
333 386
334 277
334 300
334 305
334 306
334 316
334 331
334 335
334 341
334 354
334 359
334 361
334 371
334 379
335 277
335 284
335 300
335 305
335 306
335 325
335 331
335 334
335 341
335 354
335 357
335 359
335 361
335 371
335 379
336 274
336 290
336 296
336 309
336 313
336 325
336 331
336 332
336 337
336 355
336 357
336 361
336 385
336 388
337 280
337 296
337 304
337 309
337 313
337 332
337 336
337 350
337 355
337 357
337 380
337 385
337 388
337 390
338 287
338 294
338 303
338 308
338 322
338 324
338 326
338 329
338 356
338 362
338 364
338 368
338 372
338 381
338 387
338 402
339 283
339 295
339 302
339 310
339 323
339 330
339 333
339 345
339 352
339 360
339 363
339 369
339 377
339 384
339 386
339 394
340 276
340 297
340 299
340 301
340 303
340 314
340 322
340 324
340 327
340 346
340 364
340 368
340 375
340 387
340 392
341 298
341 300
341 305
341 316
341 321
341 334
341 335
341 342
341 347
341 354
341 359
341 366
341 371
341 374
341 379
341 382
342 278
342 285
342 298
342 307
342 316
342 320
342 321
342 341
342 347
342 348
342 349
342 366
342 370
342 374
342 378
342 382
343 282
343 286
343 293
343 315
343 317
343 319
343 328
343 351
343 353
343 358
343 365
343 367
343 373
343 389
343 396
344 289
344 310
344 315
344 319
344 323
344 345
344 351
344 352
344 358
344 367
344 369
344 377
344 383
344 398
344 399
345 283
345 295
345 302
345 310
345 319
345 323
345 333
345 339
345 344
345 352
345 360
345 367
345 369
345 377
345 383
345 384
345 394
345 399
346 279
346 297
346 299
346 301
346 311
346 314
346 324
346 327
346 340
346 350
346 368
346 375
346 376
346 380
346 392
346 393
347 278
347 298
347 305
347 307
347 316
347 320
347 321
347 341
347 342
347 349
347 359
347 366
347 374
347 378
347 379
347 382
347 406
348 292
348 307
348 318
348 320
348 321
348 330
348 333
348 342
348 349
348 363
348 366
348 370
348 378
348 391
349 285
349 292
349 307
349 318
349 320
349 321
349 330
349 342
349 347
349 348
349 363
349 366
349 370
349 374
349 378
349 391
350 301
350 304
350 311
350 327
350 332
350 337
350 346
350 355
350 375
350 376
350 380
350 385
350 390
350 393
351 289
351 310
351 315
351 317
351 319
351 343
351 344
351 352
351 358
351 365
351 367
351 369
351 383
351 389
351 398
352 302
352 310
352 319
352 323
352 339
352 344
352 345
352 351
352 358
352 360
352 367
352 369
352 377
352 383
352 384
352 394
352 399
353 293
353 317
353 328
353 343
353 358
353 365
353 373
353 396
353 403
354 300
354 305
354 306
354 331
354 334
354 335
354 341
354 359
354 361
354 371
354 379
354 401
354 408
355 296
355 309
355 313
355 325
355 332
355 336
355 337
355 350
355 357
355 380
355 385
355 388
355 390
355 404
355 407
356 294
356 308
356 312
356 322
356 326
356 329
356 338
356 362
356 364
356 372
356 381
356 395
356 400
356 402
356 416
357 313
357 325
357 331
357 335
357 336
357 337
357 355
357 361
357 388
357 397
357 401
357 404
357 407
357 413
358 315
358 317
358 319
358 343
358 344
358 351
358 352
358 353
358 365
358 367
358 369
358 373
358 383
358 389
358 396
358 398
358 412
359 305
359 316
359 334
359 335
359 341
359 347
359 354
359 366
359 371
359 374
359 379
359 382
359 406
359 408
360 295
360 302
360 323
360 330
360 333
360 339
360 345
360 352
360 363
360 369
360 377
360 384
360 386
360 394
361 306
361 325
361 331
361 334
361 335
361 336
361 354
361 357
361 371
361 397
361 401
361 407
361 413
362 312
362 326
362 329
362 338
362 356
362 372
362 381
362 395
362 400
362 420
363 318
363 320
363 330
363 333
363 339
363 348
363 349
363 360
363 370
363 378
363 384
363 386
363 391
363 421
364 303
364 308
364 322
364 324
364 326
364 338
364 340
364 356
364 368
364 372
364 381
364 387
364 400
364 402
364 405
364 410
365 315
365 317
365 328
365 343
365 351
365 353
365 358
365 367
365 373
365 389
365 396
365 398
365 403
365 412
365 417
366 307
366 316
366 320
366 321
366 341
366 342
366 347
366 348
366 349
366 359
366 370
366 374
366 378
366 382
366 406
366 414
367 310
367 315
367 319
367 343
367 344
367 345
367 351
367 352
367 358
367 365
367 369
367 377
367 383
367 389
367 398
367 399
368 314
368 322
368 324
368 338
368 340
368 346
368 364
368 372
368 375
368 387
368 392
368 402
368 405
368 410
368 415
368 423
369 310
369 319
369 323
369 339
369 344
369 345
369 351
369 352
369 358
369 360
369 367
369 377
369 383
369 384
369 394
369 398
369 399
370 318
370 320
370 330
370 333
370 342
370 348
370 349
370 363
370 366
370 378
370 386
370 391
370 418
370 421
371 331
371 334
371 335
371 341
371 354
371 359
371 361
371 379
371 382
371 397
371 401
371 408
371 413
371 419
372 308
372 322
372 326
372 338
372 356
372 362
372 364
372 368
372 381
372 387
372 395
372 400
372 402
372 405
372 416
372 427
373 317
373 328
373 343
373 353
373 358
373 365
373 389
373 396
373 403
373 412
373 417
374 316
374 321
374 341
374 342
374 347
374 349
374 359
374 366
374 378
374 379
374 382
374 406
374 414
374 428
375 314
375 327
375 340
375 346
375 350
375 368
375 376
375 380
375 392
375 393
375 410
375 411
375 415
376 327
376 332
376 346
376 350
376 375
376 380
376 390
376 392
376 393
376 409
376 411
376 415
377 323
377 333
377 339
377 344
377 345
377 352
377 360
377 367
377 369
377 383
377 384
377 386
377 394
377 399
377 429
378 320
378 342
378 347
378 348
378 349
378 363
378 366
378 370
378 374
378 391
378 414
378 418
378 421
379 334
379 335
379 341
379 347
379 354
379 359
379 371
379 374
379 382
379 401
379 406
379 408
379 424
379 432
380 327
380 332
380 337
380 346
380 350
380 355
380 375
380 376
380 385
380 390
380 393
380 409
380 411
380 422
381 326
381 329
381 338
381 356
381 362
381 364
381 372
381 387
381 395
381 400
381 402
381 405
381 416
381 420
381 431
382 341
382 342
382 347
382 359
382 366
382 371
382 374
382 379
382 406
382 408
382 414
382 424
382 428
383 319
383 344
383 345
383 351
383 352
383 358
383 367
383 369
383 377
383 384
383 389
383 394
383 398
383 399
383 444
384 323
384 333
384 339
384 345
384 352
384 360
384 363
384 369
384 377
384 383
384 386
384 394
384 399
384 429
384 435
385 332
385 336
385 337
385 350
385 355
385 380
385 388
385 390
385 404
385 407
385 409
385 422
385 425
385 426
386 330
386 333
386 339
386 360
386 363
386 370
386 377
386 384
386 391
386 394
386 421
386 430
386 435
387 338
387 340
387 364
387 368
387 372
387 381
387 392
387 400
387 402
387 405
387 410
387 415
387 416
387 423
387 427
387 437
387 442
388 336
388 337
388 355
388 357
388 385
388 390
388 397
388 404
388 407
388 409
388 413
388 425
388 426
388 436
389 343
389 351
389 358
389 365
389 367
389 373
389 383
389 396
389 398
389 403
389 412
389 417
390 332
390 337
390 350
390 355
390 376
390 380
390 385
390 388
390 404
390 409
390 411
390 422
390 425
390 426
390 441
390 443
391 348
391 349
391 363
391 370
391 378
391 386
391 414
391 418
391 421
391 430
391 438
391 453
392 340
392 346
392 368
392 375
392 376
392 387
392 393
392 405
392 410
392 411
392 415
392 423
392 434
392 440
392 442
393 346
393 350
393 375
393 376
393 380
393 392
393 409
393 410
393 411
393 415
393 423
393 434
393 440
393 441
394 339
394 345
394 352
394 360
394 369
394 377
394 383
394 384
394 386
394 399
394 429
394 435
394 450
395 356
395 362
395 372
395 381
395 400
395 402
395 416
395 420
395 431
395 456
396 343
396 353
396 358
396 365
396 373
396 389
396 398
396 403
396 412
396 417
397 357
397 361
397 371
397 388
397 401
397 404
397 407
397 408
397 413
397 419
397 425
397 436
397 439
397 446
398 344
398 351
398 358
398 365
398 367
398 369
398 383
398 389
398 396
398 399
398 412
398 444
399 344
399 345
399 352
399 367
399 369
399 377
399 383
399 384
399 394
399 398
399 429
399 444
399 448
399 450
400 356
400 362
400 364
400 372
400 381
400 387
400 395
400 402
400 405
400 416
400 420
400 427
400 431
400 445
401 354
401 357
401 361
401 371
401 379
401 397
401 407
401 408
401 413
401 419
401 432
401 439
401 446
401 447
402 338
402 356
402 364
402 368
402 372
402 381
402 387
402 395
402 400
402 405
402 410
402 416
402 423
402 427
402 431
402 437
402 445
403 353
403 365
403 373
403 389
403 396
403 412
403 417
404 355
404 357
404 385
404 388
404 390
404 397
404 407
404 409
404 422
404 425
404 426
404 436
404 443
404 452
404 462
405 364
405 368
405 372
405 381
405 387
405 392
405 400
405 402
405 410
405 415
405 416
405 423
405 427
405 437
405 442
405 445
405 463
406 347
406 359
406 366
406 374
406 379
406 382
406 408
406 414
406 424
406 428
406 433
406 449
406 455
406 465
406 470
407 355
407 357
407 361
407 385
407 388
407 397
407 401
407 404
407 413
407 425
407 426
407 436
407 439
407 446
407 452
407 461
408 354
408 359
408 371
408 379
408 382
408 397
408 401
408 406
408 413
408 419
408 424
408 432
408 446
408 447
408 449
408 451
409 376
409 380
409 385
409 388
409 390
409 393
409 404
409 411
409 422
409 425
409 426
409 434
409 441
409 443
409 462
409 469
410 364
410 368
410 375
410 387
410 392
410 393
410 402
410 405
410 415
410 423
410 427
410 437
410 440
410 442
410 463
410 474
411 375
411 376
411 380
411 390
411 392
411 393
411 409
411 415
411 422
411 426
411 434
411 440
411 441
411 443
411 458
411 469
412 358
412 365
412 373
412 389
412 396
412 398
412 403
412 417
412 457
412 468
413 357
413 361
413 371
413 388
413 397
413 401
413 407
413 408
413 419
413 425
413 432
413 436
413 439
413 446
413 447
413 461
413 467
413 473
414 366
414 374
414 378
414 382
414 391
414 406
414 418
414 421
414 424
414 428
414 433
414 438
414 455
414 459
414 465
414 470
415 368
415 375
415 376
415 387
415 392
415 393
415 405
415 410
415 411
415 423
415 434
415 437
415 440
415 442
415 458
415 463
415 474
415 475
416 356
416 372
416 381
416 387
416 395
416 400
416 402
416 405
416 420
416 427
416 431
416 437
416 445
416 456
416 464
416 472
416 480
417 365
417 373
417 389
417 396
417 403
417 412
417 457
417 468
418 370
418 378
418 391
418 414
418 421
418 428
418 430
418 433
418 438
418 453
418 454
418 455
418 459
418 476
418 483
419 371
419 397
419 401
419 408
419 413
419 424
419 432
419 439
419 446
419 447
419 449
419 451
419 467
419 473
419 477
420 362
420 381
420 395
420 400
420 416
420 427
420 431
420 445
420 456
420 464
420 480
421 363
421 370
421 378
421 386
421 391
421 414
421 418
421 430
421 433
421 435
421 438
421 453
421 454
421 459
421 476
422 380
422 385
422 390
422 404
422 409
422 411
422 425
422 426
422 434
422 441
422 443
422 452
422 458
422 462
422 469
422 487
422 489
423 368
423 387
423 392
423 393
423 402
423 405
423 410
423 415
423 427
423 437
423 440
423 442
423 463
423 474
423 475
423 478
423 488
424 379
424 382
424 406
424 408
424 414
424 419
424 428
424 432
424 433
424 447
424 449
424 451
424 455
424 465
424 470
424 477
424 479
424 492
425 385
425 388
425 390
425 397
425 404
425 407
425 409
425 413
425 422
425 426
425 436
425 439
425 443
425 452
425 461
425 462
425 467
425 493
425 499
426 385
426 388
426 390
426 404
426 407
426 409
426 411
426 422
426 425
426 436
426 441
426 443
426 452
426 462
426 469
426 487
426 493
427 372
427 387
427 400
427 402
427 405
427 410
427 416
427 420
427 423
427 431
427 437
427 442
427 445
427 463
427 464
427 472
427 478
427 480
428 374
428 382
428 406
428 414
428 418
428 424
428 433
428 438
428 449
428 455
428 459
428 465
428 470
428 479
428 491
428 492
428 498
429 377
429 384
429 394
429 399
429 435
429 444
429 448
429 450
429 454
429 460
429 466
429 482
429 484
430 386
430 391
430 418
430 421
430 435
430 438
430 453
430 454
430 459
430 460
430 476
430 481
431 381
431 395
431 400
431 402
431 416
431 420
431 427
431 445
431 456
431 464
431 472
431 480
431 490
431 500
432 379
432 401
432 408
432 413
432 419
432 424
432 439
432 446
432 447
432 449
432 451
432 465
432 467
432 473
432 477
432 479
433 406
433 414
433 418
433 421
433 424
433 428
433 438
433 449
433 453
433 455
433 459
433 465
433 470
433 483
433 491
433 498
434 392
434 393
434 409
434 411
434 415
434 422
434 440
434 441
434 443
434 458
434 469
434 474
434 475
434 486
434 489
434 497
435 384
435 386
435 394
435 421
435 429
435 430
435 450
435 453
435 454
435 460
435 476
435 481
435 482
435 484
436 388
436 397
436 404
436 407
436 413
436 425
436 426
436 439
436 446
436 452
436 461
436 462
436 467
436 473
436 485
436 493
436 499
437 387
437 402
437 405
437 410
437 415
437 416
437 423
437 427
437 440
437 442
437 445
437 463
437 464
437 472
437 474
437 478
437 488
438 391
438 414
438 418
438 421
438 428
438 430
438 433
438 453
438 454
438 455
438 459
438 470
438 476
438 483
438 491
438 496
438 505
439 397
439 401
439 407
439 413
439 419
439 425
439 432
439 436
439 446
439 447
439 452
439 461
439 467
439 473
439 477
439 485
440 392
440 393
440 410
440 411
440 415
440 423
440 434
440 437
440 441
440 442
440 458
440 463
440 474
440 475
440 488
440 497
441 390
441 393
441 409
441 411
441 422
441 426
441 434
441 440
441 443
441 458
441 462
441 469
441 475
441 486
441 487
441 489
441 506
442 387
442 392
442 405
442 410
442 415
442 423
442 427
442 437
442 440
442 463
442 472
442 474
442 475
442 478
442 488
442 497
443 390
443 404
443 409
443 411
443 422
443 425
443 426
443 434
443 441
443 452
443 458
443 462
443 469
443 486
443 487
443 489
443 493
444 383
444 398
444 399
444 429
444 448
444 450
444 457
444 466
444 471
444 494
445 400
445 402
445 405
445 416
445 420
445 427
445 431
445 437
445 456
445 464
445 472
445 478
445 480
445 490
445 500
446 397
446 401
446 407
446 408
446 413
446 419
446 432
446 436
446 439
446 447
446 451
446 461
446 467
446 473
446 477
446 485
446 503
446 509
447 401
447 408
447 413
447 419
447 424
447 432
447 439
447 446
447 449
447 451
447 461
447 467
447 473
447 477
447 479
447 485
447 503
447 509
448 399
448 429
448 444
448 450
448 466
448 471
448 484
448 494
448 507
448 517
449 406
449 408
449 419
449 424
449 428
449 432
449 433
449 447
449 451
449 455
449 465
449 470
449 477
449 479
449 492
449 498
450 394
450 399
450 429
450 435
450 444
450 448
450 454
450 460
450 466
450 481
450 482
450 484
450 504
450 507
451 408
451 419
451 424
451 432
451 446
451 447
451 449
451 465
451 467
451 473
451 477
451 479
451 492
451 503
452 404
452 407
452 422
452 425
452 426
452 436
452 439
452 443
452 461
452 462
452 467
452 485
452 487
452 493
452 499
453 391
453 418
453 421
453 430
453 433
453 435
453 438
453 454
453 455
453 459
453 460
453 476
453 481
453 483
453 491
453 496
453 505
453 508
453 512
454 418
454 421
454 429
454 430
454 435
454 438
454 450
454 453
454 459
454 460
454 476
454 481
454 482
454 484
454 496
454 504
454 508
454 512
455 406
455 414
455 418
455 424
455 428
455 433
455 438
455 449
455 453
455 459
455 465
455 470
455 476
455 483
455 491
455 492
455 496
455 498
455 505
455 518
456 395
456 416
456 420
456 431
456 445
456 464
456 472
456 480
456 490
456 500
457 412
457 417
457 444
457 466
457 468
457 471
457 494
457 495
457 501
457 513
458 411
458 415
458 422
458 434
458 440
458 441
458 443
458 469
458 474
458 475
458 486
458 488
458 489
458 497
458 506
458 511
459 414
459 418
459 421
459 428
459 430
459 433
459 438
459 453
459 454
459 455
459 470
459 476
459 483
459 491
459 496
459 498
459 505
459 508
460 429
460 430
460 435
460 450
460 453
460 454
460 481
460 482
460 484
460 504
460 507
460 512
461 407
461 413
461 425
461 436
461 439
461 446
461 447
461 452
461 462
461 467
461 473
461 485
461 493
461 499
461 509
461 514
462 404
462 409
462 422
462 425
462 426
462 436
462 441
462 443
462 452
462 461
462 469
462 486
462 487
462 489
462 493
462 499
462 511
462 523
463 405
463 410
463 415
463 423
463 427
463 437
463 440
463 442
463 472
463 474
463 475
463 478
463 488
463 497
463 510
463 515
463 516
463 519
464 416
464 420
464 427
464 431
464 437
464 445
464 456
464 472
464 478
464 480
464 490
464 500
464 515
464 522
464 527
465 406
465 414
465 424
465 428
465 432
465 433
465 449
465 451
465 455
465 470
465 477
465 479
465 491
465 492
465 498
465 518
465 520
465 524
466 429
466 444
466 448
466 450
466 457
466 471
466 484
466 494
466 507
466 513
466 517
467 413
467 419
467 425
467 432
467 436
467 439
467 446
467 447
467 451
467 452
467 461
467 473
467 477
467 485
467 499
467 503
467 509
467 514
467 521
468 412
468 417
468 457
468 471
468 494
468 495
468 501
468 502
469 409
469 411
469 422
469 426
469 434
469 441
469 443
469 458
469 462
469 475
469 486
469 487
469 489
469 493
469 497
469 506
469 511
469 523
470 406
470 414
470 424
470 428
470 433
470 438
470 449
470 455
470 459
470 465
470 479
470 483
470 491
470 492
470 498
470 505
470 518
470 524
471 444
471 448
471 457
471 466
471 468
471 494
471 495
471 501
471 513
471 517
472 416
472 427
472 431
472 437
472 442
472 445
472 456
472 463
472 464
472 478
472 480
472 490
472 500
472 510
472 515
472 522
472 527
473 413
473 419
473 432
473 436
473 439
473 446
473 447
473 451
473 461
473 467
473 477
473 479
473 485
473 503
473 509
473 514
473 521
473 525
474 410
474 415
474 423
474 434
474 437
474 440
474 442
474 458
474 463
474 475
474 478
474 486
474 488
474 497
474 506
474 510
474 516
474 519
474 528
475 415
475 423
475 434
475 440
475 441
475 442
475 458
475 463
475 469
475 474
475 486
475 488
475 497
475 506
475 516
475 519
475 528
475 532
476 418
476 421
476 430
476 435
476 438
476 453
476 454
476 455
476 459
476 481
476 482
476 483
476 491
476 496
476 505
476 508
476 512
476 529
476 534
476 537
477 419
477 424
477 432
477 439
477 446
477 447
477 449
477 451
477 465
477 467
477 473
477 479
477 485
477 492
477 503
477 509
477 520
477 521
477 525
478 423
478 427
478 437
478 442
478 445
478 463
478 464
478 472
478 474
478 480
478 488
478 500
478 510
478 515
478 516
478 527
478 539
479 424
479 428
479 432
479 447
479 449
479 451
479 465
479 470
479 473
479 477
479 492
479 498
479 503
479 520
479 524
479 525
480 416
480 420
480 427
480 431
480 445
480 456
480 464
480 472
480 478
480 490
480 500
480 515
480 522
480 527
481 430
481 435
481 450
481 453
481 454
481 460
481 476
481 482
481 484
481 496
481 504
481 507
481 508
481 512
481 529
482 429
482 435
482 450
482 454
482 460
482 476
482 481
482 484
482 504
482 507
482 508
482 512
482 529
482 536
482 541
483 418
483 433
483 438
483 453
483 455
483 459
483 470
483 476
483 491
483 496
483 498
483 505
483 508
483 518
483 531
483 534
483 537
484 429
484 435
484 448
484 450
484 454
484 460
484 466
484 481
484 482
484 504
484 507
484 512
484 517
484 536
484 541
485 436
485 439
485 446
485 447
485 452
485 461
485 467
485 473
485 477
485 493
485 499
485 503
485 509
485 514
485 521
485 525
485 530
485 535
486 434
486 441
486 443
486 458
486 462
486 469
486 474
486 475
486 487
486 489
486 497
486 506
486 511
486 523
486 528
486 532
486 538
487 422
487 426
487 441
487 443
487 452
487 462
487 469
487 486
487 489
487 493
487 499
487 506
487 511
487 523
487 526
487 543
487 547
488 423
488 437
488 440
488 442
488 458
488 463
488 474
488 475
488 478
488 497
488 506
488 510
488 515
488 516
488 519
488 528
488 539
488 545
489 422
489 434
489 441
489 443
489 458
489 462
489 469
489 486
489 487
489 493
489 506
489 511
489 523
489 532
489 538
489 543
490 431
490 445
490 456
490 464
490 472
490 480
490 500
490 522
490 527
490 540
490 546
491 428
491 433
491 438
491 453
491 455
491 459
491 465
491 470
491 476
491 483
491 492
491 496
491 498
491 505
491 508
491 518
491 524
491 531
491 534
492 424
492 428
492 449
492 451
492 455
492 465
492 470
492 477
492 479
492 491
492 498
492 503
492 518
492 520
492 524
492 525
492 531
492 548
492 550
493 425
493 426
493 436
493 443
493 452
493 461
493 462
493 469
493 485
493 487
493 489
493 499
493 511
493 514
493 523
493 526
493 530
493 547
493 554
494 444
494 448
494 457
494 466
494 468
494 471
494 495
494 501
494 513
494 517
495 457
495 468
495 471
495 494
495 501
495 502
495 513
495 533
496 438
496 453
496 454
496 455
496 459
496 476
496 481
496 483
496 491
496 505
496 508
496 512
496 518
496 529
496 531
496 534
496 537
496 551
496 557
497 434
497 440
497 442
497 458
497 463
497 469
497 474
497 475
497 486
497 488
497 506
497 510
497 516
497 519
497 528
497 532
497 538
497 553
498 428
498 433
498 449
498 455
498 459
498 465
498 470
498 479
498 483
498 491
498 492
498 505
498 518
498 520
498 524
498 531
498 534
498 550
498 552
499 425
499 436
499 452
499 461
499 462
499 467
499 485
499 487
499 493
499 509
499 514
499 523
499 526
499 530
499 535
499 554
500 431
500 445
500 456
500 464
500 472
500 478
500 480
500 490
500 515
500 522
500 527
500 540
500 546
501 457
501 468
501 471
501 494
501 495
501 502
501 533
502 468
502 495
502 501
502 533
503 446
503 447
503 451
503 467
503 473
503 477
503 479
503 485
503 492
503 509
503 514
503 520
503 521
503 525
503 535
503 542
503 544
503 548
504 450
504 454
504 460
504 481
504 482
504 484
504 507
504 512
504 529
504 536
504 541
504 555
504 565
505 438
505 453
505 455
505 459
505 470
505 476
505 483
505 491
505 496
505 498
505 508
505 518
505 524
505 531
505 534
505 537
505 552
505 556
506 441
506 458
506 469
506 474
506 475
506 486
506 487
506 488
506 489
506 497
506 511
506 519
506 528
506 532
506 538
506 543
506 553
507 448
507 450
507 460
507 466
507 481
507 482
507 484
507 504
507 512
507 513
507 517
507 536
507 541
507 549
507 555
507 558
507 570
508 453
508 454
508 459
508 476
508 481
508 482
508 483
508 491
508 496
508 505
508 512
508 529
508 531
508 534
508 537
508 551
508 557
509 446
509 447
509 461
509 467
509 473
509 477
509 485
509 499
509 503
509 514
509 521
509 525
509 530
509 535
509 542
509 544
509 564
509 573
510 463
510 472
510 474
510 478
510 488
510 497
510 515
510 516
510 519
510 527
510 528
510 539
510 545
510 559
510 563
511 458
511 462
511 469
511 486
511 487
511 489
511 493
511 506
511 523
511 526
511 528
511 532
511 538
511 543
511 547
511 566
512 453
512 454
512 460
512 476
512 481
512 482
512 484
512 496
512 504
512 507
512 508
512 529
512 536
512 537
512 541
512 551
512 557
512 565
512 577
513 457
513 466
513 471
513 494
513 495
513 507
513 517
513 549
513 558
513 560
513 572
514 461
514 467
514 473
514 485
514 493
514 499
514 503
514 509
514 521
514 525
514 526
514 530
514 535
514 542
514 554
514 561
514 564
514 573
515 463
515 464
515 472
515 478
515 480
515 488
515 500
515 510
515 516
515 522
515 527
515 539
515 545
515 546
515 563
516 463
516 474
516 475
516 478
516 488
516 497
516 510
516 515
516 519
516 528
516 532
516 539
516 545
516 553
516 559
517 448
517 466
517 471
517 484
517 494
517 507
517 513
517 536
517 549
517 555
517 558
517 570
517 572
518 455
518 465
518 470
518 483
518 491
518 492
518 496
518 498
518 505
518 520
518 524
518 531
518 534
518 548
518 550
518 552
518 556
518 567
519 463
519 474
519 475
519 488
519 497
519 506
519 510
519 516
519 528
519 532
519 538
519 539
519 545
519 553
519 559
519 578
520 465
520 477
520 479
520 492
520 498
520 503
520 518
520 524
520 525
520 531
520 544
520 548
520 550
520 552
520 568
521 467
521 473
521 477
521 485
521 503
521 509
521 514
521 525
521 530
521 535
521 542
521 544
521 564
521 573
521 575
521 576
522 464
522 472
522 480
522 490
522 500
522 515
522 527
522 539
522 540
522 546
522 562
522 563
522 569
522 579
523 462
523 469
523 486
523 487
523 489
523 493
523 499
523 511
523 526
523 530
523 538
523 543
523 547
523 554
523 561
523 566
523 583
524 465
524 470
524 479
524 491
524 492
524 498
524 505
524 518
524 520
524 531
524 534
524 548
524 550
524 552
524 556
524 567
524 568
525 473
525 477
525 479
525 485
525 492
525 503
525 509
525 514
525 520
525 521
525 535
525 542
525 544
525 548
525 568
525 573
525 575
525 576
526 487
526 493
526 499
526 511
526 514
526 523
526 530
526 535
526 543
526 547
526 554
526 561
526 564
526 583
527 464
527 472
527 478
527 480
527 490
527 500
527 510
527 515
527 522
527 539
527 540
527 545
527 546
527 562
527 563
527 569
527 579
527 581
528 474
528 475
528 486
528 488
528 497
528 506
528 510
528 511
528 516
528 519
528 532
528 538
528 545
528 553
528 559
528 574
528 578
528 588
529 476
529 481
529 482
529 496
529 504
529 508
529 512
529 536
529 537
529 541
529 551
529 555
529 557
529 565
529 571
529 577
529 580
530 485
530 493
530 499
530 509
530 514
530 521
530 523
530 526
530 535
530 542
530 547
530 554
530 561
530 564
530 573
531 483
531 491
531 492
531 496
531 498
531 505
531 508
531 518
531 520
531 524
531 534
531 537
531 550
531 552
531 556
531 557
531 567
531 571
531 589
531 591
532 475
532 486
532 489
532 497
532 506
532 511
532 516
532 519
532 528
532 538
532 543
532 553
532 559
532 566
532 574
532 578
533 495
533 501
533 502
534 476
534 483
534 491
534 496
534 498
534 505
534 508
534 518
534 524
534 531
534 537
534 551
534 552
534 556
534 557
534 567
534 571
534 591
534 593
535 485
535 499
535 503
535 509
535 514
535 521
535 525
535 526
535 530
535 542
535 544
535 561
535 564
535 573
535 575
535 576
535 594
536 482
536 484
536 504
536 507
536 512
536 517
536 529
536 541
536 549
536 555
536 558
536 565
536 570
536 572
536 580
536 582
537 476
537 483
537 496
537 505
537 508
537 512
537 529
537 531
537 534
537 541
537 551
537 556
537 557
537 571
537 577
537 593
537 595
538 486
538 489
538 497
538 506
538 511
538 519
538 523
538 528
538 532
538 543
538 547
538 553
538 566
538 574
538 578
538 587
539 478
539 488
539 510
539 515
539 516
539 519
539 522
539 527
539 545
539 546
539 553
539 559
539 563
539 569
539 581
539 585
539 588
539 602
540 490
540 500
540 522
540 527
540 546
540 562
540 569
540 579
540 590
540 605
541 482
541 484
541 504
541 507
541 512
541 529
541 536
541 537
541 551
541 555
541 565
541 570
541 577
541 580
541 596
541 599
542 503
542 509
542 514
542 521
542 525
542 530
542 535
542 544
542 548
542 564
542 568
542 573
542 575
542 576
542 592
542 594
543 487
543 489
543 506
543 511
543 523
543 526
543 532
543 538
543 547
543 554
543 566
543 574
543 583
543 587
544 503
544 509
544 520
544 521
544 525
544 535
544 542
544 548
544 550
544 568
544 573
544 575
544 576
544 586
544 592
544 597
545 488
545 510
545 515
545 516
545 519
545 527
545 528
545 539
545 553
545 559
545 563
545 578
545 581
545 585
545 588
545 602
545 614
546 490
546 500
546 515
546 522
546 527
546 539
546 540
546 562
546 563
546 569
546 579
546 581
546 590
546 598
546 605
547 487
547 493
547 511
547 523
547 526
547 530
547 538
547 543
547 554
547 561
547 566
547 583
547 587
547 600
547 611
548 492
548 503
548 518
548 520
548 524
548 525
548 542
548 544
548 550
548 552
548 567
548 568
548 575
548 576
548 586
548 589
548 592
548 597
549 507
549 513
549 517
549 536
549 555
549 558
549 560
549 570
549 572
549 582
549 584
549 603
549 610
550 492
550 498
550 518
550 520
550 524
550 531
550 544
550 548
550 552
550 556
550 567
550 568
550 586
550 589
550 597
551 496
551 508
551 512
551 529
551 534
551 537
551 541
551 556
551 557
551 565
551 571
551 577
551 580
551 593
551 595
551 596
551 608
552 498
552 505
552 518
552 520
552 524
552 531
552 534
552 548
552 550
552 556
552 567
552 568
552 571
552 586
552 589
552 591
552 620
553 497
553 506
553 516
553 519
553 528
553 532
553 538
553 539
553 545
553 559
553 574
553 578
553 585
553 588
553 607
553 614
553 615
554 493
554 499
554 514
554 523
554 526
554 530
554 543
554 547
554 561
554 564
554 566
554 583
554 587
554 600
554 606
554 611
555 504
555 507
555 517
555 529
555 536
555 541
555 549
555 558
555 565
555 570
555 572
555 577
555 580
555 582
555 596
555 599
555 601
555 603
556 505
556 518
556 524
556 531
556 534
556 537
556 550
556 551
556 552
556 557
556 567
556 571
556 589
556 591
556 593
556 608
556 619
557 496
557 508
557 512
557 529
557 531
557 534
557 537
557 551
557 556
557 565
557 571
557 577
557 591
557 593
557 595
557 596
557 608
557 619
558 507
558 513
558 517
558 536
558 549
558 555
558 570
558 572
558 580
558 582
558 584
558 601
558 603
558 610
559 510
559 516
559 519
559 528
559 532
559 539
559 545
559 553
559 563
559 574
559 578
559 585
559 588
559 602
559 607
559 614
559 615
560 513
560 549
560 572
560 584
560 604
560 609
560 610
560 613
561 514
561 523
561 526
561 530
561 535
561 547
561 554
561 564
561 573
561 583
561 594
561 600
561 606
561 611
562 522
562 527
562 540
562 546
562 569
562 579
562 581
562 590
562 598
562 605
563 510
563 515
563 522
563 527
563 539
563 545
563 546
563 559
563 569
563 579
563 581
563 585
563 588
563 598
563 602
563 612
563 618
563 624
564 509
564 514
564 521
564 526
564 530
564 535
564 542
564 554
564 561
564 573
564 576
564 594
564 600
564 606
564 617
565 504
565 512
565 529
565 536
565 541
565 551
565 555
565 557
565 570
565 577
565 580
565 582
565 595
565 596
565 599
565 601
566 511
566 523
566 532
566 538
566 543
566 547
566 554
566 574
566 583
566 587
566 611
566 616
567 518
567 524
567 531
567 534
567 548
567 550
567 552
567 556
567 568
567 571
567 586
567 589
567 591
567 593
567 620
567 625
567 626
568 520
568 524
568 525
568 542
568 544
568 548
568 550
568 552
568 567
568 575
568 576
568 586
568 589
568 592
568 597
568 621
568 623
569 522
569 527
569 539
569 540
569 546
569 562
569 563
569 579
569 581
569 585
569 590
569 598
569 602
569 605
569 612
569 618
569 622
570 507
570 517
570 536
570 541
570 549
570 555
570 558
570 565
570 572
570 580
570 582
570 599
570 601
570 603
570 636
571 529
571 531
571 534
571 537
571 551
571 552
571 556
571 557
571 567
571 577
571 589
571 591
571 593
571 595
571 596
571 608
571 619
571 625
571 631
572 513
572 517
572 536
572 549
572 555
572 558
572 560
572 570
572 580
572 582
572 584
572 601
572 603
572 609
572 610
572 633
573 509
573 514
573 521
573 525
573 530
573 535
573 542
573 544
573 561
573 564
573 575
573 576
573 592
573 594
573 600
573 606
573 617
574 528
574 532
574 538
574 543
574 553
574 559
574 566
574 578
574 587
574 588
574 607
574 615
574 616
574 641
575 521
575 525
575 535
575 542
575 544
575 548
575 568
575 573
575 576
575 586
575 592
575 594
575 597
575 617
575 621
575 623
576 521
576 525
576 535
576 542
576 544
576 548
576 564
576 568
576 573
576 575
576 592
576 594
576 597
576 606
576 617
576 621
577 512
577 529
577 537
577 541
577 551
577 555
577 557
577 565
577 571
577 580
577 593
577 595
577 596
577 599
577 608
577 631
577 634
578 519
578 528
578 532
578 538
578 545
578 553
578 559
578 574
578 585
578 588
578 607
578 614
578 615
578 616
578 627
578 632
579 522
579 527
579 540
579 546
579 562
579 563
579 569
579 581
579 590
579 598
579 605
579 612
579 618
579 622
579 635
579 639
580 529
580 536
580 541
580 551
580 555
580 558
580 565
580 570
580 572
580 577
580 582
580 595
580 596
580 599
580 601
580 603
580 634
580 636
580 637
581 527
581 539
581 545
581 546
581 562
581 563
581 569
581 579
581 585
581 590
581 598
581 602
581 605
581 612
581 614
581 618
581 622
581 624
581 635
581 644
582 536
582 549
582 555
582 558
582 565
582 570
582 572
582 580
582 584
582 599
582 601
582 603
582 610
582 633
582 636
583 523
583 526
583 543
583 547
583 554
583 561
583 566
583 587
583 600
583 606
583 611
583 616
583 629
583 630
583 638
584 549
584 558
584 560
584 572
584 582
584 603
584 609
584 610
584 613
584 628
584 633
584 642
585 539
585 545
585 553
585 559
585 563
585 569
585 578
585 581
585 588
585 598
585 602
585 607
585 612
585 614
585 618
585 624
585 627
585 632
585 635
585 644
586 544
586 548
586 550
586 552
586 567
586 568
586 575
586 589
586 591
586 592
586 597
586 620
586 621
586 623
586 626
587 538
587 543
587 547
587 554
587 566
587 574
587 583
587 611
587 615
587 616
587 629
587 630
587 641
588 528
588 539
588 545
588 553
588 559
588 563
588 574
588 578
588 585
588 602
588 607
588 614
588 615
588 618
588 624
588 627
588 632
589 531
589 548
589 550
589 552
589 556
589 567
589 568
589 571
589 586
589 591
589 593
589 619
589 620
589 623
589 625
589 626
590 540
590 546
590 562
590 569
590 579
590 581
590 598
590 605
590 612
590 622
590 639
591 531
591 534
591 552
591 556
591 557
591 567
591 571
591 586
591 589
591 593
591 595
591 608
591 619
591 620
591 625
591 626
591 631
592 542
592 544
592 548
592 568
592 573
592 575
592 576
592 586
592 594
592 597
592 617
592 621
592 623
593 534
593 537
593 551
593 556
593 557
593 567
593 571
593 577
593 589
593 591
593 595
593 596
593 608
593 619
593 620
593 625
593 631
593 634
594 535
594 542
594 561
594 564
594 573
594 575
594 576
594 592
594 600
594 606
594 617
594 621
594 638
594 643
595 537
595 551
595 557
595 565
595 571
595 577
595 580
595 591
595 593
595 596
595 599
595 608
595 619
595 631
595 634
595 637
596 541
596 551
596 555
596 557
596 565
596 571
596 577
596 580
596 593
596 595
596 599
596 601
596 608
596 631
596 634
596 637
597 544
597 548
597 550
597 568
597 575
597 576
597 586
597 592
597 617
597 621
597 623
597 626
598 546
598 562
598 563
598 569
598 579
598 581
598 585
598 590
598 602
598 605
598 612
598 618
598 622
598 624
598 635
598 639
598 644
599 541
599 555
599 565
599 570
599 577
599 580
599 582
599 595
599 596
599 601
599 603
599 631
599 634
599 636
599 637
600 547
600 554
600 561
600 564
600 573
600 583
600 594
600 606
600 611
600 629
600 630
600 638
600 643
601 555
601 558
601 565
601 570
601 572
601 580
601 582
601 596
601 599
601 603
601 610
601 633
601 636
601 637
602 539
602 545
602 559
602 563
602 569
602 581
602 585
602 588
602 598
602 607
602 612
602 614
602 618
602 622
602 624
602 627
602 632
602 635
602 644
603 549
603 555
603 558
603 570
603 572
603 580
603 582
603 584
603 599
603 601
603 609
603 610
603 633
603 636
603 642
604 560
604 609
604 613
604 628
604 640
605 540
605 546
605 562
605 569
605 579
605 581
605 590
605 598
605 612
605 618
605 622
605 635
605 639
606 554
606 561
606 564
606 573
606 576
606 583
606 594
606 600
606 611
606 617
606 629
606 638
606 643
607 553
607 559
607 574
607 578
607 585
607 588
607 602
607 614
607 615
607 616
607 624
607 627
607 632
607 641
608 551
608 556
608 557
608 571
608 577
608 591
608 593
608 595
608 596
608 619
608 620
608 625
608 631
608 634
609 560
609 572
609 584
609 603
609 604
609 610
609 613
609 628
609 633
609 640
609 642
610 549
610 558
610 560
610 572
610 582
610 584
610 601
610 603
610 609
610 628
610 633
610 636
610 642
611 547
611 554
611 561
611 566
611 583
611 587
611 600
611 606
611 616
611 629
611 630
611 638
612 563
612 569
612 579
612 581
612 585
612 590
612 598
612 602
612 605
612 614
612 618
612 622
612 624
612 635
612 639
612 644
613 560
613 584
613 604
613 609
613 628
613 640
613 642
614 545
614 553
614 559
614 578
614 581
614 585
614 588
614 602
614 607
614 612
614 615
614 618
614 624
614 627
614 632
614 644
615 553
615 559
615 574
615 578
615 587
615 588
615 607
615 614
615 616
615 627
615 630
615 632
615 641
616 566
616 574
616 578
616 583
616 587
616 607
616 611
616 615
616 627
616 629
616 630
616 641
617 564
617 573
617 575
617 576
617 592
617 594
617 597
617 606
617 621
617 623
617 643
618 563
618 569
618 579
618 581
618 585
618 588
618 598
618 602
618 605
618 612
618 614
618 622
618 624
618 632
618 635
618 639
618 644
619 556
619 557
619 571
619 589
619 591
619 593
619 595
619 608
619 620
619 625
619 631
619 634
620 552
620 567
620 586
620 589
620 591
620 593
620 608
620 619
620 623
620 625
620 626
621 568
621 575
621 576
621 586
621 592
621 594
621 597
621 617
621 623
621 626
621 643
622 569
622 579
622 581
622 590
622 598
622 602
622 605
622 612
622 618
622 624
622 635
622 639
622 644
623 568
623 575
623 586
623 589
623 592
623 597
623 617
623 620
623 621
623 626
624 563
624 581
624 585
624 588
624 598
624 602
624 607
624 612
624 614
624 618
624 622
624 627
624 632
624 635
624 644
625 567
625 571
625 589
625 591
625 593
625 608
625 619
625 620
625 626
625 631
626 567
626 586
626 589
626 591
626 597
626 620
626 621
626 623
626 625
627 578
627 585
627 588
627 602
627 607
627 614
627 615
627 616
627 624
627 632
627 641
628 584
628 604
628 609
628 610
628 613
628 640
628 642
629 583
629 587
629 600
629 606
629 611
629 616
629 630
629 638
630 583
630 587
630 600
630 611
630 615
630 616
630 629
630 638
630 641
631 571
631 577
631 591
631 593
631 595
631 596
631 599
631 608
631 619
631 625
631 634
631 637
632 578
632 585
632 588
632 602
632 607
632 614
632 615
632 618
632 624
632 627
632 635
632 644
633 572
633 582
633 584
633 601
633 603
633 609
633 610
633 636
633 642
634 577
634 580
634 593
634 595
634 596
634 599
634 608
634 619
634 631
634 637
635 579
635 581
635 585
635 598
635 602
635 605
635 612
635 618
635 622
635 624
635 632
635 639
635 644
636 570
636 580
636 582
636 599
636 601
636 603
636 610
636 633
636 637
637 580
637 595
637 596
637 599
637 601
637 631
637 634
637 636
638 583
638 594
638 600
638 606
638 611
638 629
638 630
638 643
639 579
639 590
639 598
639 605
639 612
639 618
639 622
639 635
639 644
640 604
640 609
640 613
640 628
640 642
641 574
641 587
641 607
641 615
641 616
641 627
641 630
642 584
642 603
642 609
642 610
642 613
642 628
642 633
642 640
643 594
643 600
643 606
643 617
643 621
643 638
644 581
644 585
644 598
644 602
644 612
644 614
644 618
644 622
644 624
644 632
644 635
644 639
