1 3
1 19
1 26
1 28
1 29
1 41
1 47
1 49
1 57
2 9
2 11
2 12
2 13
2 18
2 22
2 25
2 39
2 44
2 45
2 46
2 56
2 64
3 1
3 9
3 14
3 22
3 26
3 28
3 36
3 37
3 47
3 55
3 57
3 68
4 5
4 10
4 21
4 24
4 29
4 31
4 33
4 50
4 51
4 52
5 4
5 10
5 19
5 21
5 24
5 29
5 31
5 41
5 50
5 52
6 8
6 16
6 20
6 23
6 27
6 34
6 42
6 43
6 60
6 62
6 67
7 11
7 30
7 32
7 35
7 38
7 54
7 59
8 6
8 20
8 23
8 27
8 32
8 38
8 42
8 53
8 59
8 60
8 61
8 67
9 2
9 3
9 13
9 14
9 22
9 36
9 37
9 45
9 48
9 55
9 56
9 69
9 72
10 4
10 5
10 15
10 17
10 21
10 24
10 31
10 33
10 51
10 52
10 65
10 75
10 79
11 2
11 7
11 12
11 18
11 25
11 30
11 35
11 39
11 44
11 46
11 54
11 64
11 66
11 74
11 83
12 2
12 11
12 13
12 18
12 22
12 25
12 39
12 44
12 45
12 46
12 56
12 64
12 71
12 74
12 80
13 2
13 9
13 12
13 18
13 22
13 25
13 36
13 44
13 45
13 46
13 48
13 56
13 64
13 71
13 72
13 74
13 80
14 3
14 9
14 22
14 26
14 28
14 36
14 37
14 45
14 47
14 48
14 55
14 57
14 68
14 69
15 10
15 17
15 21
15 33
15 40
15 51
15 58
15 65
15 81
16 6
16 20
16 27
16 34
16 42
16 43
16 62
16 63
16 87
17 10
17 15
17 33
17 40
17 58
17 65
18 2
18 11
18 12
18 13
18 25
18 30
18 35
18 39
18 44
18 46
18 56
18 64
18 66
18 74
18 83
19 1
19 5
19 24
19 26
19 28
19 29
19 41
19 47
19 49
19 50
19 57
19 70
19 73
19 77
20 6
20 8
20 16
20 23
20 27
20 34
20 42
20 43
20 53
20 60
20 62
20 63
20 67
20 87
20 88
21 4
21 5
21 10
21 15
21 24
21 31
21 33
21 50
21 51
21 52
21 65
21 75
21 78
21 79
21 81
22 2
22 3
22 9
22 12
22 13
22 14
22 36
22 37
22 44
22 45
22 48
22 55
22 56
22 69
22 71
22 72
23 6
23 8
23 20
23 27
23 32
23 34
23 38
23 42
23 53
23 60
23 61
23 62
23 67
23 82
23 86
24 4
24 5
24 10
24 19
24 21
24 29
24 31
24 41
24 50
24 52
24 70
24 75
24 77
24 78
24 89
25 2
25 11
25 12
25 13
25 18
25 39
25 44
25 45
25 46
25 56
25 64
25 71
25 74
25 80
25 83
26 1
26 3
26 14
26 19
26 28
26 36
26 37
26 47
26 49
26 55
26 57
26 68
26 73
26 84
27 6
27 8
27 16
27 20
27 23
27 34
27 38
27 42
27 43
27 53
27 60
27 61
27 62
27 67
27 86
27 88
28 1
28 3
28 14
28 19
28 26
28 29
28 37
28 41
28 47
28 49
28 57
28 68
28 73
28 77
28 84
29 1
29 4
29 5
29 19
29 24
29 28
29 31
29 41
29 49
29 50
29 52
29 70
29 77
29 78
29 89
30 7
30 11
30 18
30 32
30 35
30 38
30 39
30 54
30 59
30 66
30 83
30 85
30 95
31 4
31 5
31 10
31 21
31 24
31 29
31 33
31 50
31 51
31 52
31 75
31 78
31 79
31 96
32 7
32 8
32 23
32 30
32 38
32 53
32 54
32 59
32 60
32 61
32 76
32 82
32 99
33 4
33 10
33 15
33 17
33 21
33 31
33 40
33 51
33 52
33 58
33 65
33 75
33 79
33 81
33 91
33 94
34 6
34 16
34 20
34 23
34 27
34 42
34 43
34 60
34 62
34 63
34 67
34 87
34 88
35 7
35 11
35 18
35 30
35 39
35 46
35 54
35 59
35 66
35 83
35 85
35 95
36 3
36 9
36 13
36 14
36 22
36 26
36 37
36 45
36 48
36 55
36 56
36 57
36 68
36 69
36 71
36 72
36 92
36 93
36 102
37 3
37 9
37 14
37 22
37 26
37 28
37 36
37 45
37 47
37 48
37 55
37 57
37 68
37 69
37 72
37 84
37 92
37 93
38 7
38 8
38 23
38 27
38 30
38 32
38 53
38 54
38 59
38 60
38 61
38 67
38 76
38 82
38 86
38 97
38 99
38 114
39 2
39 11
39 12
39 18
39 25
39 30
39 35
39 44
39 46
39 54
39 64
39 66
39 74
39 80
39 83
39 85
39 101
39 105
39 112
40 15
40 17
40 33
40 51
40 58
40 65
40 81
40 90
40 91
40 103
41 1
41 5
41 19
41 24
41 28
41 29
41 47
41 49
41 50
41 70
41 73
41 77
41 78
41 89
41 98
41 106
42 6
42 8
42 16
42 20
42 23
42 27
42 34
42 43
42 53
42 60
42 61
42 62
42 63
42 67
42 86
42 87
42 88
42 107
42 111
43 6
43 16
43 20
43 27
43 34
43 42
43 62
43 63
43 67
43 87
43 88
43 115
44 2
44 11
44 12
44 13
44 18
44 22
44 25
44 39
44 45
44 46
44 48
44 56
44 64
44 71
44 72
44 74
44 80
44 83
44 100
44 101
44 105
45 2
45 9
45 12
45 13
45 14
45 22
45 25
45 36
45 37
45 44
45 48
45 55
45 56
45 64
45 69
45 71
45 72
45 80
45 93
45 100
45 102
45 120
46 2
46 11
46 12
46 13
46 18
46 25
46 35
46 39
46 44
46 56
46 64
46 66
46 71
46 74
46 80
46 83
46 85
46 101
46 105
46 112
47 1
47 3
47 14
47 19
47 26
47 28
47 37
47 41
47 49
47 55
47 57
47 68
47 73
47 77
47 84
47 92
47 98
47 104
47 108
47 117
48 9
48 13
48 14
48 22
48 36
48 37
48 44
48 45
48 55
48 56
48 68
48 69
48 71
48 72
48 80
48 92
48 93
48 100
48 102
48 123
49 1
49 19
49 26
49 28
49 29
49 41
49 47
49 50
49 57
49 68
49 70
49 73
49 77
49 84
49 89
49 98
49 104
49 106
49 108
49 117
49 121
50 4
50 5
50 19
50 21
50 24
50 29
50 31
50 41
50 49
50 52
50 70
50 75
50 77
50 78
50 89
50 96
50 98
50 106
50 109
51 4
51 10
51 15
51 21
51 31
51 33
51 40
51 52
51 58
51 65
51 75
51 78
51 79
51 81
51 91
51 94
51 96
51 110
51 113
52 4
52 5
52 10
52 21
52 24
52 29
52 31
52 33
52 50
52 51
52 70
52 75
52 78
52 79
52 89
52 94
52 96
52 109
52 110
52 113
53 8
53 20
53 23
53 27
53 32
53 38
53 42
53 59
53 60
53 61
53 67
53 76
53 82
53 86
53 88
53 97
53 99
53 107
53 111
53 114
53 127
54 7
54 11
54 30
54 32
54 35
54 38
54 39
54 59
54 66
54 76
54 83
54 85
54 95
54 99
54 126
55 3
55 9
55 14
55 22
55 26
55 36
55 37
55 45
55 47
55 48
55 57
55 68
55 69
55 72
55 84
55 92
55 93
55 102
56 2
56 9
56 12
56 13
56 18
56 22
56 25
56 36
56 44
56 45
56 46
56 48
56 64
56 69
56 71
56 72
56 74
56 80
56 100
56 101
56 102
56 119
56 120
57 1
57 3
57 14
57 19
57 26
57 28
57 36
57 37
57 47
57 49
57 55
57 68
57 69
57 73
57 77
57 84
57 92
57 104
57 108
57 117
57 122
58 15
58 17
58 33
58 40
58 51
58 65
58 79
58 81
58 90
58 91
58 94
58 103
58 116
59 7
59 8
59 30
59 32
59 35
59 38
59 53
59 54
59 61
59 66
59 76
59 82
59 85
59 95
59 97
59 99
59 114
59 129
60 6
60 8
60 20
60 23
60 27
60 32
60 34
60 38
60 42
60 53
60 61
60 62
60 67
60 76
60 82
60 86
60 87
60 88
60 97
60 107
60 111
61 8
61 23
61 27
61 32
61 38
61 42
61 53
61 59
61 60
61 67
61 76
61 82
61 86
61 97
61 99
61 107
61 114
61 127
62 6
62 16
62 20
62 23
62 27
62 34
62 42
62 43
62 60
62 63
62 67
62 86
62 87
62 88
62 111
62 115
62 118
62 133
63 16
63 20
63 34
63 42
63 43
63 62
63 87
63 88
63 115
64 2
64 11
64 12
64 13
64 18
64 25
64 39
64 44
64 45
64 46
64 56
64 66
64 71
64 72
64 74
64 80
64 83
64 100
64 101
64 105
64 112
64 119
65 10
65 15
65 17
65 21
65 33
65 40
65 51
65 58
65 75
65 79
65 81
65 90
65 91
65 94
65 103
65 110
65 116
65 132
65 134
66 11
66 18
66 30
66 35
66 39
66 46
66 54
66 59
66 64
66 74
66 83
66 85
66 95
66 105
66 112
67 6
67 8
67 20
67 23
67 27
67 34
67 38
67 42
67 43
67 53
67 60
67 61
67 62
67 82
67 86
67 87
67 88
67 97
67 107
67 111
67 118
67 135
68 3
68 14
68 26
68 28
68 36
68 37
68 47
68 48
68 49
68 55
68 57
68 69
68 72
68 73
68 84
68 92
68 93
68 104
68 108
68 117
68 122
68 124
68 130
68 138
69 9
69 14
69 22
69 36
69 37
69 45
69 48
69 55
69 56
69 57
69 68
69 71
69 72
69 84
69 92
69 93
69 102
69 123
69 124
69 130
70 19
70 24
70 29
70 41
70 49
70 50
70 52
70 73
70 75
70 77
70 78
70 89
70 96
70 98
70 106
70 108
70 109
70 121
70 125
70 128
71 12
71 13
71 22
71 25
71 36
71 44
71 45
71 46
71 48
71 56
71 64
71 69
71 72
71 74
71 80
71 93
71 100
71 101
71 102
71 105
71 119
71 120
71 123
72 9
72 13
72 22
72 36
72 37
72 44
72 45
72 48
72 55
72 56
72 64
72 68
72 69
72 71
72 80
72 92
72 93
72 100
72 102
72 120
72 123
72 130
72 142
73 19
73 26
73 28
73 41
73 47
73 49
73 57
73 68
73 70
73 77
73 84
73 92
73 98
73 104
73 106
73 108
73 117
73 121
73 122
74 11
74 12
74 13
74 18
74 25
74 39
74 44
74 46
74 56
74 64
74 66
74 71
74 80
74 83
74 85
74 100
74 101
74 105
74 112
74 119
74 140
74 143
75 10
75 21
75 24
75 31
75 33
75 50
75 51
75 52
75 65
75 70
75 78
75 79
75 81
75 89
75 94
75 96
75 109
75 110
75 113
75 125
75 131
75 132
75 144
76 32
76 38
76 53
76 54
76 59
76 60
76 61
76 82
76 86
76 95
76 97
76 99
76 107
76 114
76 126
76 127
76 129
76 136
77 19
77 24
77 28
77 29
77 41
77 47
77 49
77 50
77 57
77 70
77 73
77 78
77 84
77 89
77 98
77 104
77 106
77 108
77 109
77 117
77 121
77 128
78 21
78 24
78 29
78 31
78 41
78 50
78 51
78 52
78 70
78 75
78 77
78 79
78 89
78 96
78 98
78 106
78 109
78 110
78 113
78 125
78 128
78 131
78 144
79 10
79 21
79 31
79 33
79 51
79 52
79 58
79 65
79 75
79 78
79 81
79 90
79 91
79 94
79 96
79 110
79 113
79 116
79 131
79 132
79 134
79 150
80 12
80 13
80 25
80 39
80 44
80 45
80 46
80 48
80 56
80 64
80 71
80 72
80 74
80 83
80 100
80 101
80 102
80 105
80 112
80 119
80 120
80 140
81 15
81 21
81 33
81 40
81 51
81 58
81 65
81 75
81 79
81 90
81 91
81 94
81 103
81 110
81 113
81 116
81 131
81 132
81 134
81 139
82 23
82 32
82 38
82 53
82 59
82 60
82 61
82 67
82 76
82 86
82 95
82 97
82 99
82 107
82 111
82 114
82 127
82 129
82 135
82 136
82 146
83 11
83 18
83 25
83 30
83 35
83 39
83 44
83 46
83 54
83 64
83 66
83 74
83 80
83 85
83 95
83 101
83 105
83 112
83 119
83 137
83 140
83 143
84 26
84 28
84 37
84 47
84 49
84 55
84 57
84 68
84 69
84 73
84 77
84 92
84 93
84 98
84 104
84 108
84 117
84 122
84 124
84 130
84 138
84 145
85 30
85 35
85 39
85 46
85 54
85 59
85 66
85 74
85 83
85 95
85 99
85 105
85 112
85 126
85 137
86 23
86 27
86 38
86 42
86 53
86 60
86 61
86 62
86 67
86 76
86 82
86 87
86 88
86 97
86 107
86 111
86 114
86 118
86 127
86 133
86 135
86 136
86 141
86 146
86 151
87 16
87 20
87 34
87 42
87 43
87 60
87 62
87 63
87 67
87 86
87 88
87 107
87 111
87 115
87 118
87 133
87 141
87 148
88 20
88 27
88 34
88 42
88 43
88 53
88 60
88 62
88 63
88 67
88 86
88 87
88 97
88 107
88 111
88 115
88 118
88 133
88 135
88 141
88 148
89 24
89 29
89 41
89 49
89 50
89 52
89 70
89 75
89 77
89 78
89 96
89 98
89 106
89 108
89 109
89 113
89 121
89 125
89 128
89 131
89 144
89 154
90 40
90 58
90 65
90 79
90 81
90 91
90 94
90 103
90 116
90 132
90 134
90 139
91 33
91 40
91 51
91 58
91 65
91 79
91 81
91 90
91 94
91 103
91 110
91 116
91 132
91 134
91 139
91 153
92 36
92 37
92 47
92 48
92 55
92 57
92 68
92 69
92 72
92 73
92 84
92 93
92 102
92 104
92 108
92 117
92 122
92 123
92 124
92 130
92 138
92 147
92 152
93 36
93 37
93 45
93 48
93 55
93 68
93 69
93 71
93 72
93 84
93 92
93 100
93 102
93 104
93 120
93 122
93 123
93 124
93 130
93 138
93 142
93 147
93 152
94 33
94 51
94 52
94 58
94 65
94 75
94 79
94 81
94 90
94 91
94 96
94 103
94 110
94 113
94 116
94 131
94 132
94 134
94 139
94 144
94 150
94 153
94 164
95 30
95 35
95 54
95 59
95 66
95 76
95 82
95 83
95 85
95 99
95 112
95 114
95 126
95 129
95 136
95 137
95 159
95 163
96 31
96 50
96 51
96 52
96 70
96 75
96 78
96 79
96 89
96 94
96 106
96 109
96 110
96 113
96 125
96 128
96 131
96 132
96 144
96 150
96 157
97 38
97 53
97 59
97 60
97 61
97 67
97 76
97 82
97 86
97 88
97 99
97 107
97 111
97 114
97 118
97 127
97 129
97 135
97 136
97 141
97 146
97 151
98 41
98 47
98 49
98 50
98 70
98 73
98 77
98 78
98 84
98 89
98 104
98 106
98 108
98 109
98 117
98 121
98 122
98 125
98 128
98 145
98 154
98 155
99 32
99 38
99 53
99 54
99 59
99 61
99 76
99 82
99 85
99 95
99 97
99 107
99 114
99 126
99 127
99 129
99 136
99 137
99 146
99 159
99 160
100 44
100 45
100 48
100 56
100 64
100 71
100 72
100 74
100 80
100 93
100 101
100 102
100 105
100 119
100 120
100 123
100 140
100 142
100 143
100 149
100 162
101 39
101 44
101 46
101 56
101 64
101 71
101 74
101 80
101 83
101 100
101 102
101 105
101 112
101 119
101 120
101 140
101 142
101 143
101 149
101 162
102 36
102 45
102 48
102 55
102 56
102 69
102 71
102 72
102 80
102 92
102 93
102 100
102 101
102 119
102 120
102 123
102 130
102 142
102 147
102 149
102 166
103 40
103 58
103 65
103 81
103 90
103 91
103 94
103 116
103 134
103 139
104 47
104 49
104 57
104 68
104 73
104 77
104 84
104 92
104 93
104 98
104 108
104 117
104 121
104 122
104 124
104 130
104 138
104 145
104 152
104 170
105 39
105 44
105 46
105 64
105 66
105 71
105 74
105 80
105 83
105 85
105 100
105 101
105 112
105 119
105 137
105 140
105 143
105 156
105 162
105 173
106 41
106 49
106 50
106 70
106 73
106 77
106 78
106 89
106 96
106 98
106 108
106 109
106 113
106 117
106 121
106 125
106 128
106 145
106 154
106 155
106 167
107 42
107 53
107 60
107 61
107 67
107 76
107 82
107 86
107 87
107 88
107 97
107 99
107 111
107 114
107 118
107 127
107 129
107 135
107 136
107 141
107 146
107 151
107 161
108 47
108 49
108 57
108 68
108 70
108 73
108 77
108 84
108 89
108 92
108 98
108 104
108 106
108 117
108 121
108 122
108 124
108 128
108 138
108 145
108 154
108 155
108 170
108 175
109 50
109 52
109 70
109 75
109 77
109 78
109 89
109 96
109 98
109 106
109 110
109 113
109 121
109 125
109 128
109 131
109 144
109 154
109 157
109 167
110 51
110 52
110 65
110 75
110 78
110 79
110 81
110 91
110 94
110 96
110 109
110 113
110 116
110 125
110 131
110 132
110 134
110 144
110 150
110 153
110 157
110 164
111 42
111 53
111 60
111 62
111 67
111 82
111 86
111 87
111 88
111 97
111 107
111 115
111 118
111 127
111 133
111 135
111 141
111 148
111 151
111 158
111 161
111 172
112 39
112 46
112 64
112 66
112 74
112 80
112 83
112 85
112 95
112 101
112 105
112 119
112 126
112 137
112 140
112 143
112 156
112 162
112 163
112 173
113 51
113 52
113 75
113 78
113 79
113 81
113 89
113 94
113 96
113 106
113 109
113 110
113 125
113 128
113 131
113 132
113 134
113 144
113 150
113 153
113 157
113 164
114 38
114 53
114 59
114 61
114 76
114 82
114 86
114 95
114 97
114 99
114 107
114 126
114 127
114 129
114 135
114 136
114 146
114 151
114 159
114 160
114 183
115 43
115 62
115 63
115 87
115 88
115 111
115 118
115 133
115 141
115 148
115 158
115 172
115 179
116 58
116 65
116 79
116 81
116 90
116 91
116 94
116 103
116 110
116 131
116 132
116 134
116 139
116 150
116 153
116 164
116 165
117 47
117 49
117 57
117 68
117 73
117 77
117 84
117 92
117 98
117 104
117 106
117 108
117 121
117 122
117 124
117 138
117 145
117 152
117 154
117 155
117 170
117 175
118 62
118 67
118 86
118 87
118 88
118 97
118 107
118 111
118 115
118 127
118 133
118 135
118 141
118 148
118 151
118 158
118 161
118 172
118 179
118 181
119 56
119 64
119 71
119 74
119 80
119 83
119 100
119 101
119 102
119 105
119 112
119 120
119 123
119 140
119 142
119 143
119 149
119 162
119 166
119 168
119 171
119 173
120 45
120 56
120 71
120 72
120 80
120 93
120 100
120 101
120 102
120 119
120 123
120 130
120 140
120 142
120 147
120 149
120 162
120 166
120 168
120 169
120 171
120 176
121 49
121 70
121 73
121 77
121 89
121 98
121 104
121 106
121 108
121 109
121 117
121 122
121 125
121 128
121 145
121 154
121 155
121 167
121 170
121 175
122 57
122 68
122 73
122 84
122 92
122 93
122 98
122 104
122 108
122 117
122 121
122 124
122 130
122 138
122 145
122 147
122 152
122 155
122 170
122 174
122 185
123 48
123 69
123 71
123 72
123 92
123 93
123 100
123 102
123 119
123 120
123 124
123 130
123 142
123 147
123 149
123 152
123 166
123 168
123 169
123 176
123 177
124 68
124 69
124 84
124 92
124 93
124 104
124 108
124 117
124 122
124 123
124 130
124 138
124 145
124 147
124 152
124 169
124 170
124 174
124 177
124 185
125 70
125 75
125 78
125 89
125 96
125 98
125 106
125 109
125 110
125 113
125 121
125 128
125 131
125 132
125 144
125 150
125 154
125 157
125 164
125 167
126 54
126 76
126 85
126 95
126 99
126 112
126 114
126 129
126 136
126 137
126 146
126 156
126 159
126 160
126 163
126 178
126 189
126 191
127 53
127 61
127 76
127 82
127 86
127 97
127 99
127 107
127 111
127 114
127 118
127 129
127 135
127 136
127 141
127 146
127 151
127 160
127 161
127 180
127 183
127 196
128 70
128 77
128 78
128 89
128 96
128 98
128 106
128 108
128 109
128 113
128 121
128 125
128 131
128 144
128 154
128 155
128 157
128 167
128 175
129 59
129 76
129 82
129 95
129 97
129 99
129 107
129 114
129 126
129 127
129 136
129 137
129 146
129 151
129 159
129 160
129 163
129 183
129 187
129 191
130 68
130 69
130 72
130 84
130 92
130 93
130 102
130 104
130 120
130 122
130 123
130 124
130 138
130 142
130 147
130 149
130 152
130 166
130 169
130 174
130 176
130 177
130 185
131 75
131 78
131 79
131 81
131 89
131 94
131 96
131 109
131 110
131 113
131 116
131 125
131 128
131 132
131 134
131 144
131 150
131 153
131 157
131 164
131 192
131 197
132 65
132 75
132 79
132 81
132 90
132 91
132 94
132 96
132 110
132 113
132 116
132 125
132 131
132 134
132 139
132 144
132 150
132 153
132 157
132 164
132 165
132 184
133 62
133 86
133 87
133 88
133 111
133 115
133 118
133 135
133 141
133 148
133 158
133 161
133 172
133 179
133 181
134 65
134 79
134 81
134 90
134 91
134 94
134 103
134 110
134 113
134 116
134 131
134 132
134 139
134 144
134 150
134 153
134 164
134 165
134 184
134 186
135 67
135 82
135 86
135 88
135 97
135 107
135 111
135 114
135 118
135 127
135 133
135 136
135 141
135 146
135 148
135 151
135 161
135 172
135 180
135 181
135 183
135 190
135 196
136 76
136 82
136 86
136 95
136 97
136 99
136 107
136 114
136 126
136 127
136 129
136 135
136 141
136 146
136 151
136 159
136 160
136 161
136 180
136 183
136 187
137 83
137 85
137 95
137 99
137 105
137 112
137 126
137 129
137 143
137 156
137 159
137 160
137 163
137 178
137 182
137 189
137 191
137 199
138 68
138 84
138 92
138 93
138 104
138 108
138 117
138 122
138 124
138 130
138 145
138 147
138 152
138 155
138 169
138 170
138 174
138 177
138 185
138 188
138 200
139 81
139 90
139 91
139 94
139 103
139 116
139 132
139 134
139 153
139 164
139 165
139 184
139 186
140 74
140 80
140 83
140 100
140 101
140 105
140 112
140 119
140 120
140 142
140 143
140 149
140 156
140 162
140 166
140 168
140 171
140 173
140 182
140 195
140 204
141 86
141 87
141 88
141 97
141 107
141 111
141 115
141 118
141 127
141 133
141 135
141 136
141 146
141 148
141 151
141 158
141 161
141 172
141 179
141 180
141 181
141 190
141 194
141 196
142 72
142 93
142 100
142 101
142 102
142 119
142 120
142 123
142 130
142 140
142 147
142 149
142 162
142 166
142 168
142 169
142 171
142 176
142 177
142 198
142 205
143 74
143 83
143 100
143 101
143 105
143 112
143 119
143 137
143 140
143 156
143 162
143 163
143 171
143 173
143 178
143 182
143 195
143 199
143 201
144 75
144 78
144 89
144 94
144 96
144 109
144 110
144 113
144 125
144 128
144 131
144 132
144 134
144 150
144 153
144 154
144 157
144 164
144 167
144 192
144 197
145 84
145 98
145 104
145 106
145 108
145 117
145 121
145 122
145 124
145 138
145 152
145 154
145 155
145 170
145 174
145 175
145 185
145 188
145 209
146 82
146 86
146 97
146 99
146 107
146 114
146 126
146 127
146 129
146 135
146 136
146 141
146 151
146 159
146 160
146 161
146 180
146 181
146 183
146 187
146 190
146 191
146 196
146 208
146 216
147 92
147 93
147 102
147 120
147 122
147 123
147 124
147 130
147 138
147 142
147 149
147 152
147 166
147 168
147 169
147 174
147 176
147 177
147 185
147 198
147 200
147 213
148 87
148 88
148 111
148 115
148 118
148 133
148 135
148 141
148 151
148 158
148 161
148 172
148 179
148 180
148 181
148 190
148 193
148 194
148 203
149 100
149 101
149 102
149 119
149 120
149 123
149 130
149 140
149 142
149 147
149 162
149 166
149 168
149 169
149 171
149 173
149 176
149 195
149 198
149 204
149 205
149 210
150 79
150 94
150 96
150 110
150 113
150 116
150 125
150 131
150 132
150 134
150 144
150 153
150 157
150 164
150 165
150 184
150 192
150 197
151 86
151 97
151 107
151 111
151 114
151 118
151 127
151 129
151 135
151 136
151 141
151 146
151 148
151 160
151 161
151 172
151 180
151 181
151 183
151 187
151 190
151 194
151 196
151 208
151 214
151 216
151 218
152 92
152 93
152 104
152 117
152 122
152 123
152 124
152 130
152 138
152 145
152 147
152 166
152 169
152 170
152 174
152 176
152 177
152 185
152 198
152 200
152 209
152 217
152 224
153 91
153 94
153 110
153 113
153 116
153 131
153 132
153 134
153 139
153 144
153 150
153 157
153 164
153 165
153 184
153 186
153 192
153 197
153 206
153 215
153 220
154 89
154 98
154 106
154 108
154 109
154 117
154 121
154 125
154 128
154 144
154 145
154 155
154 157
154 167
154 170
154 175
154 188
154 202
154 207
155 98
155 106
155 108
155 117
155 121
155 122
155 128
155 138
155 145
155 154
155 167
155 170
155 175
155 188
155 202
155 207
156 105
156 112
156 126
156 137
156 140
156 143
156 159
156 162
156 163
156 173
156 178
156 182
156 189
156 191
156 199
156 201
156 211
156 212
157 96
157 109
157 110
157 113
157 125
157 128
157 131
157 132
157 144
157 150
157 153
157 154
157 164
157 167
157 192
157 197
157 202
157 207
157 222
157 226
158 111
158 115
158 118
158 133
158 141
158 148
158 161
158 172
158 179
158 181
158 193
158 194
158 203
158 221
158 225
159 95
159 99
159 114
159 126
159 129
159 136
159 137
159 146
159 156
159 160
159 163
159 178
159 182
159 183
159 187
159 189
159 191
159 199
159 208
159 211
159 212
159 223
160 99
160 114
160 126
160 127
160 129
160 136
160 137
160 146
160 151
160 159
160 163
160 178
160 180
160 183
160 187
160 189
160 191
160 196
160 208
160 212
160 216
160 223
161 107
161 111
161 118
161 127
161 133
161 135
161 136
161 141
161 146
161 148
161 151
161 158
161 172
161 179
161 180
161 181
161 183
161 190
161 194
161 196
161 203
161 214
161 218
161 225
162 100
162 101
162 105
162 112
162 119
162 120
162 140
162 142
162 143
162 149
162 156
162 166
162 168
162 171
162 173
162 182
162 195
162 201
162 204
162 205
162 219
162 227
163 95
163 112
163 126
163 129
163 137
163 143
163 156
163 159
163 160
163 178
163 182
163 187
163 189
163 191
163 199
163 201
163 211
163 212
163 231
164 94
164 110
164 113
164 116
164 125
164 131
164 132
164 134
164 139
164 144
164 150
164 153
164 157
164 165
164 184
164 192
164 197
164 206
164 215
164 220
164 226
164 228
165 116
165 132
165 134
165 139
165 150
165 153
165 164
165 184
165 186
165 197
165 206
165 215
165 220
166 102
166 119
166 120
166 123
166 130
166 140
166 142
166 147
166 149
166 152
166 162
166 168
166 169
166 171
166 174
166 176
166 177
166 195
166 198
166 200
166 204
166 205
166 210
166 213
166 219
166 229
166 232
167 106
167 109
167 121
167 125
167 128
167 144
167 154
167 155
167 157
167 175
167 188
167 192
167 202
167 207
167 222
167 226
168 119
168 120
168 123
168 140
168 142
168 147
168 149
168 162
168 166
168 169
168 171
168 173
168 176
168 177
168 195
168 198
168 204
168 205
168 210
168 213
168 219
168 229
168 232
169 120
169 123
169 124
169 130
169 138
169 142
169 147
169 149
169 152
169 166
169 168
169 174
169 176
169 177
169 185
169 198
169 200
169 205
169 210
169 213
169 217
169 224
169 234
170 104
170 108
170 117
170 121
170 122
170 124
170 138
170 145
170 152
170 154
170 155
170 174
170 175
170 185
170 188
170 200
170 207
170 209
170 217
170 238
171 119
171 120
171 140
171 142
171 143
171 149
171 162
171 166
171 168
171 173
171 176
171 195
171 201
171 204
171 205
171 210
171 219
171 227
171 229
171 232
172 111
172 115
172 118
172 133
172 135
172 141
172 148
172 151
172 158
172 161
172 179
172 180
172 181
172 190
172 193
172 194
172 196
172 203
172 214
172 218
172 221
172 225
172 241
173 105
173 112
173 119
173 140
173 143
173 149
173 156
173 162
173 168
173 171
173 182
173 195
173 199
173 201
173 204
173 205
173 219
173 227
173 230
174 122
174 124
174 130
174 138
174 145
174 147
174 152
174 166
174 169
174 170
174 176
174 177
174 185
174 188
174 198
174 200
174 209
174 213
174 217
174 224
174 234
174 235
175 108
175 117
175 121
175 128
175 145
175 154
175 155
175 167
175 170
175 185
175 188
175 202
175 207
175 209
175 238
175 242
176 120
176 123
176 130
176 142
176 147
176 149
176 152
176 166
176 168
176 169
176 171
176 174
176 177
176 185
176 198
176 200
176 204
176 205
176 210
176 213
176 217
176 224
176 232
176 234
177 123
177 124
177 130
177 138
177 142
177 147
177 152
177 166
177 168
177 169
177 174
177 176
177 185
177 198
177 200
177 205
177 209
177 210
177 213
177 217
177 224
177 234
177 235
178 126
178 137
178 143
178 156
178 159
178 160
178 163
178 182
178 187
178 189
178 191
178 199
178 201
178 211
178 212
178 223
178 230
178 231
178 237
179 115
179 118
179 133
179 141
179 148
179 158
179 161
179 172
179 181
179 190
179 193
179 194
179 203
179 218
179 221
179 225
179 240
179 249
180 127
180 135
180 136
180 141
180 146
180 148
180 151
180 160
180 161
180 172
180 181
180 183
180 187
180 190
180 194
180 196
180 208
180 214
180 216
180 218
180 225
180 233
180 245
180 246
181 118
181 133
181 135
181 141
181 146
181 148
181 151
181 158
181 161
181 172
181 179
181 180
181 183
181 190
181 194
181 196
181 203
181 214
181 216
181 218
181 225
181 233
181 241
181 245
182 137
182 140
182 143
182 156
182 159
182 162
182 163
182 173
182 178
182 189
182 191
182 195
182 199
182 201
182 211
182 212
182 227
182 230
182 231
182 237
182 251
183 114
183 127
183 129
183 135
183 136
183 146
183 151
183 159
183 160
183 161
183 180
183 181
183 187
183 189
183 190
183 191
183 196
183 208
183 212
183 214
183 216
183 218
183 223
183 233
183 246
183 248
184 132
184 134
184 139
184 150
184 153
184 164
184 165
184 186
184 192
184 197
184 206
184 215
184 220
184 228
184 236
184 239
184 244
185 122
185 124
185 130
185 138
185 145
185 147
185 152
185 169
185 170
185 174
185 175
185 176
185 177
185 188
185 198
185 200
185 209
185 213
185 217
185 224
185 234
185 235
185 238
185 247
186 134
186 139
186 153
186 165
186 184
186 206
186 215
186 236
186 244
187 129
187 136
187 146
187 151
187 159
187 160
187 163
187 178
187 180
187 183
187 189
187 190
187 191
187 196
187 208
187 211
187 212
187 214
187 216
187 223
187 233
187 237
187 243
187 246
187 248
188 138
188 145
188 154
188 155
188 167
188 170
188 174
188 175
188 185
188 200
188 207
188 209
188 217
188 235
188 238
188 242
188 247
189 126
189 137
189 156
189 159
189 160
189 163
189 178
189 182
189 183
189 187
189 191
189 199
189 201
189 208
189 211
189 212
189 223
189 231
189 237
189 243
189 256
190 135
190 141
190 146
190 148
190 151
190 161
190 172
190 179
190 180
190 181
190 183
190 187
190 194
190 196
190 203
190 208
190 214
190 216
190 218
190 225
190 233
190 241
190 245
190 246
191 126
191 129
191 137
191 146
191 156
191 159
191 160
191 163
191 178
191 182
191 183
191 187
191 189
191 196
191 199
191 208
191 211
191 212
191 216
191 223
191 231
191 237
191 243
191 246
191 248
192 131
192 144
192 150
192 153
192 157
192 164
192 167
192 184
192 197
192 202
192 206
192 220
192 222
192 226
192 228
192 239
193 148
193 158
193 172
193 179
193 194
193 203
193 221
193 225
193 240
193 249
193 263
194 141
194 148
194 151
194 158
194 161
194 172
194 179
194 180
194 181
194 190
194 193
194 196
194 203
194 214
194 218
194 221
194 225
194 233
194 241
194 245
194 249
194 258
195 140
195 143
195 149
195 162
195 166
195 168
195 171
195 173
195 182
195 199
195 201
195 204
195 205
195 210
195 219
195 227
195 229
195 230
195 232
195 250
195 251
195 252
196 127
196 135
196 141
196 146
196 151
196 160
196 161
196 172
196 180
196 181
196 183
196 187
196 190
196 191
196 194
196 208
196 214
196 216
196 218
196 223
196 225
196 233
196 241
196 245
196 246
196 248
196 262
197 131
197 144
197 150
197 153
197 157
197 164
197 165
197 184
197 192
197 202
197 206
197 215
197 220
197 222
197 226
197 228
197 239
198 142
198 147
198 149
198 152
198 166
198 168
198 169
198 174
198 176
198 177
198 185
198 200
198 204
198 205
198 209
198 210
198 213
198 217
198 224
198 229
198 232
198 234
198 235
198 253
198 254
198 265
199 137
199 143
199 156
199 159
199 163
199 173
199 178
199 182
199 189
199 191
199 195
199 201
199 211
199 212
199 227
199 230
199 231
199 237
199 251
199 256
199 261
200 138
200 147
200 152
200 166
200 169
200 170
200 174
200 176
200 177
200 185
200 188
200 198
200 209
200 210
200 213
200 217
200 224
200 234
200 235
200 247
200 254
200 264
201 143
201 156
201 162
201 163
201 171
201 173
201 178
201 182
201 189
201 195
201 199
201 204
201 211
201 212
201 219
201 227
201 230
201 231
201 237
201 250
201 251
201 256
201 261
202 154
202 155
202 157
202 167
202 175
202 192
202 197
202 207
202 222
202 226
202 228
202 242
202 257
202 260
202 266
203 148
203 158
203 161
203 172
203 179
203 181
203 190
203 193
203 194
203 214
203 218
203 221
203 225
203 240
203 241
203 245
203 249
203 258
203 263
204 140
204 149
204 162
204 166
204 168
204 171
204 173
204 176
204 195
204 198
204 201
204 205
204 210
204 213
204 219
204 227
204 229
204 230
204 232
204 250
204 252
204 253
204 269
205 142
205 149
205 162
205 166
205 168
205 169
205 171
205 173
205 176
205 177
205 195
205 198
205 204
205 210
205 213
205 219
205 224
205 227
205 229
205 232
205 234
205 250
205 252
205 253
205 269
206 153
206 164
206 165
206 184
206 186
206 192
206 197
206 215
206 220
206 228
206 236
206 239
206 244
206 255
207 154
207 155
207 157
207 167
207 170
207 175
207 188
207 202
207 222
207 226
207 238
207 242
207 259
207 260
207 266
208 146
208 151
208 159
208 160
208 180
208 183
208 187
208 189
208 190
208 191
208 196
208 211
208 212
208 214
208 216
208 218
208 223
208 233
208 237
208 243
208 245
208 246
208 248
208 262
208 271
208 272
209 145
209 152
209 170
209 174
209 175
209 177
209 185
209 188
209 198
209 200
209 217
209 224
209 234
209 235
209 238
209 247
209 254
209 259
209 264
210 149
210 166
210 168
210 169
210 171
210 176
210 177
210 195
210 198
210 200
210 204
210 205
210 213
210 217
210 219
210 224
210 229
210 232
210 234
210 252
210 253
210 254
210 265
210 269
210 278
211 156
211 159
211 163
211 178
211 182
211 187
211 189
211 191
211 199
211 201
211 208
211 212
211 223
211 227
211 230
211 231
211 237
211 243
211 248
211 251
211 256
211 261
211 267
211 268
212 156
212 159
212 160
212 163
212 178
212 182
212 183
212 187
212 189
212 191
212 199
212 201
212 208
212 211
212 216
212 223
212 231
212 237
212 243
212 246
212 248
212 256
212 261
212 267
212 268
212 272
213 147
213 166
213 168
213 169
213 174
213 176
213 177
213 185
213 198
213 200
213 204
213 205
213 210
213 217
213 224
213 229
213 232
213 234
213 235
213 252
213 253
213 254
213 265
213 269
213 278
214 151
214 161
214 172
214 180
214 181
214 183
214 187
214 190
214 194
214 196
214 203
214 208
214 216
214 218
214 223
214 225
214 233
214 241
214 245
214 246
214 248
214 258
214 262
214 270
214 271
215 153
215 164
215 165
215 184
215 186
215 197
215 206
215 220
215 228
215 236
215 239
215 244
215 255
215 273
215 276
216 146
216 151
216 160
216 180
216 181
216 183
216 187
216 190
216 191
216 196
216 208
216 212
216 214
216 218
216 223
216 233
216 243
216 245
216 246
216 248
216 262
216 270
216 271
216 272
217 152
217 169
217 170
217 174
217 176
217 177
217 185
217 188
217 198
217 200
217 209
217 210
217 213
217 224
217 234
217 235
217 238
217 247
217 254
217 264
217 265
217 279
217 284
218 151
218 161
218 172
218 179
218 180
218 181
218 183
218 190
218 194
218 196
218 203
218 208
218 214
218 216
218 221
218 225
218 233
218 241
218 245
218 246
218 249
218 258
218 262
218 270
218 275
218 280
218 283
219 162
219 166
219 168
219 171
219 173
219 195
219 201
219 204
219 205
219 210
219 227
219 229
219 230
219 232
219 250
219 251
219 252
219 253
219 269
219 277
219 282
219 292
220 153
220 164
220 165
220 184
220 192
220 197
220 206
220 215
220 226
220 228
220 236
220 239
220 255
220 274
221 158
221 172
221 179
221 193
221 194
221 203
221 218
221 225
221 240
221 241
221 249
221 258
221 263
221 275
222 157
222 167
222 192
222 197
222 202
222 207
222 226
222 228
222 242
222 257
222 260
222 266
222 274
223 159
223 160
223 178
223 183
223 187
223 189
223 191
223 196
223 208
223 211
223 212
223 214
223 216
223 231
223 233
223 237
223 243
223 246
223 248
223 256
223 262
223 267
223 268
223 271
223 272
223 286
223 287
224 152
224 169
224 174
224 176
224 177
224 185
224 198
224 200
224 205
224 209
224 210
224 213
224 217
224 232
224 234
224 235
224 247
224 253
224 254
224 264
224 265
224 278
224 279
225 158
225 161
225 172
225 179
225 180
225 181
225 190
225 193
225 194
225 196
225 203
225 214
225 218
225 221
225 233
225 240
225 241
225 245
225 249
225 258
225 263
225 270
225 275
225 280
226 157
226 164
226 167
226 192
226 197
226 202
226 207
226 220
226 222
226 228
226 239
226 257
226 260
226 274
227 162
227 171
227 173
227 182
227 195
227 199
227 201
227 204
227 205
227 211
227 219
227 229
227 230
227 231
227 250
227 251
227 252
227 256
227 261
227 282
227 288
227 295
228 164
228 184
228 192
228 197
228 202
228 206
228 215
228 220
228 222
228 226
228 239
228 255
228 257
228 274
229 166
229 168
229 171
229 195
229 198
229 204
229 205
229 210
229 213
229 219
229 227
229 230
229 232
229 234
229 250
229 252
229 253
229 269
229 277
229 278
229 282
229 290
229 292
230 173
230 178
230 182
230 195
230 199
230 201
230 204
230 211
230 219
230 227
230 229
230 231
230 237
230 250
230 251
230 252
230 256
230 261
230 267
230 282
230 288
230 294
230 295
231 163
231 178
231 182
231 189
231 191
231 199
231 201
231 211
231 212
231 223
231 227
231 230
231 237
231 243
231 248
231 250
231 251
231 256
231 261
231 267
231 268
231 272
231 288
231 289
231 294
232 166
232 168
232 171
232 176
232 195
232 198
232 204
232 205
232 210
232 213
232 219
232 224
232 229
232 234
232 250
232 252
232 253
232 254
232 265
232 269
232 277
232 278
232 290
232 292
233 180
233 181
233 183
233 187
233 190
233 194
233 196
233 208
233 214
233 216
233 218
233 223
233 225
233 241
233 243
233 245
233 246
233 248
233 258
233 262
233 270
233 271
233 272
233 280
233 283
233 286
233 293
234 169
234 174
234 176
234 177
234 185
234 198
234 200
234 205
234 209
234 210
234 213
234 217
234 224
234 229
234 232
234 235
234 252
234 253
234 254
234 264
234 265
234 269
234 278
234 279
234 284
234 290
234 297
234 302
235 174
235 177
235 185
235 188
235 198
235 200
235 209
235 213
235 217
235 224
235 234
235 238
235 247
235 254
235 259
235 264
235 265
235 279
235 281
235 284
236 184
236 186
236 206
236 215
236 220
236 239
236 244
236 255
236 273
236 276
236 298
236 304
237 178
237 182
237 187
237 189
237 191
237 199
237 201
237 208
237 211
237 212
237 223
237 230
237 231
237 243
237 248
237 251
237 256
237 261
237 267
237 268
237 272
237 287
237 289
237 294
238 170
238 175
238 185
238 188
238 207
238 209
238 217
238 235
238 242
238 247
238 259
238 264
238 266
238 281
238 284
238 291
239 184
239 192
239 197
239 206
239 215
239 220
239 226
239 228
239 236
239 244
239 255
239 273
239 274
239 276
239 299
239 300
240 179
240 193
240 203
240 221
240 225
240 241
240 249
240 258
240 263
240 275
240 296
240 303
241 172
241 181
241 190
241 194
241 196
241 203
241 214
241 218
241 221
241 225
241 233
241 240
241 245
241 246
241 249
241 258
241 262
241 263
241 270
241 275
241 280
241 283
241 296
241 310
242 175
242 188
242 202
242 207
242 222
242 238
242 247
242 257
242 259
242 260
242 266
242 285
242 291
242 301
242 311
243 187
243 189
243 191
243 208
243 211
243 212
243 216
243 223
243 231
243 233
243 237
243 246
243 248
243 256
243 262
243 267
243 268
243 271
243 272
243 286
243 287
243 289
243 305
243 313
244 184
244 186
244 206
244 215
244 236
244 239
244 255
244 273
244 276
244 298
244 304
245 180
245 181
245 190
245 194
245 196
245 203
245 208
245 214
245 216
245 218
245 225
245 233
245 241
245 246
245 249
245 258
245 262
245 270
245 271
245 275
245 280
245 283
245 286
245 293
245 308
245 310
246 180
246 183
246 187
246 190
246 191
246 196
246 208
246 212
246 214
246 216
246 218
246 223
246 233
246 241
246 243
246 245
246 248
246 262
246 268
246 270
246 271
246 272
246 283
246 286
246 287
246 293
246 305
246 307
247 185
247 188
247 200
247 209
247 217
247 224
247 235
247 238
247 242
247 254
247 259
247 264
247 266
247 279
247 281
247 284
247 291
247 312
247 316
248 183
248 187
248 191
248 196
248 208
248 211
248 212
248 214
248 216
248 223
248 231
248 233
248 237
248 243
248 246
248 256
248 262
248 267
248 268
248 271
248 272
248 286
248 287
248 289
248 293
248 305
248 307
248 313
249 179
249 193
249 194
249 203
249 218
249 221
249 225
249 240
249 241
249 245
249 258
249 263
249 270
249 275
249 280
249 283
249 296
249 303
249 310
250 195
250 201
250 204
250 205
250 219
250 227
250 229
250 230
250 231
250 232
250 251
250 252
250 253
250 261
250 269
250 277
250 282
250 288
250 292
250 295
250 315
250 319
251 182
251 195
251 199
251 201
251 211
251 219
251 227
251 230
251 231
251 237
251 250
251 252
251 256
251 261
251 267
251 282
251 288
251 289
251 292
251 294
251 295
251 314
251 321
252 195
252 204
252 205
252 210
252 213
252 219
252 227
252 229
252 230
252 232
252 234
252 250
252 251
252 253
252 265
252 269
252 277
252 278
252 282
252 290
252 292
252 306
252 315
253 198
253 204
253 205
253 210
253 213
253 219
253 224
253 229
253 232
253 234
253 250
253 252
253 254
253 265
253 269
253 277
253 278
253 290
253 292
253 302
253 306
253 315
253 317
254 198
254 200
254 209
254 210
254 213
254 217
254 224
254 232
254 234
254 235
254 247
254 253
254 264
254 265
254 269
254 278
254 279
254 281
254 284
254 290
254 297
254 302
254 309
254 312
254 317
255 206
255 215
255 220
255 228
255 236
255 239
255 244
255 273
255 276
255 298
255 299
255 300
255 304
255 323
255 325
255 330
256 189
256 199
256 201
256 211
256 212
256 223
256 227
256 230
256 231
256 237
256 243
256 248
256 251
256 261
256 267
256 268
256 272
256 287
256 288
256 289
256 294
256 295
256 313
256 314
256 318
257 202
257 222
257 226
257 228
257 242
257 260
257 266
257 274
257 285
257 299
257 301
257 322
257 327
258 194
258 203
258 214
258 218
258 221
258 225
258 233
258 240
258 241
258 245
258 249
258 262
258 263
258 270
258 275
258 280
258 283
258 293
258 296
258 303
258 308
258 310
258 320
259 207
259 209
259 235
259 238
259 242
259 247
259 260
259 264
259 266
259 281
259 284
259 285
259 291
259 301
259 311
259 312
259 316
259 333
259 336
260 202
260 207
260 222
260 226
260 242
260 257
260 259
260 266
260 274
260 285
260 291
260 301
260 311
260 322
260 327
261 199
261 201
261 211
261 212
261 227
261 230
261 231
261 237
261 250
261 251
261 256
261 267
261 268
261 282
261 288
261 289
261 294
261 295
261 314
261 318
261 321
262 196
262 208
262 214
262 216
262 218
262 223
262 233
262 241
262 243
262 245
262 246
262 248
262 258
262 270
262 271
262 272
262 280
262 283
262 286
262 287
262 293
262 305
262 307
262 308
262 326
262 335
262 337
263 193
263 203
263 221
263 225
263 240
263 241
263 249
263 258
263 275
263 280
263 296
263 303
263 310
263 320
263 328
263 329
264 200
264 209
264 217
264 224
264 234
264 235
264 238
264 247
264 254
264 259
264 265
264 278
264 279
264 281
264 284
264 291
264 297
264 302
264 309
264 312
264 316
264 331
265 198
265 210
265 213
265 217
265 224
265 232
265 234
265 235
265 252
265 253
265 254
265 264
265 269
265 277
265 278
265 279
265 284
265 290
265 297
265 302
265 306
265 309
265 317
265 332
265 334
266 202
266 207
266 222
266 238
266 242
266 247
266 257
266 259
266 260
266 285
266 291
266 301
266 311
266 316
266 322
266 327
266 333
267 211
267 212
267 223
267 230
267 231
267 237
267 243
267 248
267 251
267 256
267 261
267 268
267 272
267 286
267 287
267 288
267 289
267 294
267 295
267 305
267 313
267 314
267 318
267 324
268 211
268 212
268 223
268 231
268 237
268 243
268 246
268 248
268 256
268 261
268 267
268 271
268 272
268 286
268 287
268 289
268 294
268 305
268 313
268 318
268 324
269 204
269 205
269 210
269 213
269 219
269 229
269 232
269 234
269 250
269 252
269 253
269 254
269 265
269 277
269 278
269 282
269 290
269 292
269 297
269 302
269 306
269 315
269 317
269 332
270 214
270 216
270 218
270 225
270 233
270 241
270 245
270 246
270 249
270 258
270 262
270 271
270 275
270 280
270 283
270 286
270 293
270 296
270 307
270 308
270 310
270 320
270 335
271 208
271 214
271 216
271 223
271 233
271 243
271 245
271 246
271 248
271 262
271 268
271 270
271 272
271 283
271 286
271 287
271 293
271 305
271 307
271 308
271 313
271 324
271 326
271 335
271 337
272 208
272 212
272 216
272 223
272 231
272 233
272 237
272 243
272 246
272 248
272 256
272 262
272 267
272 268
272 271
272 286
272 287
272 289
272 293
272 294
272 305
272 307
272 313
272 318
272 324
272 326
272 342
273 215
273 236
273 239
273 244
273 255
273 276
273 298
273 304
273 325
273 330
274 220
274 222
274 226
274 228
274 239
274 257
274 260
274 285
274 299
274 300
274 322
274 323
274 339
275 218
275 221
275 225
275 240
275 241
275 245
275 249
275 258
275 263
275 270
275 280
275 283
275 296
275 303
275 308
275 310
275 320
275 328
275 329
275 341
276 215
276 236
276 239
276 244
276 255
276 273
276 298
276 299
276 300
276 304
276 323
276 325
276 330
276 355
277 219
277 229
277 232
277 250
277 252
277 253
277 265
277 269
277 278
277 282
277 290
277 292
277 295
277 302
277 306
277 315
277 317
277 319
277 332
277 346
277 353
278 210
278 213
278 224
278 229
278 232
278 234
278 252
278 253
278 254
278 264
278 265
278 269
278 277
278 279
278 284
278 290
278 292
278 297
278 302
278 306
278 309
278 315
278 317
278 332
278 334
278 348
279 217
279 224
279 234
279 235
279 247
279 254
279 264
279 265
279 278
279 281
279 284
279 290
279 297
279 302
279 309
279 312
279 317
279 331
279 334
279 351
280 218
280 225
280 233
280 241
280 245
280 249
280 258
280 262
280 263
280 270
280 275
280 283
280 293
280 296
280 303
280 307
280 308
280 310
280 320
280 329
280 335
280 341
280 345
281 235
281 238
281 247
281 254
281 259
281 264
281 279
281 284
281 291
281 297
281 301
281 309
281 311
281 312
281 316
281 331
281 334
281 336
281 360
281 361
282 219
282 227
282 229
282 230
282 250
282 251
282 252
282 261
282 269
282 277
282 288
282 292
282 294
282 295
282 306
282 314
282 315
282 319
282 321
282 340
282 344
282 346
282 356
282 365
283 218
283 233
283 241
283 245
283 246
283 249
283 258
283 262
283 270
283 271
283 275
283 280
283 286
283 293
283 296
283 307
283 308
283 310
283 320
283 326
283 335
283 337
283 341
283 345
284 217
284 234
284 235
284 238
284 247
284 254
284 259
284 264
284 265
284 278
284 279
284 281
284 291
284 297
284 302
284 309
284 312
284 316
284 331
284 334
284 336
284 351
284 360
285 242
285 257
285 259
285 260
285 266
285 274
285 291
285 301
285 311
285 316
285 322
285 327
285 333
285 336
285 350
285 354
285 363
286 223
286 233
286 243
286 245
286 246
286 248
286 262
286 267
286 268
286 270
286 271
286 272
286 283
286 287
286 289
286 293
286 305
286 307
286 308
286 313
286 324
286 326
286 335
286 337
286 342
286 357
286 359
287 223
287 237
287 243
287 246
287 248
287 256
287 262
287 267
287 268
287 271
287 272
287 286
287 289
287 293
287 294
287 305
287 307
287 313
287 318
287 324
287 326
287 337
287 342
287 343
287 359
288 227
288 230
288 231
288 250
288 251
288 256
288 261
288 267
288 282
288 289
288 292
288 294
288 295
288 314
288 318
288 319
288 321
288 338
288 340
288 344
288 356
289 231
289 237
289 243
289 248
289 251
289 256
289 261
289 267
289 268
289 272
289 286
289 287
289 288
289 294
289 295
289 305
289 313
289 314
289 318
289 321
289 324
289 326
289 338
289 342
289 343
290 229
290 232
290 234
290 252
290 253
290 254
290 265
290 269
290 277
290 278
290 279
290 292
290 297
290 302
290 306
290 309
290 315
290 317
290 332
290 334
290 346
290 348
290 353
291 238
291 242
291 247
291 259
291 260
291 264
291 266
291 281
291 284
291 285
291 301
291 311
291 312
291 316
291 327
291 333
291 336
291 350
291 354
291 361
292 219
292 229
292 232
292 250
292 251
292 252
292 253
292 269
292 277
292 278
292 282
292 288
292 290
292 295
292 306
292 315
292 317
292 319
292 321
292 332
292 340
292 346
292 353
292 365
293 233
293 245
293 246
293 248
293 258
293 262
293 270
293 271
293 272
293 280
293 283
293 286
293 287
293 305
293 307
293 308
293 310
293 324
293 326
293 335
293 337
293 345
293 357
294 230
294 231
294 237
294 251
294 256
294 261
294 267
294 268
294 272
294 282
294 287
294 288
294 289
294 295
294 313
294 314
294 318
294 319
294 321
294 338
294 343
294 344
294 356
294 366
295 227
295 230
295 250
295 251
295 256
295 261
295 267
295 277
295 282
295 288
295 289
295 292
295 294
295 314
295 315
295 318
295 319
295 321
295 338
295 340
295 344
295 346
295 356
295 365
296 240
296 241
296 249
296 258
296 263
296 270
296 275
296 280
296 283
296 303
296 308
296 310
296 320
296 328
296 329
296 341
296 345
296 352
296 358
297 234
297 254
297 264
297 265
297 269
297 278
297 279
297 281
297 284
297 290
297 302
297 306
297 309
297 312
297 317
297 331
297 332
297 334
297 348
297 351
297 370
297 373
298 236
298 244
298 255
298 273
298 276
298 300
298 304
298 323
298 325
298 330
298 349
298 355
298 364
299 239
299 255
299 257
299 274
299 276
299 300
299 322
299 323
299 325
299 339
299 347
299 349
299 362
299 371
300 239
300 255
300 274
300 276
300 298
300 299
300 304
300 322
300 323
300 325
300 330
300 339
300 349
300 355
300 362
300 364
301 242
301 257
301 259
301 260
301 266
301 281
301 285
301 291
301 311
301 316
301 322
301 327
301 333
301 336
301 350
301 354
301 363
301 368
301 375
302 234
302 253
302 254
302 264
302 265
302 269
302 277
302 278
302 279
302 284
302 290
302 297
302 306
302 309
302 312
302 315
302 317
302 331
302 332
302 334
302 348
302 351
302 353
302 370
302 373
303 240
303 249
303 258
303 263
303 275
303 280
303 296
303 310
303 320
303 328
303 329
303 341
303 352
303 358
303 377
304 236
304 244
304 255
304 273
304 276
304 298
304 300
304 323
304 325
304 330
304 355
304 364
304 378
305 243
305 246
305 248
305 262
305 267
305 268
305 271
305 272
305 286
305 287
305 289
305 293
305 307
305 308
305 313
305 318
305 324
305 326
305 335
305 337
305 342
305 343
305 357
305 359
305 379
305 384
306 252
306 253
306 265
306 269
306 277
306 278
306 282
306 290
306 292
306 297
306 302
306 315
306 317
306 319
306 332
306 334
306 346
306 348
306 353
306 370
306 380
306 381
307 246
307 248
307 262
307 270
307 271
307 272
307 280
307 283
307 286
307 287
307 293
307 305
307 308
307 310
307 313
307 324
307 326
307 335
307 337
307 342
307 345
307 357
307 359
307 376
307 384
308 245
308 258
308 262
308 270
308 271
308 275
308 280
308 283
308 286
308 293
308 296
308 305
308 307
308 310
308 320
308 326
308 335
308 337
308 341
308 345
308 352
308 357
308 369
308 376
309 254
309 264
309 265
309 278
309 279
309 281
309 284
309 290
309 297
309 302
309 312
309 316
309 317
309 331
309 332
309 334
309 348
309 351
309 360
309 361
309 370
309 373
310 241
310 245
310 249
310 258
310 263
310 270
310 275
310 280
310 283
310 293
310 296
310 303
310 307
310 308
310 320
310 328
310 329
310 335
310 341
310 345
310 352
310 358
310 369
310 376
310 377
311 242
311 259
311 260
311 266
311 281
311 285
311 291
311 301
311 312
311 316
311 322
311 327
311 333
311 336
311 350
311 354
311 361
311 363
311 368
311 375
311 382
311 385
312 247
312 254
312 259
312 264
312 279
312 281
312 284
312 291
312 297
312 302
312 309
312 311
312 316
312 331
312 334
312 336
312 351
312 360
312 361
312 368
312 373
312 382
313 243
313 248
313 256
313 267
313 268
313 271
313 272
313 286
313 287
313 289
313 294
313 305
313 307
313 314
313 318
313 324
313 326
313 337
313 338
313 342
313 343
313 359
313 367
313 372
313 379
314 251
314 256
314 261
314 267
314 282
314 288
314 289
314 294
314 295
314 313
314 318
314 319
314 321
314 338
314 340
314 343
314 344
314 356
314 365
314 366
314 367
314 374
315 250
315 252
315 253
315 269
315 277
315 278
315 282
315 290
315 292
315 295
315 302
315 306
315 317
315 319
315 321
315 332
315 340
315 346
315 348
315 353
315 356
315 365
315 374
315 380
315 381
316 247
316 259
316 264
316 266
316 281
316 284
316 285
316 291
316 301
316 309
316 311
316 312
316 327
316 331
316 333
316 336
316 350
316 354
316 360
316 361
316 368
316 382
317 253
317 254
317 265
317 269
317 277
317 278
317 279
317 290
317 292
317 297
317 302
317 306
317 309
317 315
317 331
317 332
317 334
317 346
317 348
317 351
317 353
317 370
317 373
317 380
318 256
318 261
318 267
318 268
318 272
318 287
318 288
318 289
318 294
318 295
318 305
318 313
318 314
318 321
318 324
318 338
318 342
318 343
318 344
318 356
318 366
318 367
318 372
318 379
319 250
319 277
319 282
319 288
319 292
319 294
319 295
319 306
319 314
319 315
319 321
319 332
319 340
319 344
319 346
319 353
319 356
319 365
319 366
319 374
319 381
320 258
320 263
320 270
320 275
320 280
320 283
320 296
320 303
320 308
320 310
320 328
320 329
320 335
320 341
320 345
320 352
320 358
320 369
320 377
321 251
321 261
321 282
321 288
321 289
321 292
321 294
321 295
321 314
321 315
321 318
321 319
321 338
321 340
321 343
321 344
321 346
321 356
321 365
321 366
321 367
321 374
322 257
322 260
322 266
322 274
322 285
322 299
322 300
322 301
322 311
322 323
322 327
322 333
322 339
322 347
322 350
322 362
322 363
322 371
322 375
322 387
322 389
323 255
323 274
323 276
323 298
323 299
323 300
323 304
323 322
323 325
323 330
323 339
323 347
323 349
323 355
323 362
323 364
323 371
323 383
323 386
324 267
324 268
324 271
324 272
324 286
324 287
324 289
324 293
324 305
324 307
324 313
324 318
324 326
324 335
324 337
324 338
324 342
324 343
324 357
324 359
324 367
324 372
324 379
324 384
324 392
325 255
325 273
325 276
325 298
325 299
325 300
325 304
325 323
325 330
325 339
325 349
325 355
325 362
325 364
325 378
325 383
325 386
326 262
326 271
326 272
326 283
326 286
326 287
326 289
326 293
326 305
326 307
326 308
326 313
326 324
326 335
326 337
326 342
326 343
326 345
326 357
326 359
326 372
326 376
326 379
326 384
326 390
326 392
327 257
327 260
327 266
327 285
327 291
327 301
327 311
327 316
327 322
327 333
327 336
327 347
327 350
327 354
327 363
327 368
327 371
327 375
327 385
327 387
327 389
328 263
328 275
328 296
328 303
328 310
328 320
328 329
328 341
328 352
328 358
328 369
328 377
329 263
329 275
329 280
329 296
329 303
329 310
329 320
329 328
329 341
329 345
329 352
329 358
329 369
329 377
329 405
330 255
330 273
330 276
330 298
330 300
330 304
330 323
330 325
330 349
330 355
330 364
330 378
330 383
330 386
330 401
331 264
331 279
331 281
331 284
331 297
331 302
331 309
331 312
331 316
331 317
331 334
331 336
331 348
331 351
331 360
331 361
331 368
331 370
331 373
331 382
331 388
331 393
331 398
332 265
332 269
332 277
332 278
332 290
332 292
332 297
332 302
332 306
332 309
332 315
332 317
332 319
332 334
332 346
332 348
332 351
332 353
332 370
332 373
332 380
332 381
332 388
332 403
332 407
333 259
333 266
333 285
333 291
333 301
333 311
333 316
333 322
333 327
333 336
333 347
333 350
333 354
333 361
333 363
333 368
333 375
333 382
333 385
333 387
333 399
333 404
333 410
334 265
334 278
334 279
334 281
334 284
334 290
334 297
334 302
334 306
334 309
334 312
334 317
334 331
334 332
334 348
334 351
334 353
334 360
334 370
334 373
334 380
334 388
334 393
335 262
335 270
335 271
335 280
335 283
335 286
335 293
335 305
335 307
335 308
335 310
335 320
335 324
335 326
335 337
335 341
335 345
335 357
335 359
335 369
335 376
335 384
335 390
335 394
336 259
336 281
336 284
336 285
336 291
336 301
336 311
336 312
336 316
336 327
336 331
336 333
336 350
336 354
336 360
336 361
336 363
336 368
336 375
336 382
336 385
336 398
336 399
336 410
337 262
337 271
337 283
337 286
337 287
337 293
337 305
337 307
337 308
337 313
337 324
337 326
337 335
337 342
337 345
337 357
337 359
337 376
337 379
337 384
337 390
337 392
337 394
337 408
337 412
338 288
338 289
338 294
338 295
338 313
338 314
338 318
338 321
338 324
338 340
338 342
338 343
338 344
338 356
338 366
338 367
338 372
338 374
338 379
338 391
338 392
338 395
338 400
338 411
339 274
339 299
339 300
339 322
339 323
339 325
339 347
339 349
339 355
339 362
339 363
339 364
339 371
339 383
339 386
339 389
339 406
339 417
340 282
340 288
340 292
340 295
340 314
340 315
340 319
340 321
340 338
340 344
340 346
340 353
340 356
340 365
340 366
340 374
340 381
340 391
340 396
340 397
340 400
341 275
341 280
341 283
341 296
341 303
341 308
341 310
341 320
341 328
341 329
341 335
341 345
341 352
341 357
341 358
341 369
341 376
341 377
341 390
341 394
341 402
341 405
341 418
342 272
342 286
342 287
342 289
342 305
342 307
342 313
342 318
342 324
342 326
342 337
342 338
342 343
342 357
342 359
342 366
342 367
342 372
342 379
342 384
342 391
342 392
342 395
342 408
342 414
343 287
343 289
343 294
343 305
343 313
343 314
343 318
343 321
343 324
343 326
343 338
343 342
343 344
343 356
343 359
343 366
343 367
343 372
343 379
343 384
343 391
343 392
343 395
343 411
343 414
344 282
344 288
344 294
344 295
344 314
344 318
344 319
344 321
344 338
344 340
344 343
344 346
344 356
344 365
344 366
344 367
344 372
344 374
344 391
344 395
344 396
344 400
344 411
345 280
345 283
345 293
345 296
345 307
345 308
345 310
345 320
345 326
345 329
345 335
345 337
345 341
345 352
345 357
345 369
345 376
345 377
345 390
345 394
345 402
345 405
346 277
346 282
346 290
346 292
346 295
346 306
346 315
346 317
346 319
346 321
346 332
346 340
346 344
346 348
346 353
346 356
346 365
346 374
346 380
346 381
346 396
346 397
346 407
346 419
346 420
347 299
347 322
347 323
347 327
347 333
347 339
347 349
347 350
347 362
347 363
347 371
347 375
347 385
347 386
347 387
347 389
347 404
347 417
348 278
348 290
348 297
348 302
348 306
348 309
348 315
348 317
348 331
348 332
348 334
348 346
348 351
348 353
348 370
348 373
348 380
348 381
348 388
348 393
348 403
348 407
348 434
349 298
349 299
349 300
349 323
349 325
349 330
349 339
349 347
349 355
349 362
349 364
349 371
349 378
349 383
349 386
349 406
349 413
349 429
349 430
349 433
350 285
350 291
350 301
350 311
350 316
350 322
350 327
350 333
350 336
350 347
350 354
350 361
350 363
350 368
350 371
350 375
350 382
350 385
350 387
350 389
350 399
350 404
350 410
350 421
350 425
350 426
351 279
351 284
351 297
351 302
351 309
351 312
351 317
351 331
351 332
351 334
351 348
351 353
351 360
351 361
351 370
351 373
351 380
351 388
351 393
351 403
351 415
351 416
352 296
352 303
352 308
352 310
352 320
352 328
352 329
352 341
352 345
352 358
352 369
352 376
352 377
352 394
352 402
352 405
352 409
352 418
353 277
353 290
353 292
353 302
353 306
353 315
353 317
353 319
353 332
353 334
353 340
353 346
353 348
353 351
353 365
353 370
353 373
353 380
353 381
353 388
353 396
353 397
353 403
353 407
353 419
354 285
354 291
354 301
354 311
354 316
354 327
354 333
354 336
354 350
354 360
354 361
354 363
354 368
354 375
354 382
354 385
354 387
354 398
354 399
354 404
354 410
354 421
354 424
354 425
355 276
355 298
355 300
355 304
355 323
355 325
355 330
355 339
355 349
355 362
355 364
355 378
355 383
355 386
355 401
355 406
355 413
355 422
355 430
356 282
356 288
356 294
356 295
356 314
356 315
356 318
356 319
356 321
356 338
356 340
356 343
356 344
356 346
356 365
356 366
356 367
356 374
356 381
356 391
356 396
356 397
356 400
356 411
356 420
356 423
356 432
356 435
357 286
357 293
357 305
357 307
357 308
357 324
357 326
357 335
357 337
357 341
357 342
357 345
357 359
357 369
357 376
357 379
357 384
357 390
357 392
357 394
357 408
357 412
357 427
358 296
358 303
358 310
358 320
358 328
358 329
358 341
358 352
358 369
358 377
358 405
358 409
358 418
358 436
359 286
359 287
359 305
359 307
359 313
359 324
359 326
359 335
359 337
359 342
359 343
359 357
359 367
359 372
359 376
359 379
359 384
359 390
359 392
359 394
359 395
359 408
359 412
359 414
359 431
359 441
360 281
360 284
360 309
360 312
360 316
360 331
360 334
360 336
360 351
360 354
360 361
360 368
360 370
360 373
360 382
360 388
360 393
360 398
360 399
360 415
360 416
360 424
360 438
361 281
361 291
361 309
361 311
361 312
361 316
361 331
361 333
361 336
361 350
361 351
361 354
361 360
361 368
361 373
361 375
361 382
361 385
361 393
361 398
361 399
361 410
361 415
361 416
361 424
361 425
361 438
362 299
362 300
362 322
362 323
362 325
362 339
362 347
362 349
362 355
362 364
362 371
362 383
362 386
362 389
362 406
362 417
362 429
362 430
362 433
362 440
363 285
363 301
363 311
363 322
363 327
363 333
363 336
363 339
363 347
363 350
363 354
363 368
363 371
363 375
363 385
363 387
363 389
363 399
363 404
363 410
363 417
363 421
363 426
364 298
364 300
364 304
364 323
364 325
364 330
364 339
364 349
364 355
364 362
364 371
364 378
364 383
364 386
364 401
364 406
364 413
364 422
364 430
364 433
365 282
365 292
365 295
365 314
365 315
365 319
365 321
365 340
365 344
365 346
365 353
365 356
365 366
365 374
365 380
365 381
365 391
365 396
365 397
365 400
365 407
365 419
365 420
365 423
365 435
366 294
366 314
366 318
366 319
366 321
366 338
366 340
366 342
366 343
366 344
366 356
366 365
366 367
366 372
366 374
366 379
366 391
366 395
366 396
366 400
366 411
366 414
366 423
366 432
367 313
367 314
367 318
367 321
367 324
367 338
367 342
367 343
367 344
367 356
367 359
367 366
367 372
367 374
367 379
367 391
367 392
367 395
367 400
367 408
367 411
367 414
367 423
367 431
367 432
367 442
368 301
368 311
368 312
368 316
368 327
368 331
368 333
368 336
368 350
368 354
368 360
368 361
368 363
368 375
368 382
368 385
368 387
368 393
368 398
368 399
368 404
368 410
368 416
368 421
368 424
368 425
368 438
369 308
369 310
369 320
369 328
369 329
369 335
369 341
369 345
369 352
369 357
369 358
369 376
369 377
369 390
369 394
369 402
369 405
369 409
369 418
369 428
369 443
369 445
370 297
370 302
370 306
370 309
370 317
370 331
370 332
370 334
370 348
370 351
370 353
370 360
370 373
370 380
370 381
370 388
370 393
370 403
370 407
370 415
370 419
370 434
370 437
370 449
371 299
371 322
371 323
371 327
371 339
371 347
371 349
371 350
371 362
371 363
371 364
371 375
371 386
371 387
371 389
371 404
371 406
371 417
371 421
371 426
371 429
371 433
371 439
371 440
372 313
372 318
372 324
372 326
372 338
372 342
372 343
372 344
372 359
372 366
372 367
372 379
372 384
372 391
372 392
372 395
372 408
372 411
372 414
372 431
372 432
372 442
373 297
373 302
373 309
373 312
373 317
373 331
373 332
373 334
373 348
373 351
373 353
373 360
373 361
373 370
373 380
373 388
373 393
373 398
373 403
373 407
373 415
373 416
373 434
373 437
373 444
374 314
374 315
374 319
374 321
374 338
374 340
374 344
374 346
374 356
374 365
374 366
374 367
374 381
374 391
374 396
374 397
374 400
374 411
374 420
374 423
374 432
374 435
375 301
375 311
375 322
375 327
375 333
375 336
375 347
375 350
375 354
375 361
375 363
375 368
375 371
375 382
375 385
375 387
375 389
375 398
375 399
375 404
375 410
375 421
375 425
375 426
375 451
375 452
376 307
376 308
376 310
376 326
376 335
376 337
376 341
376 345
376 352
376 357
376 359
376 369
376 384
376 390
376 394
376 402
376 405
376 408
376 412
376 418
376 427
376 428
376 441
376 443
376 456
377 303
377 310
377 320
377 328
377 329
377 341
377 345
377 352
377 358
377 369
377 402
377 405
377 409
377 418
377 428
377 436
377 445
378 304
378 325
378 330
378 349
378 355
378 364
378 383
378 386
378 401
378 406
378 413
378 422
378 430
378 447
378 457
378 458
379 305
379 313
379 318
379 324
379 326
379 337
379 338
379 342
379 343
379 357
379 359
379 366
379 367
379 372
379 384
379 390
379 391
379 392
379 395
379 408
379 411
379 412
379 414
379 431
379 441
379 442
379 459
380 306
380 315
380 317
380 332
380 334
380 346
380 348
380 351
380 353
380 365
380 370
380 373
380 381
380 388
380 396
380 397
380 403
380 407
380 419
380 420
380 434
380 449
380 450
380 454
381 306
381 315
381 319
381 332
381 340
381 346
381 348
381 353
381 356
381 365
381 370
381 374
381 380
381 396
381 397
381 400
381 403
381 407
381 419
381 420
381 435
381 450
381 453
381 454
382 311
382 312
382 316
382 331
382 333
382 336
382 350
382 354
382 360
382 361
382 368
382 375
382 385
382 387
382 393
382 398
382 399
382 404
382 410
382 415
382 416
382 424
382 425
382 438
382 444
382 451
382 465
383 323
383 325
383 330
383 339
383 349
383 355
383 362
383 364
383 378
383 386
383 401
383 406
383 413
383 422
383 429
383 430
383 433
383 446
383 447
383 448
383 457
384 305
384 307
384 324
384 326
384 335
384 337
384 342
384 343
384 357
384 359
384 372
384 376
384 379
384 390
384 392
384 394
384 395
384 408
384 412
384 414
384 427
384 431
384 441
384 459
384 468
385 311
385 327
385 333
385 336
385 347
385 350
385 354
385 361
385 363
385 368
385 375
385 382
385 387
385 389
385 398
385 399
385 404
385 410
385 421
385 424
385 425
385 426
385 451
385 452
386 323
386 325
386 330
386 339
386 347
386 349
386 355
386 362
386 364
386 371
386 378
386 383
386 389
386 401
386 406
386 413
386 417
386 429
386 430
386 433
386 440
386 446
386 448
386 457
386 467
387 322
387 327
387 333
387 347
387 350
387 354
387 363
387 368
387 371
387 375
387 382
387 385
387 389
387 399
387 404
387 410
387 417
387 421
387 425
387 426
387 439
387 451
387 452
387 455
388 331
388 332
388 334
388 348
388 351
388 353
388 360
388 370
388 373
388 380
388 393
388 398
388 403
388 407
388 415
388 416
388 419
388 434
388 437
388 444
388 449
388 454
388 470
388 471
389 322
389 327
389 339
389 347
389 350
389 362
389 363
389 371
389 375
389 385
389 386
389 387
389 404
389 410
389 417
389 421
389 426
389 429
389 433
389 439
389 440
389 452
389 455
390 326
390 335
390 337
390 341
390 345
390 357
390 359
390 369
390 376
390 379
390 384
390 392
390 394
390 402
390 408
390 412
390 418
390 427
390 428
390 431
390 441
390 443
390 456
390 468
390 469
391 338
391 340
391 342
391 343
391 344
391 356
391 365
391 366
391 367
391 372
391 374
391 379
391 392
391 395
391 396
391 400
391 411
391 414
391 423
391 431
391 432
391 435
391 442
391 460
391 463
391 464
392 324
392 326
392 337
392 338
392 342
392 343
392 357
392 359
392 367
392 372
392 379
392 384
392 390
392 391
392 395
392 408
392 411
392 412
392 414
392 431
392 441
392 442
392 459
392 460
392 463
392 477
393 331
393 334
393 348
393 351
393 360
393 361
393 368
393 370
393 373
393 382
393 388
393 398
393 399
393 403
393 415
393 416
393 424
393 434
393 437
393 438
393 444
393 471
394 335
394 337
394 341
394 345
394 352
394 357
394 359
394 369
394 376
394 384
394 390
394 402
394 405
394 408
394 412
394 418
394 427
394 428
394 441
394 443
394 445
394 456
394 469
395 338
395 342
395 343
395 344
395 359
395 366
395 367
395 372
395 379
395 384
395 391
395 392
395 400
395 408
395 411
395 414
395 423
395 431
395 432
395 441
395 442
395 459
395 460
395 463
396 340
396 344
396 346
396 353
396 356
396 365
396 366
396 374
396 380
396 381
396 391
396 397
396 400
396 407
396 411
396 419
396 420
396 423
396 432
396 435
396 450
396 453
396 462
396 464
396 473
396 480
397 340
397 346
397 353
397 356
397 365
397 374
397 380
397 381
397 396
397 400
397 403
397 407
397 419
397 420
397 423
397 435
397 450
397 453
397 454
397 462
397 473
398 331
398 336
398 354
398 360
398 361
398 368
398 373
398 375
398 382
398 385
398 388
398 393
398 399
398 404
398 410
398 415
398 416
398 424
398 425
398 437
398 438
398 444
398 451
398 465
398 474
399 333
399 336
399 350
399 354
399 360
399 361
399 363
399 368
399 375
399 382
399 385
399 387
399 393
399 398
399 404
399 410
399 415
399 416
399 421
399 424
399 425
399 426
399 438
399 444
399 451
399 452
399 465
399 474
400 338
400 340
400 344
400 356
400 365
400 366
400 367
400 374
400 381
400 391
400 395
400 396
400 397
400 411
400 420
400 423
400 432
400 435
400 442
400 453
400 460
400 462
400 464
400 480
400 484
401 330
401 355
401 364
401 378
401 383
401 386
401 406
401 413
401 422
401 430
401 433
401 447
401 448
401 457
401 458
401 481
401 482
402 341
402 345
402 352
402 369
402 376
402 377
402 390
402 394
402 405
402 409
402 412
402 418
402 427
402 428
402 436
402 443
402 445
402 456
402 461
402 469
402 476
402 478
403 332
403 348
403 351
403 353
403 370
403 373
403 380
403 381
403 388
403 393
403 397
403 407
403 415
403 419
403 434
403 437
403 449
403 450
403 454
403 470
403 471
404 333
404 347
404 350
404 354
404 363
404 368
404 371
404 375
404 382
404 385
404 387
404 389
404 398
404 399
404 410
404 417
404 421
404 424
404 425
404 426
404 439
404 451
404 452
404 455
404 479
405 329
405 341
405 345
405 352
405 358
405 369
405 376
405 377
405 394
405 402
405 409
405 418
405 428
405 436
405 443
405 445
405 461
405 466
405 469
405 476
405 478
406 339
406 349
406 355
406 362
406 364
406 371
406 378
406 383
406 386
406 401
406 413
406 417
406 422
406 429
406 430
406 433
406 439
406 440
406 446
406 447
406 448
406 457
406 467
406 472
407 332
407 346
407 348
407 353
407 365
407 370
407 373
407 380
407 381
407 388
407 396
407 397
407 403
407 419
407 420
407 434
407 449
407 450
407 453
407 454
407 470
407 473
407 485
408 337
408 342
408 357
408 359
408 367
408 372
408 376
408 379
408 384
408 390
408 392
408 394
408 395
408 411
408 412
408 414
408 427
408 431
408 441
408 442
408 459
408 463
408 468
408 477
408 483
408 493
409 352
409 358
409 369
409 377
409 402
409 405
409 418
409 436
409 443
409 445
409 461
409 466
409 478
409 491
410 333
410 336
410 350
410 354
410 361
410 363
410 368
410 375
410 382
410 385
410 387
410 389
410 398
410 399
410 404
410 416
410 421
410 424
410 425
410 426
410 438
410 451
410 452
410 455
410 465
410 479
410 492
410 494
411 338
411 343
411 344
411 356
411 366
411 367
411 372
411 374
411 379
411 391
411 392
411 395
411 396
411 400
411 408
411 414
411 423
411 431
411 432
411 435
411 442
411 459
411 460
411 462
411 463
411 464
411 487
411 488
412 337
412 357
412 359
412 376
412 379
412 384
412 390
412 392
412 394
412 402
412 408
412 414
412 427
412 428
412 431
412 441
412 443
412 456
412 459
412 468
412 469
412 477
412 483
412 486
412 493
413 349
413 355
413 364
413 378
413 383
413 386
413 401
413 406
413 422
413 429
413 430
413 433
413 446
413 447
413 448
413 457
413 458
413 467
413 481
413 482
414 342
414 343
414 359
414 366
414 367
414 372
414 379
414 384
414 391
414 392
414 395
414 408
414 411
414 412
414 431
414 432
414 441
414 442
414 459
414 460
414 463
414 468
414 477
414 487
414 493
414 502
415 351
415 360
415 361
415 370
415 373
415 382
415 388
415 393
415 398
415 399
415 403
415 416
415 424
415 434
415 437
415 438
415 444
415 449
415 465
415 470
415 471
415 474
415 496
415 498
415 504
416 351
416 360
416 361
416 368
416 373
416 382
416 388
416 393
416 398
416 399
416 410
416 415
416 424
416 425
416 434
416 437
416 438
416 444
416 465
416 471
416 474
416 496
416 499
417 339
417 347
417 362
417 363
417 371
417 386
417 387
417 389
417 404
417 406
417 421
417 426
417 429
417 430
417 433
417 439
417 440
417 446
417 448
417 452
417 455
417 467
417 472
417 475
417 490
417 501
418 341
418 352
418 358
418 369
418 376
418 377
418 390
418 394
418 402
418 405
418 409
418 427
418 428
418 436
418 443
418 445
418 456
418 461
418 466
418 469
418 476
418 478
418 491
419 346
419 353
419 365
419 370
419 380
419 381
419 388
419 396
419 397
419 403
419 407
419 420
419 434
419 435
419 449
419 450
419 453
419 454
419 470
419 473
419 480
419 485
419 495
420 346
420 356
420 365
420 374
420 380
420 381
420 396
420 397
420 400
420 407
420 419
420 423
420 432
420 435
420 450
420 453
420 454
420 462
420 464
420 473
420 480
420 484
420 485
420 503
421 350
421 354
421 363
421 368
421 371
421 375
421 385
421 387
421 389
421 399
421 404
421 410
421 417
421 424
421 425
421 426
421 439
421 440
421 451
421 452
421 455
421 475
421 479
421 489
421 490
421 494
422 355
422 364
422 378
422 383
422 401
422 406
422 413
422 430
422 433
422 447
422 448
422 457
422 458
422 467
422 481
422 482
422 506
423 356
423 365
423 366
423 367
423 374
423 391
423 395
423 396
423 397
423 400
423 411
423 420
423 432
423 435
423 442
423 453
423 460
423 462
423 464
423 473
423 480
423 484
423 488
423 507
424 354
424 360
424 361
424 368
424 382
424 385
424 393
424 398
424 399
424 404
424 410
424 415
424 416
424 421
424 425
424 437
424 438
424 444
424 451
424 452
424 465
424 474
424 479
424 492
424 494
424 496
424 499
425 350
425 354
425 361
425 368
425 375
425 382
425 385
425 387
425 398
425 399
425 404
425 410
425 416
425 421
425 424
425 426
425 438
425 444
425 451
425 452
425 465
425 474
425 479
425 492
425 494
425 499
426 350
426 363
426 371
426 375
426 385
426 387
426 389
426 399
426 404
426 410
426 417
426 421
426 425
426 429
426 439
426 440
426 451
426 452
426 455
426 475
426 479
426 489
426 490
426 494
427 357
427 376
427 384
427 390
427 394
427 402
427 408
427 412
427 418
427 428
427 431
427 441
427 443
427 456
427 459
427 468
427 469
427 483
427 486
427 493
427 500
428 369
428 376
428 377
428 390
428 394
428 402
428 405
428 412
428 418
428 427
428 441
428 443
428 445
428 456
428 461
428 468
428 469
428 476
428 478
428 483
428 486
428 508
429 349
429 362
429 371
429 383
429 386
429 389
429 406
429 413
429 417
429 426
429 430
429 433
429 439
429 440
429 446
429 448
429 455
429 457
429 467
429 472
429 475
429 490
429 497
429 501
429 510
430 349
430 355
430 362
430 364
430 378
430 383
430 386
430 401
430 406
430 413
430 417
430 422
430 429
430 433
430 440
430 446
430 447
430 448
430 457
430 458
430 467
430 472
430 481
430 482
430 497
430 505
431 359
431 367
431 372
431 379
431 384
431 390
431 391
431 392
431 395
431 408
431 411
431 412
431 414
431 427
431 441
431 442
431 459
431 460
431 463
431 468
431 477
431 483
431 487
431 493
431 500
431 502
431 513
432 356
432 366
432 367
432 372
432 374
432 391
432 395
432 396
432 400
432 411
432 414
432 420
432 423
432 435
432 442
432 453
432 460
432 462
432 463
432 464
432 480
432 484
432 487
432 488
432 509
433 349
433 362
433 364
433 371
433 383
433 386
433 389
433 401
433 406
433 413
433 417
433 422
433 429
433 430
433 439
433 440
433 446
433 447
433 448
433 457
433 467
433 472
433 475
433 482
433 497
433 501
433 505
434 348
434 370
434 373
434 380
434 388
434 393
434 403
434 407
434 415
434 416
434 419
434 437
434 444
434 449
434 450
434 454
434 470
434 471
434 485
434 495
434 498
435 356
435 365
435 374
435 381
435 391
435 396
435 397
435 400
435 411
435 419
435 420
435 423
435 432
435 450
435 453
435 462
435 464
435 473
435 480
435 484
435 488
435 503
435 507
436 358
436 377
436 402
436 405
436 409
436 418
436 443
436 445
436 461
436 466
436 476
436 478
436 491
436 522
437 370
437 373
437 388
437 393
437 398
437 403
437 415
437 416
437 424
437 434
437 438
437 444
437 449
437 454
437 465
437 470
437 471
437 474
437 495
437 496
437 498
437 504
437 514
438 360
438 361
438 368
438 382
438 393
438 398
438 399
438 410
438 415
438 416
438 424
438 425
438 437
438 444
438 451
438 452
438 465
438 471
438 474
438 479
438 492
438 494
438 496
438 499
438 504
438 518
439 371
439 387
439 389
439 404
439 406
439 417
439 421
439 426
439 429
439 433
439 440
439 446
439 451
439 452
439 455
439 467
439 472
439 475
439 479
439 489
439 490
439 497
439 501
439 510
439 512
440 362
440 371
440 386
440 389
440 406
440 417
440 421
440 426
440 429
440 430
440 433
440 439
440 446
440 448
440 455
440 467
440 472
440 475
440 489
440 490
440 497
440 501
440 510
440 512
440 519
441 359
441 376
441 379
441 384
441 390
441 392
441 394
441 395
441 408
441 412
441 414
441 427
441 428
441 431
441 442
441 456
441 459
441 463
441 468
441 469
441 477
441 483
441 486
441 493
441 500
441 502
441 513
441 517
442 367
442 372
442 379
442 391
442 392
442 395
442 400
442 408
442 411
442 414
442 423
442 431
442 432
442 441
442 459
442 460
442 463
442 464
442 468
442 477
442 487
442 488
442 493
442 502
442 509
442 513
442 521
443 369
443 376
443 390
443 394
443 402
443 405
443 409
443 412
443 418
443 427
443 428
443 436
443 445
443 456
443 461
443 466
443 469
443 476
443 478
443 486
443 491
443 508
443 520
444 373
444 382
444 388
444 393
444 398
444 399
444 415
444 416
444 424
444 425
444 434
444 437
444 438
444 449
444 465
444 470
444 471
444 474
444 492
444 496
444 498
444 499
444 504
444 514
444 518
444 526
445 369
445 377
445 394
445 402
445 405
445 409
445 418
445 428
445 436
445 443
445 456
445 461
445 466
445 469
445 476
445 478
445 491
445 508
445 520
446 383
446 386
446 406
446 413
446 417
446 429
446 430
446 433
446 439
446 440
446 447
446 448
446 455
446 457
446 467
446 472
446 475
446 482
446 490
446 497
446 501
446 505
446 510
446 519
446 524
446 527
447 378
447 383
447 401
447 406
447 413
447 422
447 430
447 433
447 446
447 448
447 457
447 458
447 467
447 481
447 482
447 497
447 505
447 506
447 516
447 524
448 383
448 386
448 401
448 406
448 413
448 417
448 422
448 429
448 430
448 433
448 440
448 446
448 447
448 457
448 458
448 467
448 472
448 475
448 481
448 482
448 497
448 501
448 505
448 516
448 519
448 524
448 527
449 370
449 380
449 388
449 403
449 407
449 415
449 419
449 434
449 437
449 444
449 450
449 453
449 454
449 470
449 471
449 473
449 485
449 495
449 498
449 504
449 511
449 514
449 523
449 528
450 380
450 381
450 396
450 397
450 403
450 407
450 419
450 420
450 434
450 435
450 449
450 453
450 454
450 462
450 470
450 473
450 480
450 485
450 495
450 503
450 507
450 511
450 523
451 375
451 382
451 385
451 387
451 398
451 399
451 404
451 410
451 421
451 424
451 425
451 426
451 438
451 439
451 452
451 455
451 465
451 474
451 479
451 489
451 490
451 492
451 494
451 499
451 515
451 529
452 375
452 385
452 387
452 389
452 399
452 404
452 410
452 417
452 421
452 424
452 425
452 426
452 438
452 439
452 451
452 455
452 465
452 475
452 479
452 489
452 490
452 492
452 494
452 499
452 512
452 515
452 530
452 531
453 381
453 396
453 397
453 400
453 407
453 419
453 420
453 423
453 432
453 435
453 449
453 450
453 454
453 462
453 464
453 473
453 480
453 484
453 485
453 503
453 507
453 511
453 533
454 380
454 381
454 388
454 397
454 403
454 407
454 419
454 420
454 434
454 437
454 449
454 450
454 453
454 470
454 471
454 473
454 480
454 485
454 495
454 498
454 503
454 511
454 523
454 528
455 387
455 389
455 404
455 410
455 417
455 421
455 426
455 429
455 439
455 440
455 446
455 451
455 452
455 472
455 475
455 479
455 489
455 490
455 494
455 501
455 510
455 512
455 530
455 531
456 376
456 390
456 394
456 402
456 412
456 418
456 427
456 428
456 441
456 443
456 445
456 459
456 468
456 469
456 476
456 478
456 483
456 486
456 493
456 500
456 508
456 517
456 537
457 378
457 383
457 386
457 401
457 406
457 413
457 422
457 429
457 430
457 433
457 446
457 447
457 448
457 458
457 467
457 472
457 481
457 482
457 497
457 505
457 506
457 516
457 524
457 527
458 378
458 401
458 413
458 422
458 430
458 447
458 448
458 457
458 467
458 481
458 482
458 505
458 506
458 516
458 536
459 379
459 384
459 392
459 395
459 408
459 411
459 412
459 414
459 427
459 431
459 441
459 442
459 456
459 460
459 463
459 468
459 477
459 483
459 486
459 487
459 488
459 493
459 500
459 502
459 513
459 517
459 521
459 534
459 535
460 391
460 392
460 395
460 400
460 411
460 414
460 423
460 431
460 432
460 442
460 459
460 462
460 463
460 464
460 477
460 484
460 487
460 488
460 493
460 502
460 509
460 513
460 521
460 525
460 534
460 538
461 402
461 405
461 409
461 418
461 428
461 436
461 443
461 445
461 466
461 469
461 476
461 478
461 491
461 508
461 520
461 522
461 542
462 396
462 397
462 400
462 411
462 420
462 423
462 432
462 435
462 450
462 453
462 460
462 464
462 473
462 480
462 484
462 485
462 488
462 503
462 507
462 509
462 511
462 525
462 533
462 543
463 391
463 392
463 395
463 408
463 411
463 414
463 431
463 432
463 441
463 442
463 459
463 460
463 464
463 468
463 477
463 483
463 487
463 488
463 493
463 500
463 502
463 509
463 513
463 521
463 534
463 538
464 391
464 396
464 400
464 411
464 420
464 423
464 432
464 435
464 442
464 453
464 460
464 462
464 463
464 473
464 480
464 484
464 487
464 488
464 503
464 507
464 509
464 525
464 543
465 382
465 398
465 399
465 410
465 415
465 416
465 424
465 425
465 437
465 438
465 444
465 451
465 452
465 474
465 479
465 492
465 494
465 496
465 499
465 504
465 515
465 518
465 526
465 529
465 545
466 405
466 409
466 418
466 436
466 443
466 445
466 461
466 476
466 478
466 491
466 520
466 522
466 542
467 386
467 406
467 413
467 417
467 422
467 429
467 430
467 433
467 439
467 440
467 446
467 447
467 448
467 457
467 458
467 472
467 475
467 481
467 482
467 497
467 501
467 505
467 510
467 516
467 519
467 524
467 527
467 546
468 384
468 390
468 408
468 412
468 414
468 427
468 428
468 431
468 441
468 442
468 456
468 459
468 463
468 469
468 477
468 483
468 486
468 493
468 500
468 502
468 513
468 517
468 535
468 547
469 390
469 394
469 402
469 405
469 412
469 418
469 427
469 428
469 441
469 443
469 445
469 456
469 461
469 468
469 476
469 478
469 483
469 486
469 491
469 500
469 508
469 517
469 520
469 532
469 537
469 549
470 388
470 403
470 407
470 415
470 419
470 434
470 437
470 444
470 449
470 450
470 454
470 471
470 473
470 485
470 495
470 498
470 504
470 511
470 514
470 523
470 526
470 528
470 539
470 550
471 388
471 393
471 403
471 415
471 416
471 434
471 437
471 438
471 444
471 449
471 454
471 470
471 474
471 485
471 495
471 496
471 498
471 504
471 514
471 523
471 526
471 528
471 539
471 548
471 550
472 406
472 417
472 429
472 430
472 433
472 439
472 440
472 446
472 448
472 455
472 457
472 467
472 475
472 482
472 489
472 490
472 497
472 501
472 505
472 510
472 512
472 519
472 524
472 527
472 540
472 551
473 396
473 397
473 407
473 419
473 420
473 423
473 435
473 449
473 450
473 453
473 454
473 462
473 464
473 470
473 480
473 484
473 485
473 495
473 503
473 507
473 511
473 523
473 533
473 544
473 554
474 398
474 399
474 415
474 416
474 424
474 425
474 437
474 438
474 444
474 451
474 465
474 471
474 479
474 492
474 494
474 496
474 499
474 504
474 514
474 515
474 518
474 526
474 529
474 545
474 555
475 417
475 421
475 426
475 429
475 433
475 439
475 440
475 446
475 448
475 452
475 455
475 467
475 472
475 489
475 490
475 497
475 501
475 505
475 510
475 512
475 519
475 527
475 530
475 540
475 551
476 402
476 405
476 418
476 428
476 436
476 443
476 445
476 456
476 461
476 466
476 469
476 478
476 486
476 491
476 508
476 520
476 522
476 532
476 537
476 542
476 549
476 557
477 392
477 408
477 412
477 414
477 431
477 441
477 442
477 459
477 460
477 463
477 468
477 483
477 486
477 487
477 488
477 493
477 500
477 502
477 509
477 513
477 517
477 521
477 534
477 535
477 538
477 547
478 402
478 405
478 409
478 418
478 428
478 436
478 443
478 445
478 456
478 461
478 466
478 469
478 476
478 486
478 491
478 508
478 520
478 522
478 532
478 542
478 552
478 557
479 404
479 410
479 421
479 424
479 425
479 426
479 438
479 439
479 451
479 452
479 455
479 465
479 474
479 489
479 490
479 492
479 494
479 499
479 512
479 515
479 518
479 529
479 530
479 531
479 545
479 553
479 556
479 559
480 396
480 400
480 419
480 420
480 423
480 432
480 435
480 450
480 453
480 454
480 462
480 464
480 473
480 484
480 485
480 488
480 503
480 507
480 509
480 511
480 525
480 533
480 543
480 554
480 565
481 401
481 413
481 422
481 430
481 447
481 448
481 457
481 458
481 467
481 482
481 497
481 505
481 506
481 516
481 524
481 527
481 536
481 541
481 546
482 401
482 413
482 422
482 430
482 433
482 446
482 447
482 448
482 457
482 458
482 467
482 472
482 481
482 497
482 505
482 506
482 516
482 519
482 524
482 527
482 536
482 541
482 546
483 408
483 412
483 427
483 428
483 431
483 441
483 456
483 459
483 463
483 468
483 469
483 477
483 486
483 493
483 500
483 502
483 508
483 513
483 517
483 535
483 537
483 547
483 564
484 400
484 420
484 423
484 432
484 435
484 453
484 460
484 462
484 464
484 473
484 480
484 487
484 488
484 503
484 507
484 509
484 525
484 533
484 538
484 543
484 563
484 565
485 407
485 419
485 420
485 434
485 449
485 450
485 453
485 454
485 462
485 470
485 471
485 473
485 480
485 495
485 498
485 503
485 507
485 511
485 523
485 528
485 533
485 544
485 550
485 554
485 560
486 412
486 427
486 428
486 441
486 443
486 456
486 459
486 468
486 469
486 476
486 477
486 478
486 483
486 493
486 500
486 508
486 513
486 517
486 520
486 532
486 535
486 537
486 547
486 549
486 564
487 411
487 414
487 431
487 432
487 442
487 459
487 460
487 463
487 464
487 477
487 484
487 488
487 493
487 500
487 502
487 509
487 513
487 521
487 525
487 534
487 535
487 538
487 558
487 561
487 568
488 411
488 423
488 432
488 435
488 442
488 459
488 460
488 462
488 463
488 464
488 477
488 480
488 484
488 487
488 502
488 507
488 509
488 513
488 521
488 525
488 534
488 538
488 543
488 558
488 561
488 563
489 421
489 426
489 439
489 440
489 451
489 452
489 455
489 472
489 475
489 479
489 490
489 492
489 494
489 501
489 510
489 512
489 515
489 529
489 530
489 531
489 540
489 553
489 556
489 559
489 566
490 417
490 421
490 426
490 429
490 439
490 440
490 446
490 451
490 452
490 455
490 472
490 475
490 479
490 489
490 494
490 497
490 501
490 510
490 512
490 515
490 519
490 530
490 531
490 540
490 551
490 553
490 556
490 566
491 409
491 418
491 436
491 443
491 445
491 461
491 466
491 469
491 476
491 478
491 508
491 520
491 522
491 532
491 542
491 552
491 557
491 570
491 572
492 410
492 424
492 425
492 438
492 444
492 451
492 452
492 465
492 474
492 479
492 489
492 494
492 496
492 499
492 515
492 518
492 526
492 529
492 531
492 545
492 555
492 556
492 559
492 569
493 408
493 412
493 414
493 427
493 431
493 441
493 442
493 456
493 459
493 460
493 463
493 468
493 477
493 483
493 486
493 487
493 500
493 502
493 513
493 517
493 521
493 534
493 535
493 537
493 547
493 564
493 567
493 568
494 410
494 421
494 424
494 425
494 426
494 438
494 451
494 452
494 455
494 465
494 474
494 479
494 489
494 490
494 492
494 496
494 499
494 512
494 515
494 518
494 529
494 530
494 531
494 545
494 553
494 556
494 559
494 569
495 419
495 434
495 437
495 449
495 450
495 454
495 470
495 471
495 473
495 485
495 498
495 504
495 511
495 514
495 523
495 526
495 528
495 539
495 544
495 550
495 560
496 415
496 416
496 424
496 437
496 438
496 444
496 465
496 471
496 474
496 492
496 494
496 498
496 499
496 504
496 514
496 515
496 518
496 526
496 529
496 539
496 545
496 548
496 555
497 429
497 430
497 433
497 439
497 440
497 446
497 447
497 448
497 457
497 467
497 472
497 475
497 481
497 482
497 490
497 501
497 505
497 510
497 512
497 516
497 519
497 524
497 527
497 540
497 541
497 546
497 551
497 562
497 571
498 415
498 434
498 437
498 444
498 449
498 454
498 470
498 471
498 485
498 495
498 496
498 504
498 511
498 514
498 523
498 526
498 528
498 539
498 548
498 550
498 560
498 574
499 416
499 424
499 425
499 438
499 444
499 451
499 452
499 465
499 474
499 479
499 492
499 494
499 496
499 504
499 514
499 515
499 518
499 526
499 529
499 545
499 548
499 555
499 559
499 569
500 427
500 431
500 441
500 456
500 459
500 463
500 468
500 469
500 477
500 483
500 486
500 487
500 493
500 502
500 508
500 513
500 517
500 521
500 534
500 535
500 537
500 547
500 564
500 567
500 568
500 585
501 417
501 429
501 433
501 439
501 440
501 446
501 448
501 455
501 467
501 472
501 475
501 489
501 490
501 497
501 505
501 510
501 512
501 519
501 524
501 527
501 530
501 540
501 546
501 551
501 562
501 566
501 579
501 582
502 414
502 431
502 441
502 442
502 459
502 460
502 463
502 468
502 477
502 483
502 487
502 488
502 493
502 500
502 509
502 513
502 517
502 521
502 534
502 535
502 538
502 547
502 558
502 561
502 567
502 568
502 586
503 420
503 435
503 450
503 453
503 454
503 462
503 464
503 473
503 480
503 484
503 485
503 507
503 511
503 523
503 525
503 533
503 543
503 544
503 554
503 563
503 565
503 576
503 589
504 415
504 437
504 438
504 444
504 449
504 465
504 470
504 471
504 474
504 495
504 496
504 498
504 499
504 514
504 518
504 523
504 526
504 528
504 539
504 548
504 550
504 555
504 574
504 577
504 581
505 430
505 433
505 446
505 447
505 448
505 457
505 458
505 467
505 472
505 475
505 481
505 482
505 497
505 501
505 506
505 510
505 516
505 519
505 524
505 527
505 536
505 541
505 546
505 551
505 562
505 571
505 573
505 578
506 422
506 447
506 457
506 458
506 481
506 482
506 505
506 516
506 524
506 527
506 536
506 541
506 546
506 573
506 578
507 423
507 435
507 450
507 453
507 462
507 464
507 473
507 480
507 484
507 485
507 488
507 503
507 509
507 511
507 525
507 533
507 543
507 544
507 554
507 561
507 563
507 565
507 580
507 589
508 428
508 443
508 445
508 456
508 461
508 469
508 476
508 478
508 483
508 486
508 491
508 500
508 517
508 520
508 522
508 532
508 537
508 542
508 549
508 557
508 564
508 572
508 583
508 590
509 432
509 442
509 460
509 462
509 463
509 464
509 477
509 480
509 484
509 487
509 488
509 502
509 507
509 513
509 521
509 525
509 534
509 538
509 543
509 558
509 561
509 563
509 565
509 568
509 580
510 429
510 439
510 440
510 446
510 455
510 467
510 472
510 475
510 489
510 490
510 497
510 501
510 505
510 512
510 519
510 527
510 530
510 531
510 540
510 551
510 553
510 562
510 566
510 579
510 582
511 449
511 450
511 453
511 454
511 462
511 470
511 473
511 480
511 485
511 495
511 498
511 503
511 507
511 523
511 528
511 533
511 544
511 550
511 554
511 560
511 565
511 575
511 576
511 589
512 439
512 440
512 452
512 455
512 472
512 475
512 479
512 489
512 490
512 494
512 497
512 501
512 510
512 515
512 519
512 530
512 531
512 540
512 551
512 553
512 556
512 559
512 566
512 582
513 431
513 441
513 442
513 459
513 460
513 463
513 468
513 477
513 483
513 486
513 487
513 488
513 493
513 500
513 502
513 509
513 517
513 521
513 534
513 535
513 538
513 547
513 558
513 561
513 564
513 567
513 568
513 585
513 586
514 437
514 444
514 449
514 470
514 471
514 474
514 495
514 496
514 498
514 499
514 504
514 518
514 523
514 526
514 528
514 539
514 548
514 550
514 555
514 560
514 574
514 577
514 581
514 584
515 451
515 452
515 465
515 474
515 479
515 489
515 490
515 492
515 494
515 496
515 499
515 512
515 518
515 529
515 530
515 531
515 545
515 553
515 555
515 556
515 559
515 566
515 569
515 587
515 588
516 447
516 448
516 457
516 458
516 467
516 481
516 482
516 497
516 505
516 506
516 519
516 524
516 527
516 536
516 541
516 546
516 562
516 571
516 573
516 578
517 441
517 456
517 459
517 468
517 469
517 477
517 483
517 486
517 493
517 500
517 502
517 508
517 513
517 532
517 535
517 537
517 547
517 549
517 564
517 567
517 585
517 590
518 438
518 444
518 465
518 474
518 479
518 492
518 494
518 496
518 499
518 504
518 514
518 515
518 526
518 529
518 539
518 545
518 548
518 555
518 559
518 569
518 577
518 581
518 588
519 440
519 446
519 448
519 467
519 472
519 475
519 482
519 490
519 497
519 501
519 505
519 510
519 512
519 516
519 524
519 527
519 530
519 540
519 546
519 551
519 562
519 566
519 571
519 579
519 582
520 443
520 445
520 461
520 466
520 469
520 476
520 478
520 486
520 491
520 508
520 522
520 532
520 537
520 542
520 549
520 552
520 557
520 570
520 572
520 583
521 442
521 459
521 460
521 463
521 477
521 487
521 488
521 493
521 500
521 502
521 509
521 513
521 525
521 534
521 535
521 538
521 547
521 558
521 561
521 563
521 567
521 568
521 580
521 586
522 436
522 461
522 466
522 476
522 478
522 491
522 508
522 520
522 532
522 542
522 552
522 557
522 570
522 572
522 583
523 449
523 450
523 454
523 470
523 471
523 473
523 485
523 495
523 498
523 503
523 504
523 511
523 514
523 528
523 533
523 539
523 544
523 550
523 554
523 560
523 574
523 575
523 576
523 584
524 446
524 447
524 448
524 457
524 467
524 472
524 481
524 482
524 497
524 501
524 505
524 506
524 516
524 519
524 527
524 536
524 541
524 546
524 551
524 562
524 571
524 573
524 578
524 579
525 460
525 462
525 464
525 480
525 484
525 487
525 488
525 503
525 507
525 509
525 521
525 533
525 534
525 538
525 543
525 554
525 558
525 561
525 563
525 565
525 580
526 444
526 465
526 470
526 471
526 474
526 492
526 495
526 496
526 498
526 499
526 504
526 514
526 518
526 528
526 529
526 539
526 545
526 548
526 550
526 555
526 574
526 577
526 581
526 588
527 446
527 448
527 457
527 467
527 472
527 475
527 481
527 482
527 497
527 501
527 505
527 506
527 510
527 516
527 519
527 524
527 536
527 540
527 541
527 546
527 551
527 562
527 571
527 573
527 578
527 579
527 582
528 449
528 454
528 470
528 471
528 485
528 495
528 498
528 504
528 511
528 514
528 523
528 526
528 539
528 544
528 548
528 550
528 560
528 574
528 575
528 577
528 584
529 451
529 465
529 474
529 479
529 489
529 492
529 494
529 496
529 499
529 515
529 518
529 526
529 530
529 531
529 545
529 553
529 555
529 556
529 559
529 569
529 581
529 587
529 588
530 452
530 455
530 475
530 479
530 489
530 490
530 494
530 501
530 510
530 512
530 515
530 519
530 529
530 531
530 540
530 551
530 553
530 556
530 559
530 566
530 569
530 579
530 582
530 587
531 452
531 455
531 479
531 489
531 490
531 492
531 494
531 510
531 512
531 515
531 529
531 530
531 540
531 545
531 551
531 553
531 556
531 559
531 566
531 569
531 582
531 587
532 469
532 476
532 478
532 486
532 491
532 508
532 517
532 520
532 522
532 537
532 542
532 549
532 552
532 557
532 564
532 570
532 572
532 583
532 590
533 453
533 462
533 473
533 480
533 484
533 485
533 503
533 507
533 511
533 523
533 525
533 543
533 544
533 554
533 560
533 563
533 565
533 575
533 576
533 580
533 589
534 459
534 460
534 463
534 477
534 487
534 488
534 493
534 500
534 502
534 509
534 513
534 521
534 525
534 535
534 538
534 547
534 558
534 561
534 567
534 568
534 580
534 585
534 586
535 459
535 468
535 477
535 483
535 486
535 487
535 493
535 500
535 502
535 513
535 517
535 521
535 534
535 537
535 538
535 547
535 558
535 564
535 567
535 568
535 585
535 586
536 458
536 481
536 482
536 505
536 506
536 516
536 524
536 527
536 541
536 546
536 571
536 573
536 578
537 456
537 469
537 476
537 483
537 486
537 493
537 500
537 508
537 517
537 520
537 532
537 535
537 547
537 549
537 557
537 564
537 567
537 572
537 583
537 585
537 590
538 460
538 463
538 477
538 484
538 487
538 488
538 502
538 509
538 513
538 521
538 525
538 534
538 535
538 543
538 558
538 561
538 563
538 567
538 568
538 580
538 586
539 470
539 471
539 495
539 496
539 498
539 504
539 514
539 518
539 523
539 526
539 528
539 544
539 548
539 550
539 555
539 560
539 574
539 575
539 577
539 581
539 584
540 472
540 475
540 489
540 490
540 497
540 501
540 510
540 512
540 519
540 527
540 530
540 531
540 551
540 553
540 556
540 559
540 562
540 566
540 579
540 582
540 587
541 481
541 482
541 497
541 505
541 506
541 516
541 524
541 527
541 536
541 546
541 562
541 571
541 573
541 578
542 461
542 466
542 476
542 478
542 491
542 508
542 520
542 522
542 532
542 549
542 552
542 557
542 570
542 572
542 583
543 462
543 464
543 480
543 484
543 488
543 503
543 507
543 509
543 525
543 533
543 538
543 554
543 558
543 561
543 563
543 565
543 576
543 580
543 589
544 473
544 485
544 495
544 503
544 507
544 511
544 523
544 528
544 533
544 539
544 550
544 554
544 560
544 565
544 574
544 575
544 576
544 584
544 589
545 465
545 474
545 479
545 492
545 494
545 496
545 499
545 515
545 518
545 526
545 529
545 531
545 548
545 553
545 555
545 556
545 559
545 569
545 577
545 581
545 587
545 588
546 467
546 481
546 482
546 497
546 501
546 505
546 506
546 516
546 519
546 524
546 527
546 536
546 541
546 551
546 562
546 571
546 573
546 578
546 579
547 468
547 477
547 483
547 486
547 493
547 500
547 502
547 513
547 517
547 521
547 534
547 535
547 537
547 549
547 558
547 564
547 567
547 568
547 585
547 586
547 590
548 471
548 496
548 498
548 499
548 504
548 514
548 518
548 526
548 528
548 539
548 545
548 550
548 555
548 574
548 577
548 581
548 584
548 588
549 469
549 476
549 486
549 508
549 517
549 520
549 532
549 537
549 542
549 547
549 557
549 564
549 570
549 572
549 583
549 585
549 590
550 470
550 471
550 485
550 495
550 498
550 504
550 511
550 514
550 523
550 526
550 528
550 539
550 544
550 548
550 560
550 574
550 575
550 576
550 577
550 581
550 584
551 472
551 475
551 490
551 497
551 501
551 505
551 510
551 512
551 519
551 524
551 527
551 530
551 531
551 540
551 546
551 553
551 556
551 562
551 566
551 571
551 579
551 582
552 478
552 491
552 520
552 522
552 532
552 542
552 557
552 570
552 572
552 583
553 479
553 489
553 490
553 494
553 510
553 512
553 515
553 529
553 530
553 531
553 540
553 545
553 551
553 556
553 559
553 566
553 569
553 579
553 582
553 587
554 473
554 480
554 485
554 503
554 507
554 511
554 523
554 525
554 533
554 543
554 544
554 560
554 563
554 565
554 575
554 576
554 584
554 589
555 474
555 492
555 496
555 499
555 504
555 514
555 515
555 518
555 526
555 529
555 539
555 545
555 548
555 559
555 569
555 574
555 577
555 581
555 588
556 479
556 489
556 490
556 492
556 494
556 512
556 515
556 529
556 530
556 531
556 540
556 545
556 551
556 553
556 559
556 566
556 569
556 582
556 587
556 588
557 476
557 478
557 491
557 508
557 520
557 522
557 532
557 537
557 542
557 549
557 552
557 564
557 570
557 572
557 583
557 590
558 487
558 488
558 502
558 509
558 513
558 521
558 525
558 534
558 535
558 538
558 543
558 547
558 561
558 563
558 567
558 568
558 580
558 586
559 479
559 489
559 492
559 494
559 499
559 512
559 515
559 518
559 529
559 530
559 531
559 540
559 545
559 553
559 555
559 556
559 566
559 569
559 581
559 587
559 588
560 485
560 495
560 498
560 511
560 514
560 523
560 528
560 533
560 539
560 544
560 550
560 554
560 574
560 575
560 576
560 577
560 584
560 589
561 487
561 488
561 502
561 507
561 509
561 513
561 521
561 525
561 534
561 538
561 543
561 558
561 563
561 565
561 568
561 580
561 586
562 497
562 501
562 505
562 510
562 516
562 519
562 524
562 527
562 540
562 541
562 546
562 551
562 566
562 571
562 573
562 578
562 579
562 582
563 484
563 488
563 503
563 507
563 509
563 521
563 525
563 533
563 538
563 543
563 554
563 558
563 561
563 565
563 568
563 580
563 589
564 483
564 486
564 493
564 500
564 508
564 513
564 517
564 532
564 535
564 537
564 547
564 549
564 557
564 567
564 583
564 585
564 586
564 590
565 480
565 484
565 503
565 507
565 509
565 511
565 525
565 533
565 543
565 544
565 554
565 561
565 563
565 575
565 576
565 580
565 589
566 489
566 490
566 501
566 510
566 512
566 515
566 519
566 530
566 531
566 540
566 551
566 553
566 556
566 559
566 562
566 569
566 579
566 582
566 587
567 493
567 500
567 502
567 513
567 517
567 521
567 534
567 535
567 537
567 538
567 547
567 558
567 564
567 568
567 585
567 586
567 590
568 487
568 493
568 500
568 502
568 509
568 513
568 521
568 534
568 535
568 538
568 547
568 558
568 561
568 563
568 567
568 580
568 585
568 586
569 492
569 494
569 499
569 515
569 518
569 529
569 530
569 531
569 545
569 553
569 555
569 556
569 559
569 566
569 581
569 587
569 588
570 491
570 520
570 522
570 532
570 542
570 549
570 552
570 557
570 572
570 583
571 497
571 505
571 516
571 519
571 524
571 527
571 536
571 541
571 546
571 551
571 562
571 573
571 578
571 579
571 582
572 491
572 508
572 520
572 522
572 532
572 537
572 542
572 549
572 552
572 557
572 570
572 583
572 590
573 505
573 506
573 516
573 524
573 527
573 536
573 541
573 546
573 562
573 571
573 578
574 498
574 504
574 514
574 523
574 526
574 528
574 539
574 544
574 548
574 550
574 555
574 560
574 575
574 577
574 581
574 584
574 588
575 511
575 523
575 528
575 533
575 539
575 544
575 550
575 554
575 560
575 565
575 574
575 576
575 584
575 589
576 503
576 511
576 523
576 533
576 543
576 544
576 550
576 554
576 560
576 565
576 575
576 584
576 589
577 504
577 514
577 518
577 526
577 528
577 539
577 545
577 548
577 550
577 555
577 560
577 574
577 581
577 584
577 588
578 505
578 506
578 516
578 524
578 527
578 536
578 541
578 546
578 562
578 571
578 573
578 579
579 501
579 510
579 519
579 524
579 527
579 530
579 540
579 546
579 551
579 553
579 562
579 566
579 571
579 578
579 582
580 507
580 509
580 521
580 525
580 533
580 534
580 538
580 543
580 558
580 561
580 563
580 565
580 568
580 589
581 504
581 514
581 518
581 526
581 529
581 539
581 545
581 548
581 550
581 555
581 559
581 569
581 574
581 577
581 588
582 501
582 510
582 512
582 519
582 527
582 530
582 531
582 540
582 551
582 553
582 556
582 562
582 566
582 571
582 579
583 508
583 520
583 522
583 532
583 537
583 542
583 549
583 552
583 557
583 564
583 570
583 572
583 590
584 514
584 523
584 528
584 539
584 544
584 548
584 550
584 554
584 560
584 574
584 575
584 576
584 577
584 589
585 500
585 513
585 517
585 534
585 535
585 537
585 547
585 549
585 564
585 567
585 568
585 586
585 590
586 502
586 513
586 521
586 534
586 535
586 538
586 547
586 558
586 561
586 564
586 567
586 568
586 585
587 515
587 529
587 530
587 531
587 540
587 545
587 553
587 556
587 559
587 566
587 569
587 588
588 515
588 518
588 526
588 529
588 545
588 548
588 555
588 556
588 559
588 569
588 574
588 577
588 581
588 587
589 503
589 507
589 511
589 533
589 543
589 544
589 554
589 560
589 563
589 565
589 575
589 576
589 580
589 584
590 508
590 517
590 532
590 537
590 547
590 549
590 557
590 564
590 567
590 572
590 583
590 585
