1 3
1 19
1 26
1 28
1 47
1 49
2 12
2 13
2 18
2 25
2 44
3 1
3 9
3 14
3 26
3 28
3 37
4 5
4 10
4 21
4 24
4 31
4 33
4 52
5 4
5 21
5 24
5 29
5 31
5 50
5 52
6 16
6 20
6 23
6 27
6 34
6 42
6 43
7 30
7 32
7 35
7 54
7 59
8 23
8 27
8 32
8 38
8 53
8 60
8 61
9 3
9 13
9 14
9 22
9 36
9 37
9 45
9 48
9 55
10 4
10 15
10 21
10 31
10 33
10 51
11 12
11 18
11 25
11 30
11 35
11 39
11 46
11 66
12 2
12 11
12 13
12 18
12 25
12 39
12 44
12 46
12 56
12 64
13 2
13 9
13 12
13 22
13 25
13 44
13 45
13 56
13 64
13 71
14 3
14 9
14 22
14 26
14 36
14 37
14 48
14 55
14 57
14 68
14 69
15 10
15 17
15 21
15 33
15 40
15 51
15 58
15 65
16 6
16 20
16 27
16 34
16 42
16 43
16 62
16 63
17 15
17 33
17 40
17 58
18 2
18 11
18 12
18 25
18 35
18 39
18 44
18 46
18 64
18 74
19 1
19 26
19 28
19 29
19 41
19 47
19 49
19 73
19 77
20 6
20 16
20 23
20 27
20 34
20 42
20 43
20 60
20 62
20 67
21 4
21 5
21 10
21 15
21 24
21 31
21 33
21 51
21 52
21 75
21 79
22 9
22 13
22 14
22 36
22 37
22 45
22 48
22 55
22 56
22 69
22 72
23 6
23 8
23 20
23 27
23 32
23 38
23 42
23 53
23 60
23 61
23 67
24 4
24 5
24 21
24 29
24 31
24 41
24 50
24 52
24 70
24 78
25 2
25 11
25 12
25 13
25 18
25 39
25 44
25 46
25 56
25 64
25 71
25 74
25 80
26 1
26 3
26 14
26 19
26 28
26 37
26 47
26 49
26 57
26 68
26 73
26 84
27 6
27 8
27 16
27 20
27 23
27 34
27 42
27 43
27 53
27 60
27 62
27 67
28 1
28 3
28 19
28 26
28 41
28 47
28 49
28 57
28 73
29 5
29 19
29 24
29 41
29 49
29 50
29 70
29 77
30 7
30 11
30 32
30 35
30 39
30 54
30 59
30 66
31 4
31 5
31 10
31 21
31 24
31 33
31 50
31 51
31 52
31 75
31 78
32 7
32 8
32 23
32 30
32 38
32 53
32 59
32 61
32 76
32 82
33 4
33 10
33 15
33 17
33 21
33 31
33 40
33 51
33 58
33 65
33 79
33 81
34 6
34 16
34 20
34 27
34 42
34 43
34 62
34 63
34 67
34 87
35 7
35 11
35 18
35 30
35 39
35 46
35 54
35 66
35 83
35 85
36 9
36 14
36 22
36 37
36 45
36 48
36 55
36 68
36 69
36 72
36 93
37 3
37 9
37 14
37 22
37 26
37 36
37 48
37 55
37 57
37 68
37 69
37 92
38 8
38 23
38 32
38 53
38 59
38 60
38 61
38 76
38 82
39 11
39 12
39 18
39 25
39 30
39 35
39 44
39 46
39 64
39 66
39 74
39 83
39 85
40 15
40 17
40 33
40 58
40 65
40 81
40 90
40 91
41 19
41 24
41 28
41 29
41 47
41 49
41 50
41 70
41 73
41 77
41 89
41 98
42 6
42 16
42 20
42 23
42 27
42 34
42 43
42 53
42 60
42 62
42 67
42 86
42 87
42 88
43 6
43 16
43 20
43 27
43 34
43 42
43 62
43 63
43 67
43 87
43 88
44 2
44 12
44 13
44 18
44 25
44 39
44 45
44 46
44 56
44 64
44 71
44 74
44 80
44 100
44 101
45 9
45 13
45 22
45 36
45 44
45 48
45 55
45 56
45 69
45 71
45 72
45 80
45 102
46 11
46 12
46 18
46 25
46 35
46 39
46 44
46 56
46 64
46 66
46 74
46 80
46 83
46 101
46 105
47 1
47 19
47 26
47 28
47 41
47 49
47 57
47 68
47 73
47 77
47 84
47 104
48 9
48 14
48 22
48 36
48 37
48 45
48 55
48 56
48 69
48 71
48 72
48 93
48 102
49 1
49 19
49 26
49 28
49 29
49 41
49 47
49 57
49 70
49 73
49 77
49 84
49 98
49 108
50 5
50 24
50 29
50 31
50 41
50 52
50 70
50 75
50 77
50 78
50 89
50 96
50 106
50 109
51 10
51 15
51 21
51 31
51 33
51 52
51 58
51 65
51 75
51 79
51 81
51 94
51 110
52 4
52 5
52 21
52 24
52 31
52 50
52 51
52 70
52 75
52 78
52 79
52 89
52 96
52 113
53 8
53 23
53 27
53 32
53 38
53 42
53 59
53 60
53 61
53 67
53 76
53 82
53 86
53 97
53 107
54 7
54 30
54 35
54 59
54 66
54 83
54 85
54 95
55 9
55 14
55 22
55 36
55 37
55 45
55 48
55 57
55 68
55 69
55 72
55 92
55 93
56 12
56 13
56 22
56 25
56 44
56 45
56 46
56 48
56 64
56 71
56 72
56 74
56 80
56 100
56 101
56 102
57 14
57 26
57 28
57 37
57 47
57 49
57 55
57 68
57 73
57 84
57 92
57 104
58 15
58 17
58 33
58 40
58 51
58 65
58 81
58 90
58 91
58 103
59 7
59 30
59 32
59 38
59 53
59 54
59 61
59 76
59 82
59 95
59 99
60 8
60 20
60 23
60 27
60 38
60 42
60 53
60 61
60 62
60 67
60 82
60 86
60 88
60 97
60 107
61 8
61 23
61 32
61 38
61 53
61 59
61 60
61 67
61 76
61 82
61 86
61 97
61 99
61 107
61 114
62 16
62 20
62 27
62 34
62 42
62 43
62 60
62 63
62 67
62 86
62 87
62 88
62 111
63 16
63 34
63 43
63 62
63 87
64 12
64 13
64 18
64 25
64 39
64 44
64 46
64 56
64 71
64 74
64 80
64 83
64 100
64 101
64 105
65 15
65 33
65 40
65 51
65 58
65 79
65 81
65 90
65 91
65 94
65 116
66 11
66 30
66 35
66 39
66 46
66 54
66 74
66 83
66 85
66 95
66 105
66 112
67 20
67 23
67 27
67 34
67 42
67 43
67 53
67 60
67 61
67 62
67 82
67 86
67 87
67 88
67 97
67 107
67 111
68 14
68 26
68 36
68 37
68 47
68 55
68 57
68 69
68 73
68 84
68 92
68 93
68 104
69 14
69 22
69 36
69 37
69 45
69 48
69 55
69 68
69 72
69 92
69 93
69 102
69 123
70 24
70 29
70 41
70 49
70 50
70 52
70 77
70 78
70 89
70 96
70 98
70 106
70 109
70 121
70 128
71 13
71 25
71 44
71 45
71 48
71 56
71 64
71 72
71 74
71 80
71 100
71 101
71 102
71 119
71 120
72 22
72 36
72 45
72 48
72 55
72 56
72 69
72 71
72 80
72 93
72 100
72 102
72 120
72 123
73 19
73 26
73 28
73 41
73 47
73 49
73 57
73 68
73 77
73 84
73 98
73 104
73 108
73 117
73 121
73 122
74 18
74 25
74 39
74 44
74 46
74 56
74 64
74 66
74 71
74 80
74 83
74 100
74 101
74 105
74 112
74 119
75 21
75 31
75 50
75 51
75 52
75 78
75 79
75 81
75 89
75 94
75 96
75 109
75 110
75 113
75 131
76 32
76 38
76 53
76 59
76 61
76 82
76 95
76 97
76 99
76 114
76 129
76 136
77 19
77 29
77 41
77 47
77 49
77 50
77 70
77 73
77 89
77 98
77 106
77 108
77 109
77 121
78 24
78 31
78 50
78 52
78 70
78 75
78 89
78 96
78 106
78 109
78 113
78 125
78 128
79 21
79 33
79 51
79 52
79 65
79 75
79 81
79 91
79 94
79 96
79 110
79 113
79 131
79 132
80 25
80 44
80 45
80 46
80 56
80 64
80 71
80 72
80 74
80 100
80 101
80 102
80 105
80 119
80 120
81 33
81 40
81 51
81 58
81 65
81 75
81 79
81 90
81 91
81 94
81 103
81 110
81 116
81 132
81 134
82 32
82 38
82 53
82 59
82 60
82 61
82 67
82 76
82 86
82 97
82 99
82 107
82 114
82 127
82 136
83 35
83 39
83 46
83 54
83 64
83 66
83 74
83 85
83 101
83 105
83 112
84 26
84 47
84 49
84 57
84 68
84 73
84 92
84 104
84 108
84 117
84 122
84 124
84 138
85 35
85 39
85 54
85 66
85 83
85 95
85 105
85 112
85 126
85 137
86 42
86 53
86 60
86 61
86 62
86 67
86 82
86 88
86 97
86 107
86 111
86 118
86 127
86 135
86 141
87 34
87 42
87 43
87 62
87 63
87 67
87 88
87 111
87 115
87 118
87 133
88 42
88 43
88 60
88 62
88 67
88 86
88 87
88 107
88 111
88 115
88 118
88 133
88 135
88 141
89 41
89 50
89 52
89 70
89 75
89 77
89 78
89 96
89 98
89 106
89 109
89 113
89 121
89 125
89 128
90 40
90 58
90 65
90 81
90 91
90 94
90 103
90 116
90 134
90 139
91 40
91 58
91 65
91 79
91 81
91 90
91 94
91 103
91 116
91 132
91 134
91 139
92 37
92 55
92 57
92 68
92 69
92 84
92 93
92 104
92 122
92 123
92 124
92 130
92 138
93 36
93 48
93 55
93 68
93 69
93 72
93 92
93 102
93 120
93 123
93 124
93 130
93 147
94 51
94 65
94 75
94 79
94 81
94 90
94 91
94 110
94 113
94 116
94 131
94 132
94 134
94 150
95 54
95 59
95 66
95 76
95 85
95 99
95 114
95 126
95 129
95 137
96 50
96 52
96 70
96 75
96 78
96 79
96 89
96 106
96 109
96 110
96 113
96 125
96 128
96 131
96 144
97 53
97 60
97 61
97 67
97 76
97 82
97 86
97 99
97 107
97 111
97 114
97 127
97 135
97 136
97 146
97 151
98 41
98 49
98 70
98 73
98 77
98 89
98 104
98 106
98 108
98 109
98 117
98 121
98 128
99 59
99 61
99 76
99 82
99 95
99 97
99 114
99 126
99 127
99 129
99 136
99 146
100 44
100 56
100 64
100 71
100 72
100 74
100 80
100 101
100 102
100 119
100 120
100 123
100 140
100 142
100 149
101 44
101 46
101 56
101 64
101 71
101 74
101 80
101 83
101 100
101 105
101 112
101 119
101 120
101 140
101 143
102 45
102 48
102 56
102 69
102 71
102 72
102 80
102 93
102 100
102 119
102 120
102 123
102 130
102 142
102 149
103 58
103 81
103 90
103 91
103 116
103 134
103 139
104 47
104 57
104 68
104 73
104 84
104 92
104 98
104 108
104 117
104 122
104 124
104 138
104 145
105 46
105 64
105 66
105 74
105 80
105 83
105 85
105 101
105 112
105 119
105 140
105 143
106 50
106 70
106 77
106 78
106 89
106 96
106 98
106 108
106 109
106 121
106 125
106 128
106 154
107 53
107 60
107 61
107 67
107 82
107 86
107 88
107 97
107 111
107 114
107 118
107 127
107 135
107 136
107 141
107 146
107 151
108 49
108 73
108 77
108 84
108 98
108 104
108 106
108 117
108 121
108 122
108 138
108 145
108 155
109 50
109 70
109 75
109 77
109 78
109 89
109 96
109 98
109 106
109 113
109 121
109 125
109 128
109 131
109 144
109 157
110 51
110 75
110 79
110 81
110 94
110 96
110 113
110 116
110 125
110 131
110 132
110 134
110 144
110 150
110 153
111 62
111 67
111 86
111 87
111 88
111 97
111 107
111 115
111 118
111 127
111 133
111 135
111 141
111 148
111 151
111 161
112 66
112 74
112 83
112 85
112 101
112 105
112 137
112 140
112 143
112 156
113 52
113 75
113 78
113 79
113 89
113 94
113 96
113 109
113 110
113 125
113 128
113 131
113 132
113 144
113 150
113 157
114 61
114 76
114 82
114 95
114 97
114 99
114 107
114 126
114 127
114 129
114 136
114 146
114 160
115 87
115 88
115 111
115 118
115 133
115 148
115 158
116 65
116 81
116 90
116 91
116 94
116 103
116 110
116 132
116 134
116 139
116 153
116 165
117 73
117 84
117 98
117 104
117 108
117 121
117 122
117 124
117 138
117 145
117 155
117 170
118 86
118 87
118 88
118 107
118 111
118 115
118 133
118 135
118 141
118 148
118 158
118 161
118 172
119 71
119 74
119 80
119 100
119 101
119 102
119 105
119 120
119 140
119 142
119 143
119 149
119 162
119 171
120 71
120 72
120 80
120 93
120 100
120 101
120 102
120 119
120 123
120 140
120 142
120 149
120 166
120 168
121 70
121 73
121 77
121 89
121 98
121 106
121 108
121 109
121 117
121 128
121 145
121 154
121 155
121 175
122 73
122 84
122 92
122 104
122 108
122 117
122 124
122 130
122 138
122 145
122 152
122 170
123 69
123 72
123 92
123 93
123 100
123 102
123 120
123 124
123 130
123 142
123 147
123 149
123 166
123 169
123 176
124 84
124 92
124 93
124 104
124 117
124 122
124 123
124 130
124 138
124 147
124 152
124 174
125 78
125 89
125 96
125 106
125 109
125 110
125 113
125 128
125 131
125 144
125 150
125 154
125 157
125 167
126 85
126 95
126 99
126 114
126 129
126 136
126 137
126 156
126 159
126 160
126 163
127 82
127 86
127 97
127 99
127 107
127 111
127 114
127 129
127 135
127 136
127 141
127 146
127 151
127 160
127 161
127 180
128 70
128 78
128 89
128 96
128 98
128 106
128 109
128 113
128 121
128 125
128 144
128 154
128 155
128 157
128 167
129 76
129 95
129 99
129 114
129 126
129 127
129 136
129 137
129 146
129 159
129 160
130 92
130 93
130 102
130 122
130 123
130 124
130 138
130 142
130 147
130 152
130 169
130 174
130 177
131 75
131 79
131 94
131 96
131 109
131 110
131 113
131 125
131 132
131 134
131 144
131 150
131 153
131 157
131 164
132 79
132 81
132 91
132 94
132 110
132 113
132 116
132 131
132 134
132 144
132 150
132 153
132 164
132 165
133 87
133 88
133 111
133 115
133 118
133 141
133 148
133 158
133 172
133 179
134 81
134 90
134 91
134 94
134 103
134 110
134 116
134 131
134 132
134 139
134 150
134 153
134 164
134 165
134 184
135 86
135 88
135 97
135 107
135 111
135 118
135 127
135 136
135 141
135 146
135 148
135 151
135 161
135 180
135 181
136 76
136 82
136 97
136 99
136 107
136 114
136 126
136 127
136 129
136 135
136 146
136 151
136 159
136 160
136 183
137 85
137 95
137 112
137 126
137 129
137 143
137 156
137 159
137 163
137 178
137 182
138 84
138 92
138 104
138 108
138 117
138 122
138 124
138 130
138 145
138 147
138 152
138 170
138 174
138 185
139 90
139 91
139 103
139 116
139 134
139 153
139 165
139 184
139 186
140 100
140 101
140 105
140 112
140 119
140 120
140 143
140 149
140 162
140 168
140 171
140 173
141 86
141 88
141 107
141 111
141 118
141 127
141 133
141 135
141 148
141 151
141 161
141 172
141 180
141 181
141 190
142 100
142 102
142 119
142 120
142 123
142 130
142 147
142 149
142 166
142 168
142 169
142 171
142 176
143 101
143 105
143 112
143 119
143 137
143 140
143 156
143 162
143 171
143 173
143 182
144 96
144 109
144 110
144 113
144 125
144 128
144 131
144 132
144 150
144 153
144 157
144 164
144 167
144 192
145 104
145 108
145 117
145 121
145 122
145 138
145 154
145 155
145 170
145 175
145 185
145 188
146 97
146 99
146 107
146 114
146 127
146 129
146 135
146 136
146 151
146 159
146 160
146 161
146 180
146 183
146 187
146 196
147 93
147 123
147 124
147 130
147 138
147 142
147 152
147 166
147 169
147 174
147 176
147 177
147 198
147 200
148 111
148 115
148 118
148 133
148 135
148 141
148 158
148 161
148 172
148 179
148 181
148 194
149 100
149 102
149 119
149 120
149 123
149 140
149 142
149 162
149 166
149 168
149 169
149 171
149 176
150 94
150 110
150 113
150 125
150 131
150 132
150 134
150 144
150 153
150 157
150 164
150 165
150 192
150 197
151 97
151 107
151 111
151 127
151 135
151 136
151 141
151 146
151 160
151 161
151 180
151 181
151 183
151 190
151 196
152 122
152 124
152 130
152 138
152 147
152 169
152 170
152 174
152 176
152 177
152 185
152 200
153 110
153 116
153 131
153 132
153 134
153 139
153 144
153 150
153 164
153 165
153 184
153 197
153 206
154 106
154 121
154 125
154 128
154 145
154 155
154 157
154 167
154 170
154 175
154 188
154 207
155 108
155 117
155 121
155 128
155 145
155 154
155 167
155 170
155 175
155 188
155 207
156 112
156 126
156 137
156 143
156 159
156 163
156 173
156 178
156 182
156 189
156 199
156 201
157 109
157 113
157 125
157 128
157 131
157 144
157 150
157 154
157 164
157 167
157 192
157 197
157 202
158 115
158 118
158 133
158 148
158 172
158 179
158 181
158 193
158 194
158 203
159 126
159 129
159 136
159 137
159 146
159 156
159 160
159 163
159 178
159 183
159 187
159 189
159 191
159 212
160 114
160 126
160 127
160 129
160 136
160 146
160 151
160 159
160 183
160 187
160 189
160 191
160 208
161 111
161 118
161 127
161 135
161 141
161 146
161 148
161 151
161 172
161 180
161 181
161 190
161 194
161 196
161 214
162 119
162 140
162 143
162 149
162 168
162 171
162 173
162 195
162 204
163 126
163 137
163 156
163 159
163 178
163 182
163 189
163 191
163 199
163 211
164 131
164 132
164 134
164 144
164 150
164 153
164 157
164 165
164 184
164 192
164 197
164 206
164 220
165 116
165 132
165 134
165 139
165 150
165 153
165 164
165 184
165 186
165 206
165 215
166 120
166 123
166 142
166 147
166 149
166 168
166 169
166 171
166 176
166 177
166 198
166 204
166 205
166 210
166 213
167 125
167 128
167 144
167 154
167 155
167 157
167 175
167 202
167 207
167 222
168 120
168 140
168 142
168 149
168 162
168 166
168 169
168 171
168 173
168 176
168 195
168 198
168 204
168 205
168 210
168 219
169 123
169 130
169 142
169 147
169 149
169 152
169 166
169 168
169 174
169 176
169 177
169 185
169 198
169 200
169 210
169 213
169 224
170 117
170 122
170 138
170 145
170 152
170 154
170 155
170 174
170 175
170 185
170 188
170 209
171 119
171 140
171 142
171 143
171 149
171 162
171 166
171 168
171 173
171 195
171 204
171 205
171 219
172 118
172 133
172 141
172 148
172 158
172 161
172 179
172 181
172 190
172 193
172 194
172 203
172 218
172 225
173 140
173 143
173 156
173 162
173 168
173 171
173 182
173 195
173 201
173 204
173 219
173 227
174 124
174 130
174 138
174 147
174 152
174 169
174 170
174 176
174 177
174 185
174 198
174 200
174 209
174 217
174 224
175 121
175 145
175 154
175 155
175 167
175 170
175 188
175 207
176 123
176 142
176 147
176 149
176 152
176 166
176 168
176 169
176 174
176 177
176 198
176 200
176 205
176 210
176 213
177 130
177 147
177 152
177 166
177 169
177 174
177 176
177 185
177 198
177 200
177 209
177 213
177 217
177 224
178 137
178 156
178 159
178 163
178 182
178 189
178 191
178 199
178 201
178 211
178 212
178 231
179 133
179 148
179 158
179 172
179 181
179 193
179 194
179 203
179 221
179 225
180 127
180 135
180 141
180 146
180 151
180 161
180 181
180 183
180 187
180 190
180 194
180 196
180 208
180 214
180 216
180 218
180 233
181 135
181 141
181 148
181 151
181 158
181 161
181 172
181 179
181 180
181 190
181 194
181 196
181 203
181 214
181 218
181 225
182 137
182 143
182 156
182 163
182 173
182 178
182 189
182 195
182 199
182 201
182 211
182 227
182 230
182 231
183 136
183 146
183 151
183 159
183 160
183 180
183 187
183 190
183 191
183 196
183 208
183 214
183 216
183 223
184 134
184 139
184 153
184 164
184 165
184 186
184 197
184 206
184 215
184 220
185 138
185 145
185 152
185 169
185 170
185 174
185 177
185 188
185 200
185 209
185 217
185 224
185 235
186 139
186 165
186 184
186 206
186 215
186 236
186 244
187 146
187 159
187 160
187 180
187 183
187 189
187 191
187 196
187 208
187 212
187 216
187 223
188 145
188 154
188 155
188 170
188 175
188 185
188 207
188 209
188 238
189 156
189 159
189 160
189 163
189 178
189 182
189 187
189 191
189 199
189 211
189 212
189 223
189 231
189 237
190 141
190 151
190 161
190 172
190 180
190 181
190 183
190 194
190 196
190 214
190 216
190 218
190 225
190 233
190 241
190 245
191 159
191 160
191 163
191 178
191 183
191 187
191 189
191 199
191 208
191 211
191 212
191 216
191 223
191 237
191 243
192 144
192 150
192 157
192 164
192 197
192 202
192 220
192 222
192 226
192 228
193 158
193 172
193 179
193 194
193 203
193 221
193 240
194 148
194 158
194 161
194 172
194 179
194 180
194 181
194 190
194 193
194 196
194 203
194 214
194 218
194 221
194 225
194 241
195 162
195 168
195 171
195 173
195 182
195 201
195 204
195 205
195 219
195 227
195 229
195 230
195 250
196 146
196 151
196 161
196 180
196 181
196 183
196 187
196 190
196 194
196 208
196 214
196 216
196 218
196 233
196 245
196 246
197 150
197 153
197 157
197 164
197 184
197 192
197 206
197 220
197 226
197 228
197 239
198 147
198 166
198 168
198 169
198 174
198 176
198 177
198 200
198 205
198 210
198 213
198 217
198 224
198 232
198 234
199 156
199 163
199 178
199 182
199 189
199 191
199 201
199 211
199 212
199 227
199 230
199 231
199 237
200 147
200 152
200 169
200 174
200 176
200 177
200 185
200 198
200 209
200 213
200 217
200 224
200 234
200 235
201 156
201 173
201 178
201 182
201 195
201 199
201 211
201 219
201 227
201 230
201 231
201 251
202 157
202 167
202 192
202 207
202 222
202 226
203 158
203 172
203 179
203 181
203 193
203 194
203 218
203 221
203 225
203 240
203 241
203 249
204 162
204 166
204 168
204 171
204 173
204 195
204 205
204 210
204 219
204 227
204 229
204 232
204 250
204 252
204 253
205 166
205 168
205 171
205 176
205 195
205 198
205 204
205 210
205 213
205 219
205 229
205 232
205 252
205 253
206 153
206 164
206 165
206 184
206 186
206 197
206 215
206 220
206 228
206 236
206 239
206 244
206 255
207 154
207 155
207 167
207 175
207 188
207 202
207 222
207 242
208 160
208 180
208 183
208 187
208 191
208 196
208 212
208 214
208 216
208 223
208 233
208 243
208 246
208 248
209 170
209 174
209 177
209 185
209 188
209 200
209 217
209 224
209 235
209 238
209 247
210 166
210 168
210 169
210 176
210 198
210 204
210 205
210 213
210 219
210 224
210 229
210 232
210 234
210 252
210 253
210 269
211 163
211 178
211 182
211 189
211 191
211 199
211 201
211 212
211 223
211 230
211 231
211 237
211 243
211 256
211 267
212 159
212 178
212 187
212 189
212 191
212 199
212 208
212 211
212 223
212 231
212 237
212 243
212 248
212 256
212 267
212 268
213 166
213 169
213 176
213 177
213 198
213 200
213 205
213 210
213 217
213 224
213 232
213 234
213 253
213 254
213 265
214 161
214 180
214 181
214 183
214 190
214 194
214 196
214 208
214 216
214 218
214 225
214 233
214 241
214 245
214 246
214 258
214 262
214 270
215 165
215 184
215 186
215 206
215 220
215 236
215 239
215 244
215 255
216 180
216 183
216 187
216 190
216 191
216 196
216 208
216 214
216 218
216 223
216 233
216 243
216 245
216 246
216 248
216 262
216 271
217 174
217 177
217 185
217 198
217 200
217 209
217 213
217 224
217 234
217 235
217 247
217 254
217 264
218 172
218 180
218 181
218 190
218 194
218 196
218 203
218 214
218 216
218 225
218 233
218 241
218 245
218 258
218 270
219 168
219 171
219 173
219 195
219 201
219 204
219 205
219 210
219 227
219 229
219 230
219 232
219 250
219 252
219 253
220 164
220 184
220 192
220 197
220 206
220 215
220 226
220 228
220 236
220 239
221 179
221 193
221 194
221 203
221 225
221 240
221 241
221 249
221 263
222 167
222 192
222 202
222 207
222 226
222 228
222 242
222 257
222 260
223 183
223 187
223 189
223 191
223 208
223 211
223 212
223 216
223 233
223 237
223 243
223 246
223 248
223 268
223 272
224 169
224 174
224 177
224 185
224 198
224 200
224 209
224 210
224 213
224 217
224 234
224 235
224 254
224 264
224 265
225 172
225 179
225 181
225 190
225 194
225 203
225 214
225 218
225 221
225 240
225 241
225 245
225 249
225 258
225 275
226 192
226 197
226 202
226 220
226 222
226 228
226 257
226 260
226 274
227 173
227 182
227 195
227 199
227 201
227 204
227 219
227 229
227 230
227 250
227 251
227 261
228 192
228 197
228 206
228 220
228 222
228 226
228 239
228 257
228 274
229 195
229 204
229 205
229 210
229 219
229 227
229 232
229 250
229 252
229 253
229 269
229 277
230 182
230 195
230 199
230 201
230 211
230 219
230 227
230 231
230 250
230 251
230 256
230 261
231 178
231 182
231 189
231 199
231 201
231 211
231 212
231 230
231 237
231 243
231 251
231 256
231 261
231 267
231 268
232 198
232 204
232 205
232 210
232 213
232 219
232 229
232 234
232 252
232 253
232 265
232 269
232 277
232 278
232 290
233 180
233 190
233 196
233 208
233 214
233 216
233 218
233 223
233 241
233 245
233 246
233 248
233 262
233 270
233 271
233 293
234 198
234 200
234 210
234 213
234 217
234 224
234 232
234 235
234 253
234 254
234 264
234 265
234 278
234 279
235 185
235 200
235 209
235 217
235 224
235 234
235 238
235 247
235 254
235 264
235 279
235 281
235 284
236 186
236 206
236 215
236 220
236 239
236 244
236 255
236 273
236 276
237 189
237 191
237 199
237 211
237 212
237 223
237 231
237 243
237 248
237 251
237 256
237 261
237 267
237 268
237 272
237 289
238 188
238 209
238 235
238 242
238 247
238 259
238 264
238 266
238 281
238 291
239 197
239 206
239 215
239 220
239 228
239 236
239 255
239 276
240 193
240 203
240 221
240 225
240 249
240 263
240 275
241 190
241 194
241 203
241 214
241 218
241 221
241 225
241 233
241 245
241 249
241 258
241 263
241 270
241 275
241 280
241 283
242 207
242 222
242 238
242 247
242 259
242 260
242 266
242 285
242 291
243 191
243 208
243 211
243 212
243 216
243 223
243 231
243 237
243 246
243 248
243 256
243 267
243 268
243 271
243 272
243 287
243 289
244 186
244 206
244 215
244 236
244 255
244 273
244 276
244 298
245 190
245 196
245 214
245 216
245 218
245 225
245 233
245 241
245 246
245 258
245 262
245 270
245 271
245 280
245 283
245 293
246 196
246 208
246 214
246 216
246 223
246 233
246 243
246 245
246 248
246 262
246 270
246 271
246 272
246 286
246 293
247 209
247 217
247 235
247 238
247 242
247 259
247 264
247 281
247 284
247 291
248 208
248 212
248 216
248 223
248 233
248 237
248 243
248 246
248 262
248 267
248 268
248 271
248 272
248 286
248 287
249 203
249 221
249 225
249 240
249 241
249 258
249 263
249 275
249 280
249 296
250 195
250 204
250 219
250 227
250 229
250 230
250 251
250 252
250 261
250 277
250 282
250 288
250 292
250 295
251 201
251 227
251 230
251 231
251 237
251 250
251 256
251 261
251 282
251 288
251 294
251 295
252 204
252 205
252 210
252 219
252 229
252 232
252 250
252 253
252 269
252 277
252 278
252 282
252 290
252 292
253 204
253 205
253 210
253 213
253 219
253 229
253 232
253 234
253 252
253 254
253 265
253 269
253 277
253 278
253 290
253 292
253 306
254 213
254 217
254 224
254 234
254 235
254 253
254 264
254 265
254 278
254 279
254 284
254 297
254 302
254 309
255 206
255 215
255 236
255 239
255 244
255 273
255 276
255 298
255 300
255 304
256 211
256 212
256 230
256 231
256 237
256 243
256 251
256 261
256 267
256 268
256 272
256 287
256 288
256 289
256 294
256 318
257 222
257 226
257 228
257 260
257 266
257 274
257 285
258 214
258 218
258 225
258 241
258 245
258 249
258 262
258 263
258 270
258 275
258 280
258 283
258 296
258 308
258 310
259 238
259 242
259 247
259 266
259 281
259 285
259 291
259 301
259 311
259 316
260 222
260 226
260 242
260 257
260 266
260 274
260 285
260 301
261 227
261 230
261 231
261 237
261 250
261 251
261 256
261 267
261 282
261 288
261 289
261 294
261 295
261 314
262 214
262 216
262 233
262 245
262 246
262 248
262 258
262 270
262 271
262 272
262 283
262 286
262 293
262 305
262 307
262 308
263 221
263 240
263 241
263 249
263 258
263 275
263 280
263 296
263 303
264 217
264 224
264 234
264 235
264 238
264 247
264 254
264 265
264 279
264 281
264 284
264 297
264 309
264 312
265 213
265 224
265 232
265 234
265 253
265 254
265 264
265 269
265 278
265 279
265 290
265 297
265 302
265 317
266 238
266 242
266 257
266 259
266 260
266 285
266 291
266 301
266 311
267 211
267 212
267 231
267 237
267 243
267 248
267 256
267 261
267 268
267 272
267 287
267 288
267 289
267 294
267 313
267 318
268 212
268 223
268 231
268 237
268 243
268 248
268 256
268 267
268 271
268 272
268 286
268 287
268 289
268 294
268 305
268 313
268 318
269 210
269 229
269 232
269 252
269 253
269 265
269 277
269 278
269 290
269 292
269 302
269 306
269 315
269 317
270 214
270 218
270 233
270 241
270 245
270 246
270 258
270 262
270 271
270 275
270 280
270 283
270 293
270 307
270 308
270 310
271 216
271 233
271 243
271 245
271 246
271 248
271 262
271 268
271 270
271 272
271 283
271 286
271 287
271 293
271 305
271 307
271 326
272 223
272 237
272 243
272 246
272 248
272 256
272 262
272 267
272 268
272 271
272 286
272 287
272 289
272 305
272 313
272 324
273 236
273 244
273 255
273 276
273 298
273 304
273 330
274 226
274 228
274 257
274 260
274 299
274 300
274 322
275 225
275 240
275 241
275 249
275 258
275 263
275 270
275 280
275 283
275 296
275 303
275 310
275 320
275 329
276 236
276 239
276 244
276 255
276 273
276 298
276 300
276 304
276 325
276 330
277 229
277 232
277 250
277 252
277 253
277 269
277 278
277 282
277 290
277 292
277 302
277 306
277 315
277 317
277 319
277 332
278 232
278 234
278 252
278 253
278 254
278 265
278 269
278 277
278 279
278 290
278 297
278 302
278 306
278 317
278 332
279 234
279 235
279 254
279 264
279 265
279 278
279 281
279 284
279 297
279 302
279 309
279 312
279 317
279 331
279 334
280 241
280 245
280 249
280 258
280 263
280 270
280 275
280 283
280 293
280 296
280 308
280 310
280 320
281 235
281 238
281 247
281 259
281 264
281 279
281 284
281 291
281 309
281 312
281 316
281 331
282 250
282 251
282 252
282 261
282 277
282 288
282 292
282 295
282 314
282 315
282 319
282 321
282 340
283 241
283 245
283 258
283 262
283 270
283 271
283 275
283 280
283 293
283 296
283 307
283 308
283 310
283 320
283 335
283 345
284 235
284 247
284 254
284 264
284 279
284 281
284 297
284 309
284 312
284 316
284 331
284 334
285 242
285 257
285 259
285 260
285 266
285 291
285 301
285 311
285 322
285 327
285 333
286 246
286 248
286 262
286 268
286 271
286 272
286 287
286 293
286 305
286 307
286 308
286 313
286 324
286 326
286 335
286 337
287 243
287 248
287 256
287 267
287 268
287 271
287 272
287 286
287 289
287 305
287 307
287 313
287 318
287 324
287 326
287 342
288 250
288 251
288 256
288 261
288 267
288 282
288 289
288 294
288 295
288 314
288 318
288 319
288 321
288 344
289 237
289 243
289 256
289 261
289 267
289 268
289 272
289 287
289 288
289 294
289 305
289 313
289 314
289 318
289 324
289 338
289 342
289 343
290 232
290 252
290 253
290 265
290 269
290 277
290 278
290 292
290 297
290 302
290 306
290 315
290 317
290 332
291 238
291 242
291 247
291 259
291 266
291 281
291 285
291 301
291 311
291 312
291 316
291 333
291 336
292 250
292 252
292 253
292 269
292 277
292 282
292 290
292 295
292 306
292 315
292 319
292 346
293 233
293 245
293 246
293 262
293 270
293 271
293 280
293 283
293 286
293 305
293 307
293 308
293 310
293 326
293 335
293 337
294 251
294 256
294 261
294 267
294 268
294 288
294 289
294 295
294 313
294 314
294 318
294 321
294 338
294 344
295 250
295 251
295 261
295 282
295 288
295 292
295 294
295 314
295 319
295 321
295 340
295 344
296 249
296 258
296 263
296 275
296 280
296 283
296 303
296 310
296 320
296 328
296 329
296 341
296 352
297 254
297 264
297 265
297 278
297 279
297 284
297 290
297 302
297 309
297 312
297 317
297 331
297 332
297 334
297 348
297 351
298 244
298 255
298 273
298 276
298 300
298 304
298 325
298 330
298 355
299 274
299 300
299 322
299 323
299 325
299 339
299 349
299 362
300 255
300 274
300 276
300 298
300 299
300 323
300 325
300 339
300 349
301 259
301 260
301 266
301 285
301 291
301 311
301 316
301 322
301 327
301 333
301 336
301 350
301 354
302 254
302 265
302 269
302 277
302 278
302 279
302 290
302 297
302 306
302 309
302 317
302 332
302 334
302 348
302 351
303 263
303 275
303 296
303 310
303 320
303 328
303 329
303 352
303 358
304 255
304 273
304 276
304 298
304 325
304 330
304 355
305 262
305 268
305 271
305 272
305 286
305 287
305 289
305 293
305 307
305 313
305 324
305 326
305 335
305 337
305 342
305 357
305 359
306 253
306 269
306 277
306 278
306 290
306 292
306 302
306 315
306 317
306 319
306 332
306 346
306 348
306 353
307 262
307 270
307 271
307 283
307 286
307 287
307 293
307 305
307 308
307 324
307 326
307 335
307 337
307 345
307 357
307 359
308 258
308 262
308 270
308 280
308 283
308 286
308 293
308 307
308 310
308 320
308 326
308 335
308 337
308 341
308 345
308 357
309 254
309 264
309 279
309 281
309 284
309 297
309 302
309 312
309 316
309 317
309 331
309 334
309 351
309 360
310 258
310 270
310 275
310 280
310 283
310 293
310 296
310 303
310 308
310 320
310 329
310 335
310 341
310 345
310 352
310 369
311 259
311 266
311 285
311 291
311 301
311 316
311 327
311 333
311 336
311 350
311 354
311 368
312 264
312 279
312 281
312 284
312 291
312 297
312 309
312 316
312 331
312 334
312 336
312 351
312 360
312 361
313 267
313 268
313 272
313 286
313 287
313 289
313 294
313 305
313 318
313 324
313 326
313 338
313 342
313 343
313 359
313 372
314 261
314 282
314 288
314 289
314 294
314 295
314 318
314 319
314 321
314 338
314 340
314 343
314 344
314 356
314 366
315 269
315 277
315 282
315 290
315 292
315 306
315 317
315 319
315 332
315 340
315 346
315 353
315 365
316 259
316 281
316 284
316 291
316 301
316 309
316 311
316 312
316 331
316 333
316 336
316 354
316 360
316 361
316 368
317 265
317 269
317 277
317 278
317 279
317 290
317 297
317 302
317 306
317 309
317 315
317 332
317 334
317 348
317 351
317 353
317 370
318 256
318 267
318 268
318 287
318 288
318 289
318 294
318 313
318 314
318 321
318 324
318 338
318 342
318 343
318 344
318 366
318 367
318 372
319 277
319 282
319 288
319 292
319 295
319 306
319 314
319 315
319 321
319 340
319 344
319 346
319 356
319 365
319 374
320 275
320 280
320 283
320 296
320 303
320 308
320 310
320 328
320 329
320 341
320 345
320 352
320 358
320 369
320 377
321 282
321 288
321 294
321 295
321 314
321 318
321 319
321 338
321 340
321 344
321 356
321 365
321 366
321 374
322 274
322 285
322 299
322 301
322 327
322 333
322 339
322 347
322 350
322 363
322 371
323 299
323 300
323 325
323 330
323 339
323 349
323 355
323 362
323 364
323 386
324 272
324 286
324 287
324 289
324 305
324 307
324 313
324 318
324 326
324 337
324 342
324 343
324 357
324 359
324 372
324 379
325 276
325 298
325 299
325 300
325 304
325 323
325 330
325 339
325 349
325 355
325 362
325 364
325 383
326 271
326 286
326 287
326 293
326 305
326 307
326 308
326 313
326 324
326 335
326 337
326 342
326 357
326 359
326 384
327 285
327 301
327 311
327 322
327 333
327 347
327 350
327 354
327 363
327 375
328 296
328 303
328 320
328 329
328 352
328 358
328 377
329 275
329 296
329 303
329 310
329 320
329 328
329 341
329 352
329 358
329 369
329 377
330 273
330 276
330 298
330 304
330 323
330 325
330 349
330 355
330 364
330 378
330 383
331 279
331 281
331 284
331 297
331 309
331 312
331 316
331 334
331 351
331 360
331 361
331 373
332 277
332 278
332 290
332 297
332 302
332 306
332 315
332 317
332 334
332 346
332 348
332 353
332 370
332 380
333 285
333 291
333 301
333 311
333 316
333 322
333 327
333 336
333 350
333 354
333 361
333 363
333 368
333 375
333 385
334 279
334 284
334 297
334 302
334 309
334 312
334 317
334 331
334 332
334 348
334 351
334 360
334 370
334 373
334 388
335 283
335 286
335 293
335 305
335 307
335 308
335 310
335 326
335 337
335 341
335 345
335 357
335 359
335 376
335 384
335 390
336 291
336 301
336 311
336 312
336 316
336 333
336 350
336 354
336 360
336 361
336 368
336 375
336 382
336 385
337 286
337 293
337 305
337 307
337 308
337 324
337 326
337 335
337 342
337 345
337 357
337 359
337 376
337 384
337 390
338 289
338 294
338 313
338 314
338 318
338 321
338 342
338 343
338 344
338 356
338 366
338 367
338 372
338 391
339 299
339 300
339 322
339 323
339 325
339 347
339 349
339 362
339 364
339 371
339 386
340 282
340 295
340 314
340 315
340 319
340 321
340 344
340 346
340 356
340 365
340 366
340 374
340 381
340 396
340 397
341 296
341 308
341 310
341 320
341 329
341 335
341 345
341 352
341 358
341 369
341 376
341 377
341 402
342 287
342 289
342 305
342 313
342 318
342 324
342 326
342 337
342 338
342 343
342 359
342 367
342 372
342 379
342 384
342 392
342 395
343 289
343 313
343 314
343 318
343 324
343 338
343 342
343 344
343 359
343 366
343 367
343 372
343 379
343 391
343 392
343 395
344 288
344 294
344 295
344 314
344 318
344 319
344 321
344 338
344 340
344 343
344 356
344 365
344 366
344 367
344 374
344 391
344 400
345 283
345 307
345 308
345 310
345 320
345 335
345 337
345 341
345 352
345 357
345 369
345 376
345 390
345 394
345 402
346 292
346 306
346 315
346 319
346 332
346 340
346 353
346 356
346 365
346 374
346 380
346 381
346 396
346 397
347 322
347 327
347 339
347 350
347 362
347 363
347 371
347 375
347 387
347 389
348 297
348 302
348 306
348 317
348 332
348 334
348 351
348 353
348 370
348 373
348 380
348 388
348 403
349 299
349 300
349 323
349 325
349 330
349 339
349 355
349 362
349 364
349 371
349 383
349 386
349 406
350 301
350 311
350 322
350 327
350 333
350 336
350 347
350 354
350 363
350 368
350 375
350 382
350 385
350 387
350 404
350 410
351 297
351 302
351 309
351 312
351 317
351 331
351 334
351 348
351 360
351 370
351 373
351 388
351 393
352 296
352 303
352 310
352 320
352 328
352 329
352 341
352 345
352 358
352 369
352 377
352 402
352 405
353 306
353 315
353 317
353 332
353 346
353 348
353 365
353 370
353 380
353 381
353 397
353 403
353 407
354 301
354 311
354 316
354 327
354 333
354 336
354 350
354 361
354 363
354 368
354 375
354 382
354 385
354 387
354 398
354 399
354 404
354 410
355 298
355 304
355 323
355 325
355 330
355 349
355 362
355 364
355 378
355 383
355 386
355 401
355 406
355 413
356 314
356 319
356 321
356 338
356 340
356 344
356 346
356 365
356 366
356 367
356 374
356 391
356 396
356 400
357 305
357 307
357 308
357 324
357 326
357 335
357 337
357 345
357 359
357 376
357 384
357 390
357 394
357 408
357 412
358 303
358 320
358 328
358 329
358 341
358 352
358 369
358 377
358 405
358 409
359 305
359 307
359 313
359 324
359 326
359 335
359 337
359 342
359 343
359 357
359 372
359 376
359 379
359 384
359 390
359 392
359 408
360 309
360 312
360 316
360 331
360 334
360 336
360 351
360 361
360 368
360 373
360 382
360 393
360 398
360 415
360 416
361 312
361 316
361 331
361 333
361 336
361 354
361 360
361 368
361 382
361 385
361 393
361 398
361 399
362 299
362 323
362 325
362 339
362 347
362 349
362 355
362 364
362 371
362 383
362 386
362 406
363 322
363 327
363 333
363 347
363 350
363 354
363 371
363 375
363 385
363 387
363 389
363 404
363 410
363 421
363 426
364 323
364 325
364 330
364 339
364 349
364 355
364 362
364 378
364 383
364 386
364 401
364 406
364 413
365 315
365 319
365 321
365 340
365 344
365 346
365 353
365 356
365 374
365 381
365 396
365 397
365 400
365 420
366 314
366 318
366 321
366 338
366 340
366 343
366 344
366 356
366 367
366 372
366 374
366 391
366 395
366 400
366 411
366 423
366 432
367 318
367 338
367 342
367 343
367 344
367 356
367 366
367 372
367 379
367 391
367 392
367 395
367 400
367 411
367 414
368 311
368 316
368 333
368 336
368 350
368 354
368 360
368 361
368 375
368 382
368 385
368 387
368 398
368 399
368 404
368 410
368 424
368 425
369 310
369 320
369 329
369 341
369 345
369 352
369 358
369 376
369 377
369 394
369 402
369 405
369 418
369 428
370 317
370 332
370 334
370 348
370 351
370 353
370 373
370 380
370 388
370 393
370 403
370 407
370 415
370 434
371 322
371 339
371 347
371 349
371 362
371 363
371 386
371 387
371 389
371 417
371 429
372 313
372 318
372 324
372 338
372 342
372 343
372 359
372 366
372 367
372 379
372 384
372 391
372 392
372 395
372 408
372 411
372 414
372 431
373 331
373 334
373 348
373 351
373 360
373 370
373 388
373 393
373 403
373 415
373 416
374 319
374 321
374 340
374 344
374 346
374 356
374 365
374 366
374 381
374 391
374 396
374 397
374 400
374 420
374 423
374 435
375 327
375 333
375 336
375 347
375 350
375 354
375 363
375 368
375 382
375 385
375 387
375 389
375 399
375 404
375 410
375 421
375 425
375 426
376 335
376 337
376 341
376 345
376 357
376 359
376 369
376 384
376 390
376 394
376 402
376 412
376 427
376 428
377 320
377 328
377 329
377 341
377 352
377 358
377 369
377 402
377 405
377 409
377 418
378 330
378 355
378 364
378 383
378 386
378 401
378 406
378 413
378 422
378 430
379 324
379 342
379 343
379 359
379 367
379 372
379 384
379 392
379 395
379 408
379 411
379 414
379 431
380 332
380 346
380 348
380 353
380 370
380 381
380 388
380 397
380 403
380 407
380 419
380 434
381 340
381 346
381 353
381 365
381 374
381 380
381 396
381 397
381 403
381 407
381 419
381 420
382 336
382 350
382 354
382 360
382 361
382 368
382 375
382 385
382 393
382 398
382 399
382 410
382 416
382 424
382 425
382 438
383 325
383 330
383 349
383 355
383 362
383 364
383 378
383 386
383 401
383 406
383 413
383 422
383 430
383 433
384 326
384 335
384 337
384 342
384 357
384 359
384 372
384 376
384 379
384 390
384 392
384 394
384 408
384 412
384 414
384 427
384 431
384 441
385 333
385 336
385 350
385 354
385 361
385 363
385 368
385 375
385 382
385 387
385 389
385 398
385 399
385 404
385 410
385 421
385 424
385 425
385 426
386 323
386 339
386 349
386 355
386 362
386 364
386 371
386 378
386 383
386 406
386 413
386 417
386 429
386 430
386 433
386 446
386 448
387 347
387 350
387 354
387 363
387 368
387 371
387 375
387 385
387 389
387 399
387 404
387 410
387 421
387 425
387 426
387 439
387 452
388 334
388 348
388 351
388 370
388 373
388 380
388 393
388 403
388 407
388 415
388 416
388 434
388 437
388 449
389 347
389 363
389 371
389 375
389 385
389 387
389 404
389 417
389 421
389 426
389 429
389 439
389 440
389 455
390 335
390 337
390 345
390 357
390 359
390 376
390 384
390 394
390 402
390 408
390 412
390 427
390 428
390 441
390 456
391 338
391 343
391 344
391 356
391 366
391 367
391 372
391 374
391 395
391 400
391 411
391 414
391 423
391 432
391 442
392 342
392 343
392 359
392 367
392 372
392 379
392 384
392 395
392 408
392 411
392 412
392 414
392 431
392 441
392 442
392 459
393 351
393 360
393 361
393 370
393 373
393 382
393 388
393 398
393 415
393 416
393 424
393 437
393 438
393 444
394 345
394 357
394 369
394 376
394 384
394 390
394 402
394 412
394 418
394 427
394 428
394 443
394 456
395 342
395 343
395 366
395 367
395 372
395 379
395 391
395 392
395 408
395 411
395 414
395 431
395 432
395 442
395 460
395 463
396 340
396 346
396 356
396 365
396 374
396 381
396 397
396 400
396 419
396 420
396 423
396 432
396 435
396 453
396 462
397 340
397 346
397 353
397 365
397 374
397 380
397 381
397 396
397 400
397 407
397 419
397 420
397 423
397 435
397 450
397 453
398 354
398 360
398 361
398 368
398 382
398 385
398 393
398 399
398 410
398 415
398 416
398 424
398 425
398 438
398 444
398 465
399 354
399 361
399 368
399 375
399 382
399 385
399 387
399 398
399 404
399 410
399 416
399 421
399 424
399 425
399 438
399 451
399 465
400 344
400 356
400 365
400 366
400 367
400 374
400 391
400 396
400 397
400 411
400 420
400 423
400 432
400 435
400 462
400 464
401 355
401 364
401 378
401 383
401 406
401 413
401 422
401 430
401 447
401 457
401 458
402 341
402 345
402 352
402 369
402 376
402 377
402 390
402 394
402 405
402 418
402 427
402 428
402 443
402 445
402 456
402 469
403 348
403 353
403 370
403 373
403 380
403 381
403 388
403 407
403 419
403 434
403 437
403 449
403 450
403 454
404 350
404 354
404 363
404 368
404 375
404 385
404 387
404 389
404 399
404 410
404 421
404 424
404 425
404 426
404 451
404 452
404 455
405 352
405 358
405 369
405 377
405 402
405 409
405 418
405 428
405 436
405 443
405 445
405 461
406 349
406 355
406 362
406 364
406 378
406 383
406 386
406 401
406 413
406 417
406 429
406 430
406 433
406 440
406 446
406 447
406 448
406 457
406 467
407 353
407 370
407 380
407 381
407 388
407 397
407 403
407 419
407 420
407 434
407 449
407 450
407 454
408 357
408 359
408 372
408 379
408 384
408 390
408 392
408 395
408 412
408 414
408 427
408 431
408 441
408 442
408 459
408 468
409 358
409 377
409 405
409 418
409 436
409 445
409 461
409 466
410 350
410 354
410 363
410 368
410 375
410 382
410 385
410 387
410 398
410 399
410 404
410 421
410 424
410 425
410 426
410 438
410 451
410 452
411 366
411 367
411 372
411 379
411 391
411 392
411 395
411 400
411 414
411 423
411 431
411 432
411 442
411 460
411 463
411 464
412 357
412 376
412 384
412 390
412 392
412 394
412 408
412 427
412 428
412 431
412 441
412 456
412 468
412 483
413 355
413 364
413 378
413 383
413 386
413 401
413 406
413 422
413 430
413 433
413 446
413 447
413 448
413 457
413 458
413 467
413 482
414 367
414 372
414 379
414 384
414 391
414 392
414 395
414 408
414 411
414 431
414 432
414 441
414 442
414 459
414 460
414 463
414 477
415 360
415 370
415 373
415 388
415 393
415 398
415 416
415 434
415 437
415 438
415 444
415 471
416 360
416 373
416 382
416 388
416 393
416 398
416 399
416 415
416 424
416 437
416 438
416 444
416 465
416 474
417 371
417 386
417 389
417 406
417 421
417 426
417 429
417 433
417 439
417 440
417 446
417 455
417 472
417 475
418 369
418 377
418 394
418 402
418 405
418 409
418 428
418 436
418 443
418 445
418 461
418 469
418 476
418 478
419 380
419 381
419 396
419 397
419 403
419 407
419 420
419 434
419 449
419 450
419 453
419 454
419 473
419 485
420 365
420 374
420 381
420 396
420 397
420 400
420 407
420 419
420 423
420 435
420 450
420 453
420 462
420 473
420 480
421 363
421 375
421 385
421 387
421 389
421 399
421 404
421 410
421 417
421 425
421 426
421 439
421 451
421 452
421 455
421 479
421 489
422 378
422 383
422 401
422 413
422 430
422 447
422 448
422 457
422 458
422 481
422 482
423 366
423 374
423 391
423 396
423 397
423 400
423 411
423 420
423 432
423 435
423 453
423 462
423 464
423 480
423 484
424 368
424 382
424 385
424 393
424 398
424 399
424 404
424 410
424 416
424 425
424 438
424 444
424 451
424 465
424 474
424 492
425 368
425 375
425 382
425 385
425 387
425 398
425 399
425 404
425 410
425 421
425 424
425 426
425 438
425 451
425 452
425 465
425 474
425 479
425 492
425 494
426 363
426 375
426 385
426 387
426 389
426 404
426 410
426 417
426 421
426 425
426 439
426 440
426 451
426 452
426 455
426 479
426 489
426 490
427 376
427 384
427 390
427 394
427 402
427 408
427 412
427 428
427 441
427 443
427 456
427 468
427 469
427 483
427 486
428 369
428 376
428 390
428 394
428 402
428 405
428 412
428 418
428 427
428 443
428 445
428 456
428 469
428 476
429 371
429 386
429 389
429 406
429 417
429 430
429 433
429 439
429 440
429 446
429 448
429 455
429 467
429 472
429 475
429 497
430 378
430 383
430 386
430 401
430 406
430 413
430 422
430 429
430 433
430 440
430 446
430 447
430 448
430 457
430 467
430 472
430 482
431 372
431 379
431 384
431 392
431 395
431 408
431 411
431 412
431 414
431 441
431 442
431 459
431 460
431 463
431 468
431 477
431 493
432 366
432 391
432 395
432 396
432 400
432 411
432 414
432 423
432 435
432 442
432 460
432 462
432 464
432 484
432 488
433 383
433 386
433 406
433 413
433 417
433 429
433 430
433 439
433 440
433 446
433 448
433 457
433 467
433 472
433 475
433 497
434 370
434 380
434 388
434 403
434 407
434 415
434 419
434 437
434 449
434 450
434 454
434 470
434 471
434 495
434 498
435 374
435 396
435 397
435 400
435 420
435 423
435 432
435 450
435 453
435 462
435 464
435 473
435 480
435 484
436 405
436 409
436 418
436 445
436 461
436 466
436 476
436 478
436 491
437 388
437 393
437 403
437 415
437 416
437 434
437 438
437 444
437 449
437 470
437 471
437 498
437 504
438 382
438 393
438 398
438 399
438 410
438 415
438 416
438 424
438 425
438 437
438 444
438 451
438 465
438 474
438 492
438 496
438 499
439 387
439 389
439 417
439 421
439 426
439 429
439 433
439 440
439 446
439 452
439 455
439 472
439 475
439 489
439 490
439 501
440 389
440 406
440 417
440 426
440 429
440 430
440 433
440 439
440 446
440 448
440 455
440 467
440 472
440 475
440 490
440 497
440 501
441 384
441 390
441 392
441 408
441 412
441 414
441 427
441 431
441 456
441 459
441 468
441 477
441 483
441 486
441 493
441 500
442 391
442 392
442 395
442 408
442 411
442 414
442 431
442 432
442 459
442 460
442 463
442 464
442 477
442 487
442 488
442 502
443 394
443 402
443 405
443 418
443 427
443 428
443 445
443 456
443 461
443 469
443 476
443 478
443 486
443 508
444 393
444 398
444 415
444 416
444 424
444 437
444 438
444 465
444 471
444 474
444 496
444 504
445 402
445 405
445 409
445 418
445 428
445 436
445 443
445 461
445 466
445 469
445 476
445 478
445 491
446 386
446 406
446 413
446 417
446 429
446 430
446 433
446 439
446 440
446 448
446 457
446 467
446 472
446 475
446 482
446 497
446 501
446 505
447 401
447 406
447 413
447 422
447 430
447 448
447 457
447 458
447 467
447 481
447 482
447 506
448 386
448 406
448 413
448 422
448 429
448 430
448 433
448 440
448 446
448 447
448 457
448 467
448 472
448 481
448 482
448 497
448 505
449 388
449 403
449 407
449 419
449 434
449 437
449 450
449 454
449 470
449 471
449 485
449 495
449 498
450 397
450 403
450 407
450 419
450 420
450 434
450 435
450 449
450 453
450 454
450 473
450 480
450 485
450 495
450 503
450 511
451 399
451 404
451 410
451 421
451 424
451 425
451 426
451 438
451 452
451 455
451 465
451 474
451 479
451 489
451 492
451 494
451 499
451 515
452 387
452 404
452 410
452 421
452 425
452 426
452 439
452 451
452 455
452 465
452 479
452 489
452 490
452 492
452 494
453 396
453 397
453 419
453 420
453 423
453 435
453 450
453 454
453 462
453 464
453 473
453 480
453 484
453 485
453 503
453 507
453 511
454 403
454 407
454 419
454 434
454 449
454 450
454 453
454 470
454 473
454 485
454 495
454 511
455 389
455 404
455 417
455 421
455 426
455 429
455 439
455 440
455 451
455 452
455 472
455 475
455 479
455 489
455 490
455 501
455 510
455 512
456 390
456 394
456 402
456 412
456 427
456 428
456 441
456 443
456 468
456 469
456 476
456 483
456 486
456 500
456 508
456 517
457 401
457 406
457 413
457 422
457 430
457 433
457 446
457 447
457 448
457 458
457 467
457 481
457 482
457 497
457 505
457 506
457 516
457 524
458 401
458 413
458 422
458 447
458 457
458 481
458 482
458 506
459 392
459 408
459 414
459 431
459 441
459 442
459 460
459 463
459 468
459 477
459 483
459 487
459 493
459 500
459 502
459 513
460 395
460 411
460 414
460 431
460 432
460 442
460 459
460 463
460 464
460 477
460 484
460 487
460 488
460 502
460 509
460 521
461 405
461 409
461 418
461 436
461 443
461 445
461 466
461 476
461 478
461 491
461 520
461 522
462 396
462 400
462 420
462 423
462 432
462 435
462 453
462 464
462 473
462 480
462 484
462 488
462 503
462 507
462 525
463 395
463 411
463 414
463 431
463 442
463 459
463 460
463 477
463 487
463 488
463 493
463 502
463 509
463 513
463 521
464 400
464 411
464 423
464 432
464 435
464 442
464 453
464 460
464 462
464 480
464 484
464 487
464 488
464 507
464 509
464 525
465 398
465 399
465 416
465 424
465 425
465 438
465 444
465 451
465 452
465 474
465 479
465 492
465 494
465 496
465 499
465 515
465 518
465 529
466 409
466 436
466 445
466 461
466 476
466 478
466 491
466 522
467 406
467 413
467 429
467 430
467 433
467 440
467 446
467 447
467 448
467 457
467 472
467 475
467 482
467 497
467 501
467 505
467 519
467 524
467 527
468 408
468 412
468 427
468 431
468 441
468 456
468 459
468 469
468 477
468 483
468 486
468 493
468 500
468 502
468 513
468 517
469 402
469 418
469 427
469 428
469 443
469 445
469 456
469 468
469 476
469 478
469 483
469 486
469 508
469 517
469 532
470 434
470 437
470 449
470 454
470 471
470 485
470 495
470 498
470 504
470 514
470 523
470 528
471 415
471 434
471 437
471 444
471 449
471 470
471 495
471 496
471 498
471 504
471 514
471 526
471 528
472 417
472 429
472 430
472 433
472 439
472 440
472 446
472 448
472 455
472 467
472 475
472 490
472 497
472 501
472 505
472 510
472 519
472 527
473 419
473 420
473 435
473 450
473 453
473 454
473 462
473 480
473 484
473 485
473 503
473 507
473 511
473 533
474 416
474 424
474 425
474 438
474 444
474 451
474 465
474 492
474 494
474 496
474 499
474 504
474 518
474 526
474 529
475 417
475 429
475 433
475 439
475 440
475 446
475 455
475 467
475 472
475 489
475 490
475 497
475 501
475 510
475 512
475 519
475 540
476 418
476 428
476 436
476 443
476 445
476 456
476 461
476 466
476 469
476 478
476 486
476 491
476 508
476 520
476 532
477 414
477 431
477 441
477 442
477 459
477 460
477 463
477 468
477 483
477 487
477 493
477 500
477 502
477 513
477 521
477 534
477 535
478 418
478 436
478 443
478 445
478 461
478 466
478 469
478 476
478 491
478 508
478 520
478 522
478 532
478 542
479 421
479 425
479 426
479 451
479 452
479 455
479 465
479 489
479 490
479 492
479 494
479 499
479 512
479 515
479 529
479 530
479 531
480 420
480 423
480 435
480 450
480 453
480 462
480 464
480 473
480 484
480 485
480 503
480 507
480 511
480 525
480 533
480 543
481 422
481 447
481 448
481 457
481 458
481 482
481 505
481 506
481 516
481 524
481 536
481 541
482 413
482 422
482 430
482 446
482 447
482 448
482 457
482 458
482 467
482 481
482 497
482 505
482 506
482 516
482 524
482 527
482 536
482 541
482 546
483 412
483 427
483 441
483 456
483 459
483 468
483 469
483 477
483 486
483 493
483 500
483 513
483 517
483 535
483 537
483 547
484 423
484 432
484 435
484 453
484 460
484 462
484 464
484 473
484 480
484 488
484 503
484 507
484 509
484 525
484 533
484 543
485 419
485 449
485 450
485 453
485 454
485 470
485 473
485 480
485 495
485 503
485 511
485 523
485 528
485 544
486 427
486 441
486 443
486 456
486 468
486 469
486 476
486 483
486 493
486 500
486 508
486 517
486 532
486 537
487 442
487 459
487 460
487 463
487 464
487 477
487 488
487 493
487 502
487 509
487 513
487 521
487 525
487 534
487 538
488 432
488 442
488 460
488 462
488 463
488 464
488 484
488 487
488 502
488 507
488 509
488 521
488 525
488 538
489 421
489 426
489 439
489 451
489 452
489 455
489 475
489 479
489 490
489 494
489 510
489 512
489 515
489 530
489 531
489 540
489 553
490 426
490 439
490 440
490 452
490 455
490 472
490 475
490 479
490 489
490 501
490 510
490 512
490 519
490 530
490 531
490 540
491 436
491 445
491 461
491 466
491 476
491 478
491 508
491 520
491 522
491 542
491 552
492 424
492 425
492 438
492 451
492 452
492 465
492 474
492 479
492 494
492 496
492 499
492 515
492 518
492 529
492 545
493 431
493 441
493 459
493 463
493 468
493 477
493 483
493 486
493 487
493 500
493 502
493 513
493 517
493 521
493 534
493 535
493 547
494 425
494 451
494 452
494 465
494 474
494 479
494 489
494 492
494 499
494 515
494 518
494 529
494 530
494 531
494 545
494 559
495 434
495 449
495 450
495 454
495 470
495 471
495 485
495 498
495 504
495 511
495 514
495 523
495 528
495 539
495 544
495 550
495 560
496 438
496 444
496 465
496 471
496 474
496 492
496 499
496 504
496 514
496 518
496 526
496 529
496 545
496 548
496 555
497 429
497 433
497 440
497 446
497 448
497 457
497 467
497 472
497 475
497 482
497 501
497 505
497 510
497 516
497 519
497 524
497 527
497 546
497 562
498 434
498 437
498 449
498 470
498 471
498 495
498 504
498 514
498 523
498 526
498 528
498 539
498 548
498 550
499 438
499 451
499 465
499 474
499 479
499 492
499 494
499 496
499 504
499 515
499 518
499 526
499 529
499 545
499 555
500 441
500 456
500 459
500 468
500 477
500 483
500 486
500 493
500 502
500 513
500 517
500 534
500 535
500 537
500 547
500 567
501 439
501 440
501 446
501 455
501 467
501 472
501 475
501 490
501 497
501 505
501 510
501 512
501 519
501 527
501 530
501 540
501 551
501 562
502 442
502 459
502 460
502 463
502 468
502 477
502 487
502 488
502 493
502 500
502 509
502 513
502 521
502 534
502 535
502 538
502 558
502 568
503 450
503 453
503 462
503 473
503 480
503 484
503 485
503 507
503 511
503 525
503 533
503 543
503 544
503 554
503 565
504 437
504 444
504 470
504 471
504 474
504 495
504 496
504 498
504 499
504 514
504 518
504 526
504 528
504 539
504 548
504 550
504 555
505 446
505 448
505 457
505 467
505 472
505 481
505 482
505 497
505 501
505 506
505 516
505 519
505 524
505 527
505 541
505 546
505 562
505 571
506 447
506 457
506 458
506 481
506 482
506 505
506 516
506 524
506 536
506 541
507 453
507 462
507 464
507 473
507 480
507 484
507 488
507 503
507 509
507 511
507 525
507 533
507 543
507 554
507 563
507 565
508 443
508 456
508 469
508 476
508 478
508 486
508 491
508 517
508 520
508 532
508 537
508 549
508 557
509 460
509 463
509 464
509 484
509 487
509 488
509 502
509 507
509 521
509 525
509 534
509 538
509 543
509 558
509 561
509 563
510 455
510 472
510 475
510 489
510 490
510 497
510 501
510 512
510 519
510 527
510 530
510 540
510 551
510 553
510 562
510 566
511 450
511 453
511 454
511 473
511 480
511 485
511 495
511 503
511 507
511 523
511 528
511 533
511 544
511 554
511 560
511 575
511 576
512 455
512 475
512 479
512 489
512 490
512 501
512 510
512 515
512 519
512 530
512 531
512 540
512 551
512 553
512 556
512 566
513 459
513 463
513 468
513 477
513 483
513 487
513 493
513 500
513 502
513 517
513 521
513 534
513 535
513 538
513 547
513 558
513 567
513 568
514 470
514 471
514 495
514 496
514 498
514 504
514 523
514 526
514 528
514 539
514 548
514 550
514 574
514 577
515 451
515 465
515 479
515 489
515 492
515 494
515 499
515 512
515 518
515 529
515 530
515 531
515 545
515 553
515 556
515 559
515 569
515 587
516 457
516 481
516 482
516 497
516 505
516 506
516 524
516 527
516 536
516 541
516 546
516 571
516 573
516 578
517 456
517 468
517 469
517 483
517 486
517 493
517 500
517 508
517 513
517 532
517 535
517 537
517 547
517 549
517 564
517 585
518 465
518 474
518 492
518 494
518 496
518 499
518 504
518 515
518 526
518 529
518 545
518 548
518 555
518 559
518 569
518 581
518 588
519 467
519 472
519 475
519 490
519 497
519 501
519 505
519 510
519 512
519 524
519 527
519 540
519 546
519 551
519 562
519 579
519 582
520 461
520 476
520 478
520 491
520 508
520 522
520 532
520 542
520 549
520 552
520 557
520 570
520 572
520 583
521 460
521 463
521 477
521 487
521 488
521 493
521 502
521 509
521 513
521 525
521 534
521 535
521 538
521 558
521 561
521 567
521 568
521 586
522 461
522 466
522 478
522 491
522 520
522 542
522 552
522 557
522 570
522 572
523 470
523 485
523 495
523 498
523 511
523 514
523 528
523 539
523 544
523 550
523 554
523 560
523 575
523 584
524 457
524 467
524 481
524 482
524 497
524 505
524 506
524 516
524 519
524 527
524 536
524 541
524 546
524 562
524 571
524 573
524 578
525 462
525 464
525 480
525 484
525 487
525 488
525 503
525 507
525 509
525 521
525 533
525 538
525 543
525 561
525 563
525 565
525 580
526 471
526 474
526 496
526 498
526 499
526 504
526 514
526 518
526 528
526 539
526 545
526 548
526 555
526 574
526 577
526 581
527 467
527 472
527 482
527 497
527 501
527 505
527 510
527 516
527 519
527 524
527 541
527 546
527 551
527 562
527 571
527 579
528 470
528 471
528 485
528 495
528 498
528 504
528 511
528 514
528 523
528 526
528 539
528 544
528 548
528 550
528 560
528 574
528 575
528 584
529 465
529 474
529 479
529 492
529 494
529 496
529 499
529 515
529 518
529 531
529 545
529 555
529 556
529 559
529 569
529 587
529 588
530 479
530 489
530 490
530 494
530 501
530 510
530 512
530 515
530 531
530 540
530 551
530 553
530 556
530 559
530 566
531 479
531 489
531 490
531 494
531 512
531 515
531 529
531 530
531 540
531 553
531 556
531 559
531 566
531 569
531 587
532 469
532 476
532 478
532 486
532 508
532 517
532 520
532 537
532 542
532 549
532 557
532 564
532 570
532 572
532 583
532 590
533 473
533 480
533 484
533 503
533 507
533 511
533 525
533 543
533 544
533 554
533 563
533 565
533 576
533 589
534 477
534 487
534 493
534 500
534 502
534 509
534 513
534 521
534 535
534 538
534 547
534 558
534 561
534 567
534 568
534 586
535 477
535 483
535 493
535 500
535 502
535 513
535 517
535 521
535 534
535 547
535 558
535 564
535 567
535 568
535 585
535 586
536 481
536 482
536 506
536 516
536 524
536 541
536 546
536 571
536 573
536 578
537 483
537 486
537 500
537 508
537 517
537 532
537 547
537 549
537 557
537 564
537 583
537 585
537 590
538 487
538 488
538 502
538 509
538 513
538 521
538 525
538 534
538 543
538 558
538 561
538 563
538 568
538 580
538 586
539 495
539 498
539 504
539 514
539 523
539 526
539 528
539 548
539 550
539 555
539 560
539 574
539 577
539 581
539 584
540 475
540 489
540 490
540 501
540 510
540 512
540 519
540 530
540 531
540 551
540 553
540 556
540 562
540 566
540 579
540 582
541 481
541 482
541 505
541 506
541 516
541 524
541 527
541 536
541 546
541 571
541 573
541 578
542 478
542 491
542 520
542 522
542 532
542 552
542 557
542 570
542 572
542 583
543 480
543 484
543 503
543 507
543 509
543 525
543 533
543 538
543 554
543 561
543 563
543 565
543 580
543 589
544 485
544 495
544 503
544 511
544 523
544 528
544 533
544 550
544 554
544 560
544 575
544 576
544 584
544 589
545 492
545 494
545 496
545 499
545 515
545 518
545 526
545 529
545 555
545 556
545 559
545 569
545 581
545 587
545 588
546 482
546 497
546 505
546 516
546 519
546 524
546 527
546 536
546 541
546 562
546 571
546 573
546 578
546 579
547 483
547 493
547 500
547 513
547 517
547 534
547 535
547 537
547 564
547 567
547 568
547 585
547 586
547 590
548 496
548 498
548 504
548 514
548 518
548 526
548 528
548 539
548 550
548 555
548 574
548 577
548 581
548 588
549 508
549 517
549 520
549 532
549 537
549 557
549 564
549 572
549 583
549 590
550 495
550 498
550 504
550 514
550 523
550 528
550 539
550 544
550 548
550 560
550 574
550 575
550 577
550 584
551 501
551 510
551 512
551 519
551 527
551 530
551 540
551 553
551 562
551 566
551 579
551 582
552 491
552 520
552 522
552 542
552 557
552 570
552 572
552 583
553 489
553 510
553 512
553 515
553 530
553 531
553 540
553 551
553 556
553 559
553 566
553 569
553 582
553 587
554 503
554 507
554 511
554 523
554 533
554 543
554 544
554 560
554 565
554 575
554 576
554 589
555 496
555 499
555 504
555 518
555 526
555 529
555 539
555 545
555 548
555 569
555 577
555 581
555 588
556 512
556 515
556 529
556 530
556 531
556 540
556 545
556 553
556 559
556 566
556 569
556 587
557 508
557 520
557 522
557 532
557 537
557 542
557 549
557 552
557 570
557 572
557 583
557 590
558 502
558 509
558 513
558 521
558 534
558 535
558 538
558 561
558 563
558 567
558 568
558 580
558 586
559 494
559 515
559 518
559 529
559 530
559 531
559 545
559 553
559 556
559 566
559 569
559 587
559 588
560 495
560 511
560 523
560 528
560 539
560 544
560 550
560 554
560 574
560 575
560 576
560 584
561 509
561 521
561 525
561 534
561 538
561 543
561 558
561 563
561 565
561 568
561 580
562 497
562 501
562 505
562 510
562 519
562 524
562 527
562 540
562 546
562 551
562 571
562 578
562 579
562 582
563 507
563 509
563 525
563 533
563 538
563 543
563 558
563 561
563 565
563 580
564 517
564 532
564 535
564 537
564 547
564 549
564 567
564 585
564 590
565 503
565 507
565 525
565 533
565 543
565 554
565 561
565 563
565 576
565 580
565 589
566 510
566 512
566 530
566 531
566 540
566 551
566 553
566 556
566 559
566 579
566 582
566 587
567 500
567 513
567 521
567 534
567 535
567 547
567 558
567 564
567 568
567 585
567 586
568 502
568 513
568 521
568 534
568 535
568 538
568 547
568 558
568 561
568 567
568 585
568 586
569 515
569 518
569 529
569 531
569 545
569 553
569 555
569 556
569 559
569 581
569 587
569 588
570 520
570 522
570 532
570 542
570 552
570 557
570 572
570 583
571 505
571 516
571 524
571 527
571 536
571 541
571 546
571 562
571 573
571 578
571 579
572 520
572 522
572 532
572 542
572 549
572 552
572 557
572 570
572 583
573 516
573 524
573 536
573 541
573 546
573 571
573 578
574 514
574 526
574 528
574 539
574 548
574 550
574 560
574 575
574 577
574 581
574 584
575 511
575 523
575 528
575 544
575 550
575 554
575 560
575 574
575 576
575 584
575 589
576 511
576 533
576 544
576 554
576 560
576 565
576 575
576 584
576 589
577 514
577 526
577 539
577 548
577 550
577 555
577 574
577 581
577 584
577 588
578 516
578 524
578 536
578 541
578 546
578 562
578 571
578 573
579 519
579 527
579 540
579 546
579 551
579 562
579 566
579 571
579 582
580 525
580 538
580 543
580 558
580 561
580 563
580 565
581 518
581 526
581 539
581 545
581 548
581 555
581 569
581 574
581 577
581 588
582 519
582 540
582 551
582 553
582 562
582 566
582 579
583 520
583 532
583 537
583 542
583 549
583 552
583 557
583 570
583 572
583 590
584 523
584 528
584 539
584 544
584 550
584 560
584 574
584 575
584 576
584 577
585 517
585 535
585 537
585 547
585 564
585 567
585 568
585 586
585 590
586 521
586 534
586 535
586 538
586 547
586 558
586 567
586 568
586 585
587 515
587 529
587 531
587 545
587 553
587 556
587 559
587 566
587 569
588 518
588 529
588 545
588 548
588 555
588 559
588 569
588 577
588 581
589 533
589 543
589 544
589 554
589 565
589 575
589 576
590 532
590 537
590 547
590 549
590 557
590 564
590 583
590 585
