1 2
1 9
1 18
1 19
1 20
1 32
1 35
1 54
1 59
1 60
2 1
2 16
2 18
2 19
2 20
2 32
2 33
2 35
2 45
2 52
2 54
3 10
3 22
3 23
3 26
3 31
3 43
3 55
4 14
4 28
4 29
4 30
4 39
4 47
4 51
5 11
5 12
5 15
5 37
5 40
5 42
5 49
5 61
5 64
5 66
6 7
6 13
6 16
6 24
6 25
6 33
6 34
6 36
6 44
6 53
6 63
6 69
7 6
7 8
7 17
7 24
7 25
7 28
7 34
7 38
7 44
7 57
7 65
7 74
8 7
8 14
8 17
8 24
8 28
8 38
8 39
8 50
8 57
8 62
8 67
8 74
9 1
9 11
9 12
9 19
9 32
9 40
9 41
9 49
9 59
9 73
10 3
10 22
10 23
10 26
10 27
10 31
10 43
10 55
10 58
10 68
10 75
11 5
11 9
11 12
11 15
11 37
11 40
11 41
11 49
11 61
11 64
11 66
12 5
12 9
12 11
12 15
12 19
12 40
12 41
12 49
12 64
12 73
12 81
13 6
13 16
13 20
13 25
13 33
13 34
13 36
13 44
13 45
13 52
13 53
13 63
13 69
14 4
14 8
14 17
14 28
14 29
14 30
14 38
14 39
14 47
14 50
14 51
14 62
14 67
14 70
15 5
15 11
15 12
15 27
15 37
15 40
15 42
15 49
15 61
15 64
15 66
15 72
15 78
16 2
16 6
16 13
16 18
16 20
16 33
16 35
16 36
16 45
16 52
16 53
16 54
16 69
16 77
16 79
16 83
17 7
17 8
17 14
17 24
17 28
17 34
17 38
17 39
17 50
17 57
17 62
17 65
17 67
17 74
18 1
18 2
18 16
18 19
18 20
18 32
18 35
18 45
18 52
18 54
18 59
18 60
18 77
18 79
18 82
19 1
19 2
19 9
19 12
19 18
19 32
19 35
19 41
19 54
19 59
19 60
19 73
19 82
19 87
20 1
20 2
20 13
20 16
20 18
20 32
20 33
20 35
20 36
20 45
20 52
20 53
20 54
20 60
20 77
20 79
20 83
20 89
21 22
21 46
21 48
21 71
21 94
22 3
22 10
22 21
22 26
22 31
22 43
22 46
22 48
22 55
22 71
22 75
22 84
22 86
23 3
23 10
23 26
23 27
23 31
23 42
23 43
23 56
23 58
23 68
23 72
23 75
23 76
23 90
23 92
24 6
24 7
24 8
24 17
24 25
24 28
24 34
24 38
24 44
24 50
24 57
24 62
24 63
24 65
24 74
24 88
24 95
25 6
25 7
25 13
25 24
25 33
25 34
25 36
25 44
25 53
25 57
25 63
25 65
25 69
25 85
25 88
25 98
26 3
26 10
26 22
26 23
26 27
26 31
26 43
26 46
26 55
26 56
26 58
26 68
26 75
26 84
26 90
27 10
27 15
27 23
27 26
27 37
27 42
27 43
27 56
27 58
27 68
27 72
27 76
27 78
27 92
28 4
28 7
28 8
28 14
28 17
28 24
28 30
28 38
28 39
28 50
28 51
28 57
28 62
28 67
28 70
28 74
28 91
29 4
29 14
29 30
29 39
29 47
29 51
29 70
29 80
29 103
30 4
30 14
30 28
30 29
30 39
30 47
30 50
30 51
30 67
30 70
30 80
30 99
30 103
31 3
31 10
31 22
31 23
31 26
31 43
31 46
31 55
31 58
31 68
31 71
31 75
31 84
31 102
32 1
32 2
32 9
32 18
32 19
32 20
32 35
32 41
32 45
32 54
32 59
32 60
32 79
32 82
32 87
33 2
33 6
33 13
33 16
33 20
33 25
33 34
33 35
33 36
33 44
33 45
33 52
33 53
33 63
33 69
33 77
33 83
33 97
34 6
34 7
34 13
34 17
34 24
34 25
34 33
34 36
34 38
34 44
34 53
34 57
34 63
34 65
34 69
34 74
34 85
34 88
34 95
35 1
35 2
35 16
35 18
35 19
35 20
35 32
35 33
35 45
35 52
35 53
35 54
35 59
35 60
35 77
35 79
35 82
35 83
35 89
35 105
36 6
36 13
36 16
36 20
36 25
36 33
36 34
36 44
36 45
36 52
36 53
36 63
36 65
36 69
36 77
36 83
36 85
36 88
36 97
36 98
37 5
37 11
37 15
37 27
37 40
37 42
37 56
37 61
37 64
37 66
37 72
37 76
37 78
37 93
37 104
38 7
38 8
38 14
38 17
38 24
38 28
38 34
38 39
38 50
38 57
38 62
38 65
38 67
38 74
38 91
38 95
38 100
38 109
39 4
39 8
39 14
39 17
39 28
39 29
39 30
39 38
39 47
39 50
39 51
39 62
39 67
39 70
39 80
39 91
39 99
39 101
39 103
39 109
40 5
40 9
40 11
40 12
40 15
40 37
40 41
40 49
40 61
40 64
40 66
40 73
40 81
40 93
40 96
40 104
40 107
40 115
40 117
41 9
41 11
41 12
41 19
41 32
41 40
41 49
41 59
41 60
41 64
41 66
41 73
41 81
41 87
41 96
41 106
41 107
42 5
42 15
42 23
42 27
42 37
42 56
42 58
42 61
42 66
42 72
42 76
42 78
42 92
42 93
42 116
42 118
43 3
43 10
43 22
43 23
43 26
43 27
43 31
43 55
43 56
43 58
43 68
43 75
43 76
43 84
43 90
43 92
43 102
43 112
44 6
44 7
44 13
44 24
44 25
44 33
44 34
44 36
44 53
44 57
44 63
44 65
44 69
44 74
44 85
44 88
44 95
44 97
44 98
44 108
44 121
45 2
45 13
45 16
45 18
45 20
45 32
45 33
45 35
45 36
45 52
45 53
45 54
45 60
45 69
45 77
45 79
45 82
45 83
45 89
45 105
45 111
45 114
46 21
46 22
46 26
46 31
46 48
46 55
46 71
46 75
46 84
46 86
46 94
46 102
46 113
47 4
47 14
47 29
47 30
47 39
47 51
47 67
47 70
47 80
47 99
47 103
47 124
48 21
48 22
48 46
48 55
48 71
48 84
48 86
48 94
48 113
49 5
49 9
49 11
49 12
49 15
49 40
49 41
49 61
49 64
49 66
49 73
49 81
49 96
49 104
49 106
49 107
49 115
49 117
50 8
50 14
50 17
50 24
50 28
50 30
50 38
50 39
50 51
50 57
50 62
50 67
50 70
50 74
50 91
50 95
50 99
50 100
50 101
50 109
50 119
51 4
51 14
51 28
51 29
51 30
51 39
51 47
51 50
51 67
51 70
51 80
51 99
51 101
51 103
51 124
52 2
52 13
52 16
52 18
52 20
52 33
52 35
52 36
52 45
52 53
52 54
52 69
52 77
52 79
52 83
52 89
52 97
52 98
52 105
52 111
52 114
53 6
53 13
53 16
53 20
53 25
53 33
53 34
53 35
53 36
53 44
53 45
53 52
53 63
53 69
53 77
53 83
53 85
53 89
53 97
53 98
53 111
53 123
53 129
54 1
54 2
54 16
54 18
54 19
54 20
54 32
54 35
54 45
54 52
54 59
54 60
54 77
54 79
54 82
54 83
54 87
54 89
54 105
54 110
54 114
54 132
55 3
55 10
55 22
55 26
55 31
55 43
55 46
55 48
55 58
55 68
55 71
55 75
55 84
55 86
55 90
55 94
55 102
55 112
55 113
55 126
55 128
56 23
56 26
56 27
56 37
56 42
56 43
56 58
56 61
56 68
56 72
56 76
56 78
56 90
56 92
56 93
56 116
56 118
57 7
57 8
57 17
57 24
57 25
57 28
57 34
57 38
57 44
57 50
57 62
57 63
57 65
57 67
57 74
57 85
57 88
57 91
57 95
57 100
57 108
57 119
57 127
57 130
58 10
58 23
58 26
58 27
58 31
58 42
58 43
58 55
58 56
58 68
58 72
58 75
58 76
58 90
58 92
58 102
58 112
58 118
59 1
59 9
59 18
59 19
59 32
59 35
59 41
59 54
59 60
59 73
59 79
59 81
59 82
59 87
59 105
59 106
59 110
59 122
59 125
60 1
60 18
60 19
60 20
60 32
60 35
60 41
60 45
60 54
60 59
60 73
60 77
60 79
60 82
60 87
60 89
60 105
60 110
60 125
61 5
61 11
61 15
61 37
61 40
61 42
61 49
61 56
61 64
61 66
61 72
61 76
61 78
61 81
61 93
61 96
61 104
61 115
61 116
61 117
61 120
62 8
62 14
62 17
62 24
62 28
62 38
62 39
62 50
62 57
62 65
62 67
62 70
62 74
62 91
62 95
62 100
62 101
62 108
62 109
62 119
62 127
63 6
63 13
63 24
63 25
63 33
63 34
63 36
63 44
63 53
63 57
63 65
63 69
63 74
63 85
63 88
63 95
63 97
63 98
63 108
63 121
63 123
63 130
63 131
64 5
64 11
64 12
64 15
64 37
64 40
64 41
64 49
64 61
64 66
64 73
64 78
64 81
64 93
64 96
64 104
64 106
64 107
64 115
64 117
64 120
64 137
65 7
65 17
65 24
65 25
65 34
65 36
65 38
65 44
65 57
65 62
65 63
65 69
65 74
65 85
65 88
65 91
65 95
65 98
65 100
65 108
65 121
65 127
65 130
65 141
66 5
66 11
66 15
66 37
66 40
66 41
66 42
66 49
66 61
66 64
66 72
66 73
66 78
66 81
66 93
66 96
66 104
66 107
66 115
66 116
66 117
66 120
66 137
67 8
67 14
67 17
67 28
67 30
67 38
67 39
67 47
67 50
67 51
67 57
67 62
67 70
67 74
67 80
67 91
67 99
67 100
67 101
67 103
67 109
67 119
67 140
67 142
68 10
68 23
68 26
68 27
68 31
68 43
68 55
68 56
68 58
68 71
68 75
68 76
68 84
68 90
68 92
68 102
68 112
68 126
68 136
69 6
69 13
69 16
69 25
69 33
69 34
69 36
69 44
69 45
69 52
69 53
69 63
69 65
69 77
69 83
69 85
69 88
69 89
69 97
69 98
69 111
69 114
69 121
69 123
69 129
69 131
70 14
70 28
70 29
70 30
70 39
70 47
70 50
70 51
70 62
70 67
70 80
70 91
70 99
70 101
70 103
70 109
70 119
70 124
70 140
71 21
71 22
71 31
71 46
71 48
71 55
71 68
71 75
71 84
71 86
71 94
71 102
71 112
71 113
71 126
71 128
71 133
72 15
72 23
72 27
72 37
72 42
72 56
72 58
72 61
72 66
72 76
72 78
72 90
72 92
72 93
72 104
72 116
72 118
72 120
72 134
72 143
72 144
73 9
73 12
73 19
73 40
73 41
73 49
73 59
73 60
73 64
73 66
73 81
73 82
73 87
73 96
73 106
73 107
73 115
73 117
73 122
73 125
73 138
74 7
74 8
74 17
74 24
74 28
74 34
74 38
74 44
74 50
74 57
74 62
74 63
74 65
74 67
74 85
74 88
74 91
74 95
74 100
74 101
74 108
74 109
74 119
74 127
74 130
75 10
75 22
75 23
75 26
75 31
75 43
75 46
75 55
75 58
75 68
75 71
75 84
75 86
75 90
75 92
75 102
75 112
75 113
75 126
75 128
75 149
76 23
76 27
76 37
76 42
76 43
76 56
76 58
76 61
76 68
76 72
76 78
76 90
76 92
76 93
76 116
76 118
76 120
76 134
76 136
76 143
76 144
77 16
77 18
77 20
77 33
77 35
77 36
77 45
77 52
77 53
77 54
77 60
77 69
77 79
77 82
77 83
77 89
77 97
77 105
77 110
77 111
77 114
77 123
77 129
77 132
77 139
78 15
78 27
78 37
78 42
78 56
78 61
78 64
78 66
78 72
78 76
78 92
78 93
78 104
78 115
78 116
78 118
78 120
78 137
78 143
78 144
78 151
79 16
79 18
79 20
79 32
79 35
79 45
79 52
79 54
79 59
79 60
79 77
79 82
79 83
79 87
79 89
79 105
79 110
79 111
79 114
79 125
79 129
79 132
79 139
79 145
79 146
80 29
80 30
80 39
80 47
80 51
80 67
80 70
80 99
80 101
80 103
80 124
80 147
81 12
81 40
81 41
81 49
81 59
81 61
81 64
81 66
81 73
81 87
81 96
81 104
81 106
81 107
81 115
81 117
81 122
81 138
81 150
81 153
81 156
82 18
82 19
82 32
82 35
82 45
82 54
82 59
82 60
82 73
82 77
82 79
82 87
82 89
82 105
82 106
82 110
82 114
82 122
82 125
82 132
82 145
82 146
83 16
83 20
83 33
83 35
83 36
83 45
83 52
83 53
83 54
83 69
83 77
83 79
83 89
83 97
83 98
83 105
83 111
83 114
83 123
83 129
83 131
83 132
83 139
83 155
83 162
84 22
84 26
84 31
84 43
84 46
84 48
84 55
84 68
84 71
84 75
84 86
84 90
84 94
84 102
84 112
84 113
84 126
84 128
84 133
84 149
84 154
85 25
85 34
85 36
85 44
85 53
85 57
85 63
85 65
85 69
85 74
85 88
85 95
85 97
85 98
85 100
85 108
85 121
85 123
85 127
85 130
85 131
85 141
85 148
85 160
85 164
86 22
86 46
86 48
86 55
86 71
86 75
86 84
86 94
86 102
86 112
86 113
86 126
86 128
86 133
86 135
86 154
87 19
87 32
87 41
87 54
87 59
87 60
87 73
87 79
87 81
87 82
87 105
87 106
87 107
87 110
87 122
87 125
87 145
87 146
87 153
88 24
88 25
88 34
88 36
88 44
88 57
88 63
88 65
88 69
88 74
88 85
88 95
88 97
88 98
88 100
88 108
88 121
88 123
88 127
88 130
88 131
88 141
88 148
88 164
89 20
89 35
89 45
89 52
89 53
89 54
89 60
89 69
89 77
89 79
89 82
89 83
89 97
89 105
89 110
89 111
89 114
89 123
89 129
89 132
89 139
89 145
89 146
89 158
90 23
90 26
90 43
90 55
90 56
90 58
90 68
90 72
90 75
90 76
90 84
90 92
90 102
90 112
90 118
90 126
90 128
90 134
90 136
90 143
90 149
90 161
91 28
91 38
91 39
91 50
91 57
91 62
91 65
91 67
91 70
91 74
91 95
91 99
91 100
91 101
91 108
91 109
91 119
91 127
91 130
91 140
91 142
91 159
91 163
92 23
92 27
92 42
92 43
92 56
92 58
92 68
92 72
92 75
92 76
92 78
92 90
92 93
92 102
92 112
92 116
92 118
92 134
92 136
92 143
92 144
92 161
92 166
93 37
93 40
93 42
93 56
93 61
93 64
93 66
93 72
93 76
93 78
93 92
93 96
93 104
93 115
93 116
93 117
93 118
93 120
93 137
93 143
93 144
93 150
93 151
93 167
94 21
94 46
94 48
94 55
94 71
94 84
94 86
94 113
94 128
94 133
94 135
94 154
94 171
94 174
95 24
95 34
95 38
95 44
95 50
95 57
95 62
95 63
95 65
95 74
95 85
95 88
95 91
95 98
95 100
95 108
95 109
95 119
95 121
95 127
95 130
95 141
95 142
95 148
95 159
95 163
96 40
96 41
96 49
96 61
96 64
96 66
96 73
96 81
96 93
96 104
96 106
96 107
96 115
96 117
96 120
96 122
96 137
96 138
96 150
96 153
96 156
97 33
97 36
97 44
97 52
97 53
97 63
97 69
97 77
97 83
97 85
97 88
97 89
97 98
97 111
97 114
97 121
97 123
97 129
97 131
97 139
97 148
97 155
97 160
97 162
98 25
98 36
98 44
98 52
98 53
98 63
98 65
98 69
98 83
98 85
98 88
98 95
98 97
98 108
98 111
98 121
98 123
98 129
98 130
98 131
98 141
98 148
98 155
98 160
98 162
98 164
99 30
99 39
99 47
99 50
99 51
99 67
99 70
99 80
99 91
99 101
99 103
99 109
99 119
99 124
99 140
99 142
99 147
99 152
99 157
99 165
100 38
100 50
100 57
100 62
100 65
100 67
100 74
100 85
100 88
100 91
100 95
100 101
100 108
100 109
100 119
100 121
100 127
100 130
100 140
100 141
100 142
100 159
100 163
101 39
101 50
101 51
101 62
101 67
101 70
101 74
101 80
101 91
101 99
101 100
101 103
101 109
101 119
101 124
101 127
101 140
101 142
101 152
101 157
101 165
101 173
102 31
102 43
102 46
102 55
102 58
102 68
102 71
102 75
102 84
102 86
102 90
102 92
102 112
102 113
102 126
102 128
102 136
102 149
102 154
102 161
102 168
102 172
102 175
103 29
103 30
103 39
103 47
103 51
103 67
103 70
103 80
103 99
103 101
103 109
103 124
103 140
103 147
103 152
103 157
104 37
104 40
104 49
104 61
104 64
104 66
104 72
104 78
104 81
104 93
104 96
104 107
104 115
104 116
104 117
104 118
104 120
104 137
104 138
104 144
104 150
104 151
104 156
104 167
105 35
105 45
105 52
105 54
105 59
105 60
105 77
105 79
105 82
105 83
105 87
105 89
105 110
105 111
105 114
105 123
105 125
105 129
105 132
105 139
105 145
105 146
105 158
105 170
105 177
106 41
106 49
106 59
106 64
106 73
106 81
106 82
106 87
106 96
106 107
106 115
106 117
106 122
106 125
106 138
106 150
106 153
106 156
106 184
107 40
107 41
107 49
107 64
107 66
107 73
107 81
107 87
107 96
107 104
107 106
107 115
107 117
107 122
107 125
107 137
107 138
107 150
107 153
107 156
107 184
107 185
108 44
108 57
108 62
108 63
108 65
108 74
108 85
108 88
108 91
108 95
108 98
108 100
108 119
108 121
108 127
108 130
108 131
108 141
108 142
108 148
108 159
108 163
108 164
108 176
109 38
109 39
109 50
109 62
109 67
109 70
109 74
109 91
109 95
109 99
109 100
109 101
109 103
109 119
109 124
109 127
109 140
109 142
109 152
109 157
109 159
109 163
109 165
109 173
110 54
110 59
110 60
110 77
110 79
110 82
110 87
110 89
110 105
110 114
110 122
110 125
110 132
110 139
110 145
110 146
110 158
110 169
110 170
110 182
111 45
111 52
111 53
111 69
111 77
111 79
111 83
111 89
111 97
111 98
111 105
111 114
111 123
111 129
111 131
111 132
111 139
111 146
111 155
111 158
111 160
111 162
111 177
112 43
112 55
112 58
112 68
112 71
112 75
112 84
112 86
112 90
112 92
112 102
112 126
112 128
112 134
112 136
112 149
112 161
112 166
112 172
112 175
113 46
113 48
113 55
113 71
113 75
113 84
113 86
113 94
113 102
113 126
113 128
113 133
113 135
113 154
113 168
113 171
113 174
113 175
114 45
114 52
114 54
114 69
114 77
114 79
114 82
114 83
114 89
114 97
114 105
114 110
114 111
114 123
114 129
114 131
114 132
114 139
114 145
114 146
114 155
114 158
114 162
114 170
114 177
115 40
115 49
115 61
115 64
115 66
115 73
115 78
115 81
115 93
115 96
115 104
115 106
115 107
115 117
115 120
115 122
115 137
115 138
115 150
115 151
115 153
115 156
115 167
115 185
115 187
116 42
116 56
116 61
116 66
116 72
116 76
116 78
116 92
116 93
116 104
116 118
116 120
116 134
116 136
116 137
116 143
116 144
116 151
116 166
116 167
116 178
116 179
117 40
117 49
117 61
117 64
117 66
117 73
117 81
117 93
117 96
117 104
117 106
117 107
117 115
117 120
117 122
117 137
117 138
117 150
117 153
117 156
117 167
117 184
117 185
117 187
118 42
118 56
118 58
118 72
118 76
118 78
118 90
118 92
118 93
118 104
118 116
118 120
118 134
118 136
118 137
118 143
118 144
118 151
118 161
118 166
118 178
118 179
118 188
119 50
119 57
119 62
119 67
119 70
119 74
119 91
119 95
119 99
119 100
119 101
119 108
119 109
119 127
119 130
119 140
119 142
119 152
119 159
119 163
119 165
119 173
119 190
119 194
120 61
120 64
120 66
120 72
120 76
120 78
120 93
120 96
120 104
120 115
120 116
120 117
120 118
120 134
120 137
120 143
120 144
120 150
120 151
120 156
120 167
120 178
120 179
120 187
121 44
121 63
121 65
121 69
121 85
121 88
121 95
121 97
121 98
121 100
121 108
121 123
121 127
121 129
121 130
121 131
121 141
121 148
121 155
121 159
121 160
121 164
121 176
121 180
121 181
121 193
122 59
122 73
122 81
122 82
122 87
122 96
122 106
122 107
122 110
122 115
122 117
122 125
122 138
122 145
122 150
122 153
122 156
122 169
122 184
122 185
122 186
123 53
123 63
123 69
123 77
123 83
123 85
123 88
123 89
123 97
123 98
123 105
123 111
123 114
123 121
123 129
123 131
123 132
123 139
123 141
123 148
123 155
123 158
123 160
123 162
123 164
123 177
123 180
123 181
123 189
124 47
124 51
124 70
124 80
124 99
124 101
124 103
124 109
124 140
124 147
124 152
124 157
124 165
124 183
124 203
125 59
125 60
125 73
125 79
125 82
125 87
125 105
125 106
125 107
125 110
125 122
125 132
125 138
125 145
125 146
125 153
125 158
125 169
125 170
125 182
125 184
125 186
125 201
126 55
126 68
126 71
126 75
126 84
126 86
126 90
126 102
126 112
126 113
126 128
126 133
126 136
126 149
126 154
126 161
126 168
126 172
126 175
126 191
126 192
127 57
127 62
127 65
127 74
127 85
127 88
127 91
127 95
127 100
127 101
127 108
127 109
127 119
127 121
127 130
127 140
127 141
127 142
127 148
127 159
127 163
127 164
127 173
127 176
127 190
127 194
127 198
128 55
128 71
128 75
128 84
128 86
128 90
128 94
128 102
128 112
128 113
128 126
128 133
128 135
128 149
128 154
128 161
128 168
128 171
128 172
128 175
128 191
128 197
129 53
129 69
129 77
129 79
129 83
129 89
129 97
129 98
129 105
129 111
129 114
129 121
129 123
129 131
129 132
129 139
129 146
129 148
129 155
129 158
129 160
129 162
129 170
129 177
129 180
129 181
129 189
129 202
130 57
130 63
130 65
130 74
130 85
130 88
130 91
130 95
130 98
130 100
130 108
130 119
130 121
130 127
130 131
130 141
130 142
130 148
130 159
130 160
130 163
130 164
130 176
130 190
130 193
130 198
130 205
131 63
131 69
131 83
131 85
131 88
131 97
131 98
131 108
131 111
131 114
131 121
131 123
131 129
131 130
131 139
131 141
131 148
131 155
131 160
131 162
131 164
131 176
131 180
131 181
131 189
131 193
132 54
132 77
132 79
132 82
132 83
132 89
132 105
132 110
132 111
132 114
132 123
132 125
132 129
132 139
132 145
132 146
132 158
132 162
132 169
132 170
132 177
132 182
132 195
132 200
132 202
133 71
133 84
133 86
133 94
133 113
133 126
133 128
133 135
133 154
133 168
133 171
133 174
133 175
133 196
133 197
133 212
134 72
134 76
134 90
134 92
134 112
134 116
134 118
134 120
134 136
134 143
134 144
134 149
134 151
134 161
134 166
134 178
134 179
134 188
134 192
134 215
135 86
135 94
135 113
135 128
135 133
135 154
135 168
135 171
135 174
135 196
135 197
135 218
136 68
136 76
136 90
136 92
136 102
136 112
136 116
136 118
136 126
136 134
136 143
136 144
136 149
136 151
136 161
136 166
136 172
136 178
136 188
136 191
136 192
137 64
137 66
137 78
137 93
137 96
137 104
137 107
137 115
137 116
137 117
137 118
137 120
137 138
137 143
137 144
137 150
137 151
137 156
137 167
137 178
137 179
137 185
137 187
137 206
137 209
137 210
138 73
138 81
138 96
138 104
138 106
138 107
138 115
138 117
138 122
138 125
138 137
138 150
138 153
138 156
138 167
138 169
138 184
138 185
138 186
138 187
138 210
138 211
139 77
139 79
139 83
139 89
139 97
139 105
139 110
139 111
139 114
139 123
139 129
139 131
139 132
139 145
139 146
139 155
139 158
139 160
139 162
139 170
139 177
139 181
139 189
139 195
139 200
139 202
140 67
140 70
140 91
140 99
140 100
140 101
140 103
140 109
140 119
140 124
140 127
140 142
140 147
140 152
140 157
140 159
140 163
140 165
140 173
140 183
140 194
140 199
140 203
140 204
141 65
141 85
141 88
141 95
141 98
141 100
141 108
141 121
141 123
141 127
141 130
141 131
141 148
141 155
141 159
141 160
141 163
141 164
141 176
141 180
141 190
141 193
141 198
141 205
141 216
142 67
142 91
142 95
142 99
142 100
142 101
142 108
142 109
142 119
142 127
142 130
142 140
142 152
142 157
142 159
142 163
142 165
142 173
142 176
142 190
142 194
142 198
142 199
142 204
143 72
143 76
143 78
143 90
143 92
143 93
143 116
143 118
143 120
143 134
143 136
143 137
143 144
143 151
143 161
143 166
143 178
143 179
143 188
143 208
143 209
143 215
144 72
144 76
144 78
144 92
144 93
144 104
144 116
144 118
144 120
144 134
144 136
144 137
144 143
144 151
144 166
144 167
144 178
144 179
144 188
144 206
144 208
144 209
144 215
145 79
145 82
145 87
145 89
145 105
145 110
145 114
145 122
145 125
145 132
145 139
145 146
145 153
145 158
145 169
145 170
145 177
145 182
145 186
145 195
145 200
145 201
145 213
145 219
146 79
146 82
146 87
146 89
146 105
146 110
146 111
146 114
146 125
146 129
146 132
146 139
146 145
146 158
146 162
146 169
146 170
146 177
146 182
146 195
146 200
146 201
146 202
146 213
146 219
146 220
147 80
147 99
147 103
147 124
147 140
147 152
147 157
147 165
147 183
147 199
147 203
147 207
148 85
148 88
148 95
148 97
148 98
148 108
148 121
148 123
148 127
148 129
148 130
148 131
148 141
148 155
148 159
148 160
148 162
148 164
148 176
148 180
148 181
148 193
148 198
148 205
148 216
149 75
149 84
149 90
149 102
149 112
149 126
149 128
149 134
149 136
149 154
149 161
149 166
149 168
149 172
149 175
149 188
149 191
149 192
149 197
149 214
150 81
150 93
150 96
150 104
150 106
150 107
150 115
150 117
150 120
150 122
150 137
150 138
150 151
150 153
150 156
150 167
150 179
150 184
150 185
150 187
150 206
150 210
151 78
151 93
151 104
151 115
151 116
151 118
151 120
151 134
151 136
151 137
151 143
151 144
151 150
151 166
151 167
151 178
151 179
151 187
151 206
151 208
151 209
151 215
152 99
152 101
152 103
152 109
152 119
152 124
152 140
152 142
152 147
152 157
152 165
152 173
152 183
152 199
152 203
152 204
152 207
152 224
153 81
153 87
153 96
153 106
153 107
153 115
153 117
153 122
153 125
153 138
153 145
153 150
153 156
153 169
153 182
153 184
153 185
153 186
153 187
153 201
153 210
153 211
153 227
154 84
154 86
154 94
154 102
154 113
154 126
154 128
154 133
154 135
154 149
154 168
154 171
154 172
154 174
154 175
154 191
154 196
154 197
154 212
154 214
154 218
155 83
155 97
155 98
155 111
155 114
155 121
155 123
155 129
155 131
155 139
155 141
155 148
155 158
155 160
155 162
155 164
155 177
155 180
155 181
155 189
155 193
155 202
155 217
155 229
156 81
156 96
156 104
156 106
156 107
156 115
156 117
156 120
156 122
156 137
156 138
156 150
156 153
156 167
156 184
156 185
156 186
156 187
156 206
156 210
156 211
157 99
157 101
157 103
157 109
157 124
157 140
157 142
157 147
157 152
157 165
157 173
157 183
157 199
157 203
157 204
157 207
157 224
157 232
158 89
158 105
158 110
158 111
158 114
158 123
158 125
158 129
158 132
158 139
158 145
158 146
158 155
158 162
158 169
158 170
158 177
158 181
158 182
158 189
158 195
158 200
158 201
158 202
158 213
158 220
158 225
159 91
159 95
159 100
159 108
159 109
159 119
159 121
159 127
159 130
159 140
159 141
159 142
159 148
159 163
159 164
159 173
159 176
159 190
159 193
159 194
159 198
159 204
159 205
159 221
159 226
160 85
160 97
160 98
160 111
160 121
160 123
160 129
160 130
160 131
160 139
160 141
160 148
160 155
160 162
160 164
160 176
160 177
160 180
160 181
160 189
160 193
160 205
160 216
160 217
160 229
161 90
161 92
161 102
161 112
161 118
161 126
161 128
161 134
161 136
161 143
161 149
161 166
161 168
161 172
161 175
161 178
161 188
161 191
161 192
161 214
161 222
161 223
161 228
162 83
162 97
162 98
162 111
162 114
162 123
162 129
162 131
162 132
162 139
162 146
162 148
162 155
162 158
162 160
162 164
162 170
162 177
162 180
162 181
162 189
162 193
162 195
162 200
162 202
162 217
162 220
162 225
162 229
163 91
163 95
163 100
163 108
163 109
163 119
163 127
163 130
163 140
163 141
163 142
163 159
163 164
163 165
163 173
163 176
163 190
163 194
163 198
163 199
163 204
163 205
163 221
163 226
163 230
163 237
164 85
164 88
164 98
164 108
164 121
164 123
164 127
164 130
164 131
164 141
164 148
164 155
164 159
164 160
164 162
164 163
164 176
164 180
164 181
164 189
164 190
164 193
164 198
164 205
164 216
164 217
164 226
164 240
164 246
165 99
165 101
165 109
165 119
165 124
165 140
165 142
165 147
165 152
165 157
165 163
165 173
165 183
165 190
165 194
165 199
165 203
165 204
165 207
165 224
165 230
165 231
165 232
166 92
166 112
166 116
166 118
166 134
166 136
166 143
166 144
166 149
166 151
166 161
166 172
166 178
166 179
166 188
166 191
166 192
166 208
166 215
166 222
166 223
166 228
166 250
166 252
167 93
167 104
167 115
167 116
167 117
167 120
167 137
167 138
167 144
167 150
167 151
167 156
167 178
167 179
167 185
167 187
167 206
167 208
167 209
167 210
167 233
167 241
167 243
168 102
168 113
168 126
168 128
168 133
168 135
168 149
168 154
168 161
168 171
168 172
168 174
168 175
168 191
168 192
168 196
168 197
168 212
168 214
168 218
168 235
168 238
168 254
169 110
169 122
169 125
169 132
169 138
169 145
169 146
169 153
169 158
169 170
169 182
169 184
169 186
169 195
169 201
169 211
169 213
169 219
169 227
169 244
169 247
169 253
170 105
170 110
170 114
170 125
170 129
170 132
170 139
170 145
170 146
170 158
170 162
170 169
170 177
170 182
170 189
170 195
170 200
170 201
170 202
170 213
170 219
170 220
170 225
170 244
170 245
170 249
171 94
171 113
171 128
171 133
171 135
171 154
171 168
171 174
171 175
171 196
171 197
171 212
171 218
171 248
171 254
172 102
172 112
172 126
172 128
172 136
172 149
172 154
172 161
172 166
172 168
172 175
172 188
172 191
172 192
172 197
172 212
172 214
172 223
172 228
172 235
172 238
173 101
173 109
173 119
173 127
173 140
173 142
173 152
173 157
173 159
173 163
173 165
173 183
173 190
173 194
173 198
173 199
173 203
173 204
173 221
173 230
173 231
173 232
173 237
174 94
174 113
174 133
174 135
174 154
174 168
174 171
174 196
174 197
174 212
174 218
174 248
175 102
175 112
175 113
175 126
175 128
175 133
175 149
175 154
175 161
175 168
175 171
175 172
175 191
175 192
175 196
175 197
175 212
175 214
175 228
175 235
175 238
176 108
176 121
176 127
176 130
176 131
176 141
176 142
176 148
176 159
176 160
176 163
176 164
176 180
176 190
176 193
176 194
176 198
176 205
176 216
176 221
176 226
176 237
176 240
176 246
176 257
177 105
177 111
177 114
177 123
177 129
177 132
177 139
177 145
177 146
177 155
177 158
177 160
177 162
177 170
177 181
177 182
177 189
177 195
177 200
177 202
177 213
177 217
177 220
177 225
177 229
177 245
177 249
178 116
178 118
178 120
178 134
178 136
178 137
178 143
178 144
178 151
178 161
178 166
178 167
178 179
178 188
178 192
178 206
178 208
178 209
178 215
178 222
178 223
178 241
178 242
178 250
178 252
179 116
179 118
179 120
179 134
179 137
179 143
179 144
179 150
179 151
179 166
179 167
179 178
179 187
179 188
179 206
179 208
179 209
179 210
179 215
179 233
179 241
179 242
180 121
180 123
180 129
180 131
180 141
180 148
180 155
180 160
180 162
180 164
180 176
180 181
180 189
180 193
180 198
180 202
180 205
180 216
180 217
180 229
180 240
180 246
180 255
181 121
181 123
181 129
181 131
181 139
181 148
181 155
181 158
181 160
181 162
181 164
181 177
181 180
181 189
181 193
181 200
181 202
181 205
181 216
181 217
181 225
181 229
181 246
181 255
181 265
182 110
182 125
182 132
182 145
182 146
182 153
182 158
182 169
182 170
182 177
182 184
182 186
182 195
182 200
182 201
182 202
182 211
182 213
182 219
182 220
182 227
182 244
182 247
182 249
182 253
183 124
183 140
183 147
183 152
183 157
183 165
183 173
183 199
183 203
183 204
183 207
183 224
183 231
183 232
183 251
183 258
184 106
184 107
184 117
184 122
184 125
184 138
184 150
184 153
184 156
184 169
184 182
184 185
184 186
184 187
184 201
184 210
184 211
184 219
184 227
184 234
184 236
184 239
184 243
184 247
184 261
185 107
185 115
185 117
185 122
185 137
185 138
185 150
185 153
185 156
185 167
185 184
185 186
185 187
185 206
185 210
185 211
185 227
185 233
185 234
185 236
185 239
185 243
185 268
186 122
186 125
186 138
186 145
186 153
186 156
186 169
186 182
186 184
186 185
186 187
186 201
186 210
186 211
186 213
186 219
186 227
186 234
186 236
186 239
186 247
186 261
187 115
187 117
187 120
187 137
187 138
187 150
187 151
187 153
187 156
187 167
187 179
187 184
187 185
187 186
187 206
187 208
187 209
187 210
187 211
187 233
187 234
187 236
187 241
187 243
187 268
188 118
188 134
188 136
188 143
188 144
188 149
188 161
188 166
188 172
188 178
188 179
188 191
188 192
188 208
188 209
188 214
188 215
188 222
188 223
188 228
188 242
188 250
188 252
188 256
189 123
189 129
189 131
189 139
189 155
189 158
189 160
189 162
189 164
189 170
189 177
189 180
189 181
189 193
189 195
189 200
189 202
189 216
189 217
189 220
189 225
189 229
189 245
189 255
189 262
189 265
190 119
190 127
190 130
190 141
190 142
190 159
190 163
190 164
190 165
190 173
190 176
190 193
190 194
190 198
190 199
190 204
190 205
190 216
190 221
190 226
190 230
190 237
190 240
190 257
190 260
191 126
191 128
191 136
191 149
191 154
191 161
191 166
191 168
191 172
191 175
191 188
191 192
191 197
191 212
191 214
191 222
191 223
191 228
191 235
191 238
191 254
191 256
191 259
192 126
192 134
192 136
192 149
192 161
192 166
192 168
192 172
192 175
192 178
192 188
192 191
192 212
192 214
192 215
192 222
192 223
192 228
192 235
192 238
192 250
192 252
192 256
192 259
192 273
193 121
193 130
193 131
193 141
193 148
193 155
193 159
193 160
193 162
193 164
193 176
193 180
193 181
193 189
193 190
193 198
193 205
193 216
193 217
193 221
193 226
193 229
193 240
193 246
193 255
193 257
193 264
193 270
193 271
194 119
194 127
194 140
194 142
194 159
194 163
194 165
194 173
194 176
194 190
194 198
194 199
194 204
194 205
194 221
194 226
194 230
194 231
194 237
194 240
194 257
194 260
194 267
195 132
195 139
195 145
195 146
195 158
195 162
195 169
195 170
195 177
195 182
195 189
195 200
195 201
195 202
195 213
195 219
195 220
195 225
195 244
195 245
195 247
195 249
195 253
195 276
196 133
196 135
196 154
196 168
196 171
196 174
196 175
196 197
196 212
196 218
196 235
196 248
196 254
196 266
197 128
197 133
197 135
197 149
197 154
197 168
197 171
197 172
197 174
197 175
197 191
197 196
197 212
197 214
197 218
197 235
197 238
197 248
197 254
197 266
197 277
198 127
198 130
198 141
198 142
198 148
198 159
198 163
198 164
198 173
198 176
198 180
198 190
198 193
198 194
198 204
198 205
198 216
198 221
198 226
198 230
198 237
198 240
198 246
198 257
198 260
198 264
199 140
199 142
199 147
199 152
199 157
199 163
199 165
199 173
199 183
199 190
199 194
199 203
199 204
199 207
199 224
199 230
199 231
199 232
199 237
199 251
199 258
199 267
199 269
199 274
200 132
200 139
200 145
200 146
200 158
200 162
200 170
200 177
200 181
200 182
200 189
200 195
200 201
200 202
200 213
200 219
200 220
200 225
200 229
200 244
200 245
200 249
200 253
200 262
200 276
200 280
201 125
201 145
201 146
201 153
201 158
201 169
201 170
201 182
201 184
201 186
201 195
201 200
201 211
201 213
201 219
201 220
201 227
201 239
201 244
201 247
201 249
201 253
201 261
201 281
201 282
202 129
202 132
202 139
202 146
202 155
202 158
202 162
202 170
202 177
202 180
202 181
202 182
202 189
202 195
202 200
202 213
202 217
202 219
202 220
202 225
202 229
202 244
202 245
202 249
202 262
202 265
202 280
203 124
203 140
203 147
203 152
203 157
203 165
203 173
203 183
203 199
203 204
203 207
203 224
203 230
203 231
203 232
203 251
203 258
203 269
203 274
204 140
204 142
204 152
204 157
204 159
204 163
204 165
204 173
204 183
204 190
204 194
204 198
204 199
204 203
204 221
204 224
204 226
204 230
204 231
204 232
204 237
204 251
204 258
204 260
204 267
204 269
205 130
205 141
205 148
205 159
205 160
205 163
205 164
205 176
205 180
205 181
205 190
205 193
205 194
205 198
205 216
205 217
205 221
205 226
205 237
205 240
205 246
205 255
205 257
205 260
205 264
205 270
205 271
206 137
206 144
206 150
206 151
206 156
206 167
206 178
206 179
206 185
206 187
206 208
206 209
206 210
206 215
206 233
206 234
206 236
206 241
206 242
206 243
206 263
206 268
206 275
206 278
207 147
207 152
207 157
207 165
207 183
207 199
207 203
207 224
207 231
207 232
207 251
207 258
207 274
208 143
208 144
208 151
208 166
208 167
208 178
208 179
208 187
208 188
208 206
208 209
208 215
208 222
208 223
208 233
208 241
208 242
208 250
208 252
208 263
208 275
208 278
208 279
209 137
209 143
209 144
209 151
209 167
209 178
209 179
209 187
209 188
209 206
209 208
209 210
209 215
209 222
209 233
209 241
209 242
209 243
209 250
209 263
209 275
209 278
209 291
210 137
210 138
210 150
210 153
210 156
210 167
210 179
210 184
210 185
210 186
210 187
210 206
210 209
210 211
210 227
210 233
210 234
210 236
210 239
210 241
210 243
210 268
210 272
210 278
211 138
211 153
211 156
211 169
211 182
211 184
211 185
211 186
211 187
211 201
211 210
211 219
211 227
211 234
211 236
211 239
211 243
211 247
211 261
211 268
211 272
211 281
211 288
212 133
212 154
212 168
212 171
212 172
212 174
212 175
212 191
212 192
212 196
212 197
212 214
212 218
212 228
212 235
212 238
212 248
212 254
212 266
212 277
212 286
212 290
213 145
213 146
213 158
213 169
213 170
213 177
213 182
213 186
213 195
213 200
213 201
213 202
213 219
213 220
213 225
213 227
213 244
213 245
213 247
213 249
213 253
213 276
213 280
213 282
213 285
214 149
214 154
214 161
214 168
214 172
214 175
214 188
214 191
214 192
214 197
214 212
214 222
214 223
214 228
214 235
214 238
214 248
214 254
214 256
214 259
214 266
214 277
214 283
214 290
215 134
215 143
215 144
215 151
215 166
215 178
215 179
215 188
215 192
215 206
215 208
215 209
215 222
215 223
215 228
215 241
215 242
215 250
215 252
215 256
215 263
215 273
215 275
215 279
216 141
216 148
216 160
216 164
216 176
216 180
216 181
216 189
216 190
216 193
216 198
216 205
216 217
216 221
216 226
216 229
216 240
216 246
216 255
216 257
216 264
216 265
216 270
216 271
216 287
216 292
216 295
217 155
217 160
217 162
217 164
217 177
217 180
217 181
217 189
217 193
217 202
217 205
217 216
217 225
217 229
217 240
217 245
217 246
217 255
217 262
217 264
217 265
217 270
217 271
217 287
217 293
218 135
218 154
218 168
218 171
218 174
218 196
218 197
218 212
218 235
218 248
218 254
218 266
218 286
219 145
219 146
219 169
219 170
219 182
219 184
219 186
219 195
219 200
219 201
219 202
219 211
219 213
219 220
219 225
219 227
219 239
219 244
219 245
219 247
219 249
219 253
219 261
219 276
219 281
219 282
219 285
220 146
220 158
220 162
220 170
220 177
220 182
220 189
220 195
220 200
220 201
220 202
220 213
220 219
220 225
220 229
220 244
220 245
220 247
220 249
220 253
220 262
220 265
220 276
220 280
220 285
220 299
221 159
221 163
221 173
221 176
221 190
221 193
221 194
221 198
221 204
221 205
221 216
221 226
221 230
221 231
221 237
221 240
221 246
221 257
221 260
221 264
221 267
221 269
221 289
221 292
221 294
221 296
222 161
222 166
222 178
222 188
222 191
222 192
222 208
222 209
222 214
222 215
222 223
222 228
222 242
222 250
222 252
222 256
222 259
222 263
222 273
222 275
222 279
222 303
223 161
223 166
223 172
223 178
223 188
223 191
223 192
223 208
223 214
223 215
223 222
223 228
223 238
223 242
223 250
223 252
223 256
223 259
223 263
223 273
223 279
223 283
224 152
224 157
224 165
224 183
224 199
224 203
224 204
224 207
224 230
224 231
224 232
224 251
224 258
224 269
224 274
224 284
224 298
225 158
225 162
225 170
225 177
225 181
225 189
225 195
225 200
225 202
225 213
225 217
225 219
225 220
225 229
225 244
225 245
225 249
225 262
225 265
225 276
225 280
225 293
225 299
225 304
226 159
226 163
226 164
226 176
226 190
226 193
226 194
226 198
226 204
226 205
226 216
226 221
226 230
226 237
226 240
226 246
226 255
226 257
226 260
226 264
226 267
226 271
226 292
226 294
226 296
227 153
227 169
227 182
227 184
227 185
227 186
227 201
227 210
227 211
227 213
227 219
227 234
227 236
227 239
227 243
227 244
227 247
227 253
227 261
227 268
227 272
227 281
227 282
227 288
227 297
228 161
228 166
228 172
228 175
228 188
228 191
228 192
228 212
228 214
228 215
228 222
228 223
228 235
228 238
228 250
228 252
228 256
228 259
228 273
228 277
228 279
228 283
228 307
228 308
228 313
229 155
229 160
229 162
229 177
229 180
229 181
229 189
229 193
229 200
229 202
229 216
229 217
229 220
229 225
229 245
229 246
229 249
229 255
229 262
229 265
229 270
229 271
229 280
229 287
229 293
230 163
230 165
230 173
230 190
230 194
230 198
230 199
230 203
230 204
230 221
230 224
230 226
230 231
230 232
230 237
230 251
230 257
230 258
230 260
230 267
230 269
230 274
230 284
230 289
230 296
230 302
231 165
231 173
231 183
231 194
231 199
231 203
231 204
231 207
231 221
231 224
231 230
231 232
231 237
231 251
231 258
231 260
231 267
231 269
231 274
231 284
231 289
231 296
231 298
231 302
232 157
232 165
232 173
232 183
232 199
232 203
232 204
232 207
232 224
232 230
232 231
232 251
232 258
232 267
232 269
232 274
232 284
232 289
232 298
232 302
233 167
233 179
233 185
233 187
233 206
233 208
233 209
233 210
233 234
233 236
233 241
233 242
233 243
233 263
233 268
233 272
233 275
233 278
233 291
233 300
233 305
234 184
234 185
234 186
234 187
234 206
234 210
234 211
234 227
234 233
234 236
234 239
234 243
234 247
234 261
234 268
234 272
234 281
234 288
234 297
234 300
234 310
234 315
235 168
235 172
235 175
235 191
235 192
235 196
235 197
235 212
235 214
235 218
235 228
235 238
235 248
235 254
235 256
235 259
235 266
235 277
235 283
235 286
235 290
235 306
236 184
236 185
236 186
236 187
236 206
236 210
236 211
236 227
236 233
236 234
236 239
236 241
236 243
236 261
236 268
236 272
236 278
236 288
236 297
236 300
236 305
236 310
237 163
237 173
237 176
237 190
237 194
237 198
237 199
237 204
237 205
237 221
237 226
237 230
237 231
237 240
237 257
237 258
237 260
237 264
237 267
237 269
237 289
237 292
237 294
237 296
238 168
238 172
238 175
238 191
238 192
238 197
238 212
238 214
238 223
238 228
238 235
238 248
238 252
238 254
238 256
238 259
238 266
238 273
238 277
238 283
238 286
238 290
238 306
238 307
239 184
239 185
239 186
239 201
239 210
239 211
239 219
239 227
239 234
239 236
239 243
239 247
239 253
239 261
239 268
239 272
239 281
239 282
239 288
239 297
239 300
239 310
239 315
239 318
240 164
240 176
240 180
240 190
240 193
240 194
240 198
240 205
240 216
240 217
240 221
240 226
240 237
240 246
240 255
240 257
240 260
240 264
240 270
240 271
240 287
240 292
240 294
240 295
240 314
241 167
241 178
241 179
241 187
241 206
241 208
241 209
241 210
241 215
241 233
241 236
241 242
241 243
241 250
241 263
241 268
241 275
241 278
241 279
241 291
241 300
241 301
241 305
242 178
242 179
242 188
242 206
242 208
242 209
242 215
242 222
242 223
242 233
242 241
242 250
242 252
242 256
242 263
242 273
242 275
242 278
242 279
242 291
242 301
242 303
242 317
243 167
243 184
243 185
243 187
243 206
243 209
243 210
243 211
243 227
243 233
243 234
243 236
243 239
243 241
243 261
243 268
243 272
243 275
243 278
243 288
243 291
243 297
243 300
243 305
243 310
244 169
244 170
244 182
244 195
244 200
244 201
244 202
244 213
244 219
244 220
244 225
244 227
244 245
244 247
244 249
244 253
244 261
244 262
244 276
244 280
244 281
244 282
244 285
244 299
244 304
244 311
244 316
245 170
245 177
245 189
245 195
245 200
245 202
245 213
245 217
245 219
245 220
245 225
245 229
245 244
245 249
245 253
245 262
245 265
245 276
245 280
245 285
245 293
245 299
245 304
246 164
246 176
246 180
246 181
246 193
246 198
246 205
246 216
246 217
246 221
246 226
246 229
246 240
246 255
246 257
246 260
246 264
246 265
246 270
246 271
246 287
246 292
246 293
246 294
246 295
246 309
246 314
247 169
247 182
247 184
247 186
247 195
247 201
247 211
247 213
247 219
247 220
247 227
247 234
247 239
247 244
247 249
247 253
247 261
247 272
247 276
247 281
247 282
247 285
247 288
247 299
247 311
247 316
248 171
248 174
248 196
248 197
248 212
248 214
248 218
248 235
248 238
248 254
248 266
248 277
248 286
248 290
248 306
248 312
248 320
249 170
249 177
249 182
249 195
249 200
249 201
249 202
249 213
249 219
249 220
249 225
249 229
249 244
249 245
249 247
249 253
249 262
249 265
249 276
249 280
249 282
249 285
249 299
249 304
249 316
250 166
250 178
250 188
250 192
250 208
250 209
250 215
250 222
250 223
250 228
250 241
250 242
250 252
250 256
250 259
250 263
250 273
250 275
250 278
250 279
250 291
250 301
250 303
250 308
250 317
251 183
251 199
251 203
251 204
251 207
251 224
251 230
251 231
251 232
251 258
251 267
251 269
251 274
251 284
251 298
251 302
251 319
252 166
252 178
252 188
252 192
252 208
252 215
252 222
252 223
252 228
252 238
252 242
252 250
252 256
252 259
252 263
252 273
252 275
252 279
252 283
252 301
252 303
252 307
252 308
252 313
253 169
253 182
253 195
253 200
253 201
253 213
253 219
253 220
253 227
253 239
253 244
253 245
253 247
253 249
253 261
253 276
253 280
253 281
253 282
253 285
253 288
253 299
253 311
253 316
254 168
254 171
254 191
254 196
254 197
254 212
254 214
254 218
254 235
254 238
254 248
254 259
254 266
254 277
254 283
254 286
254 290
254 306
254 312
254 320
255 180
255 181
255 189
255 193
255 205
255 216
255 217
255 226
255 229
255 240
255 246
255 257
255 262
255 264
255 265
255 270
255 271
255 287
255 292
255 293
255 295
255 309
255 321
255 324
256 188
256 191
256 192
256 214
256 215
256 222
256 223
256 228
256 235
256 238
256 242
256 250
256 252
256 259
256 273
256 277
256 279
256 283
256 303
256 306
256 307
256 308
256 313
256 330
256 332
257 176
257 190
257 193
257 194
257 198
257 205
257 216
257 221
257 226
257 230
257 237
257 240
257 246
257 255
257 260
257 264
257 267
257 270
257 271
257 287
257 289
257 292
257 294
257 295
257 296
257 314
257 324
258 183
258 199
258 203
258 204
258 207
258 224
258 230
258 231
258 232
258 237
258 251
258 267
258 269
258 274
258 284
258 289
258 296
258 298
258 302
258 319
258 322
258 328
259 191
259 192
259 214
259 222
259 223
259 228
259 235
259 238
259 250
259 252
259 254
259 256
259 273
259 277
259 279
259 283
259 290
259 303
259 306
259 307
259 308
259 313
259 330
259 332
260 190
260 194
260 198
260 204
260 205
260 221
260 226
260 230
260 231
260 237
260 240
260 246
260 257
260 264
260 267
260 269
260 271
260 289
260 292
260 294
260 295
260 296
260 314
260 337
261 184
261 186
261 201
261 211
261 219
261 227
261 234
261 236
261 239
261 243
261 244
261 247
261 253
261 268
261 272
261 281
261 282
261 285
261 288
261 297
261 310
261 311
261 315
261 318
262 189
262 200
262 202
262 217
262 220
262 225
262 229
262 244
262 245
262 249
262 255
262 265
262 270
262 276
262 280
262 287
262 293
262 299
262 304
262 309
262 321
262 326
262 331
263 206
263 208
263 209
263 215
263 222
263 223
263 233
263 241
263 242
263 250
263 252
263 273
263 275
263 278
263 279
263 291
263 301
263 303
263 305
263 317
263 323
263 325
263 329
263 340
264 193
264 198
264 205
264 216
264 217
264 221
264 226
264 237
264 240
264 246
264 255
264 257
264 260
264 270
264 271
264 287
264 292
264 294
264 295
264 296
264 309
264 314
264 324
265 181
265 189
265 202
265 216
265 217
265 220
265 225
265 229
265 245
265 246
265 249
265 255
265 262
265 270
265 271
265 280
265 287
265 293
265 295
265 304
265 309
265 321
265 326
265 331
266 196
266 197
266 212
266 214
266 218
266 235
266 238
266 248
266 254
266 277
266 283
266 286
266 290
266 306
266 312
266 320
266 333
266 339
267 194
267 199
267 204
267 221
267 226
267 230
267 231
267 232
267 237
267 251
267 257
267 258
267 260
267 269
267 274
267 284
267 289
267 294
267 296
267 302
267 322
267 328
267 337
268 185
268 187
268 206
268 210
268 211
268 227
268 233
268 234
268 236
268 239
268 241
268 243
268 261
268 272
268 278
268 281
268 288
268 291
268 297
268 300
268 305
268 310
268 315
268 318
268 338
268 341
268 343
269 199
269 203
269 204
269 221
269 224
269 230
269 231
269 232
269 237
269 251
269 258
269 260
269 267
269 274
269 284
269 289
269 294
269 296
269 298
269 302
269 319
269 322
269 328
269 342
270 193
270 205
270 216
270 217
270 229
270 240
270 246
270 255
270 257
270 262
270 264
270 265
270 271
270 280
270 287
270 292
270 293
270 295
270 309
270 314
270 321
270 324
270 336
271 193
271 205
271 216
271 217
271 226
271 229
271 240
271 246
271 255
271 257
271 260
271 264
271 265
271 270
271 287
271 292
271 293
271 294
271 295
271 309
271 314
271 324
271 336
271 344
271 347
272 210
272 211
272 227
272 233
272 234
272 236
272 239
272 243
272 247
272 261
272 268
272 278
272 281
272 282
272 288
272 297
272 300
272 305
272 310
272 315
272 318
272 338
272 341
272 343
273 192
273 215
273 222
273 223
273 228
273 238
273 242
273 250
273 252
273 256
273 259
273 263
273 279
273 283
273 301
273 303
273 307
273 308
273 313
273 317
273 329
273 330
273 332
274 199
274 203
274 207
274 224
274 230
274 231
274 232
274 251
274 258
274 267
274 269
274 284
274 289
274 298
274 302
274 319
274 322
275 206
275 208
275 209
275 215
275 222
275 233
275 241
275 242
275 243
275 250
275 252
275 263
275 278
275 279
275 291
275 300
275 301
275 303
275 305
275 317
275 323
275 325
275 329
275 335
275 340
275 349
276 195
276 200
276 213
276 219
276 220
276 225
276 244
276 245
276 247
276 249
276 253
276 262
276 280
276 281
276 282
276 285
276 299
276 304
276 311
276 316
276 326
276 327
276 331
277 197
277 212
277 214
277 228
277 235
277 238
277 248
277 254
277 256
277 259
277 266
277 283
277 286
277 290
277 306
277 307
277 312
277 313
277 320
277 330
277 333
277 334
278 206
278 208
278 209
278 210
278 233
278 236
278 241
278 242
278 243
278 250
278 263
278 268
278 272
278 275
278 279
278 291
278 297
278 300
278 301
278 305
278 310
278 317
278 323
278 325
278 335
278 341
278 350
279 208
279 215
279 222
279 223
279 228
279 241
279 242
279 250
279 252
279 256
279 259
279 263
279 273
279 275
279 278
279 291
279 301
279 303
279 307
279 308
279 313
279 317
279 325
279 329
279 332
279 340
280 200
280 202
280 213
280 220
280 225
280 229
280 244
280 245
280 249
280 253
280 262
280 265
280 270
280 276
280 285
280 287
280 293
280 299
280 304
280 316
280 321
280 326
280 327
280 331
280 353
281 201
281 211
281 219
281 227
281 234
281 239
281 244
281 247
281 253
281 261
281 268
281 272
281 276
281 282
281 285
281 288
281 297
281 299
281 310
281 311
281 315
281 316
281 318
281 346
282 201
282 213
282 219
282 227
282 239
282 244
282 247
282 249
282 253
282 261
282 272
282 276
282 281
282 285
282 288
282 297
282 299
282 311
282 315
282 316
282 318
282 327
282 346
283 214
283 223
283 228
283 235
283 238
283 252
283 254
283 256
283 259
283 266
283 273
283 277
283 286
283 290
283 306
283 307
283 308
283 313
283 320
283 330
283 332
283 333
283 334
284 224
284 230
284 231
284 232
284 251
284 258
284 267
284 269
284 274
284 289
284 296
284 298
284 302
284 319
284 322
284 328
284 342
284 351
284 357
285 213
285 219
285 220
285 244
285 245
285 247
285 249
285 253
285 261
285 276
285 280
285 281
285 282
285 288
285 299
285 304
285 311
285 316
285 318
285 326
285 327
285 352
285 355
286 212
286 218
286 235
286 238
286 248
286 254
286 266
286 277
286 283
286 290
286 306
286 312
286 320
286 333
286 334
286 339
286 356
286 363
287 216
287 217
287 229
287 240
287 246
287 255
287 257
287 262
287 264
287 265
287 270
287 271
287 280
287 292
287 293
287 295
287 304
287 309
287 314
287 321
287 324
287 331
287 336
287 344
287 347
287 348
287 365
288 211
288 227
288 234
288 236
288 239
288 243
288 247
288 253
288 261
288 268
288 272
288 281
288 282
288 285
288 297
288 300
288 310
288 311
288 315
288 316
288 318
288 338
288 343
288 346
288 360
289 221
289 230
289 231
289 232
289 237
289 257
289 258
289 260
289 267
289 269
289 274
289 284
289 292
289 294
289 296
289 298
289 302
289 314
289 322
289 328
289 337
289 342
289 351
289 362
289 366
290 212
290 214
290 235
290 238
290 248
290 254
290 259
290 266
290 277
290 283
290 286
290 306
290 307
290 312
290 313
290 320
290 330
290 333
290 334
290 339
290 356
290 358
290 363
291 209
291 233
291 241
291 242
291 243
291 250
291 263
291 268
291 275
291 278
291 279
291 300
291 301
291 303
291 305
291 317
291 323
291 325
291 329
291 335
291 340
291 341
291 349
291 350
292 216
292 221
292 226
292 237
292 240
292 246
292 255
292 257
292 260
292 264
292 270
292 271
292 287
292 289
292 294
292 295
292 296
292 309
292 314
292 324
292 336
292 337
292 344
292 345
292 347
293 217
293 225
293 229
293 245
293 246
293 255
293 262
293 265
293 270
293 271
293 280
293 287
293 295
293 299
293 304
293 309
293 321
293 324
293 326
293 331
293 336
293 348
293 353
293 361
294 221
294 226
294 237
294 240
294 246
294 257
294 260
294 264
294 267
294 269
294 271
294 289
294 292
294 295
294 296
294 314
294 324
294 328
294 337
294 344
294 345
294 347
294 362
295 216
295 240
295 246
295 255
295 257
295 260
295 264
295 265
295 270
295 271
295 287
295 292
295 293
295 294
295 309
295 314
295 321
295 324
295 336
295 344
295 345
295 347
295 365
296 221
296 226
296 230
296 231
296 237
296 257
296 258
296 260
296 264
296 267
296 269
296 284
296 289
296 292
296 294
296 302
296 314
296 322
296 328
296 337
296 342
296 344
296 345
296 351
296 362
296 366
297 227
297 234
297 236
297 239
297 243
297 261
297 268
297 272
297 278
297 281
297 282
297 288
297 300
297 305
297 310
297 315
297 318
297 335
297 338
297 341
297 343
297 346
297 360
297 373
297 376
298 224
298 231
298 232
298 251
298 258
298 269
298 274
298 284
298 289
298 302
298 319
298 322
298 328
298 342
298 354
298 357
299 220
299 225
299 244
299 245
299 247
299 249
299 253
299 262
299 276
299 280
299 281
299 282
299 285
299 293
299 304
299 311
299 316
299 326
299 327
299 331
299 352
299 353
299 355
299 375
300 233
300 234
300 236
300 239
300 241
300 243
300 268
300 272
300 275
300 278
300 288
300 291
300 297
300 305
300 310
300 315
300 318
300 323
300 335
300 338
300 341
300 343
300 350
300 370
300 373
300 376
301 241
301 242
301 250
301 252
301 263
301 273
301 275
301 278
301 279
301 291
301 303
301 305
301 308
301 317
301 323
301 325
301 329
301 332
301 335
301 340
301 349
301 350
301 368
301 377
302 230
302 231
302 232
302 251
302 258
302 267
302 269
302 274
302 284
302 289
302 296
302 298
302 319
302 322
302 328
302 337
302 342
302 351
302 354
302 357
302 366
302 371
303 222
303 242
303 250
303 252
303 256
303 259
303 263
303 273
303 275
303 279
303 291
303 301
303 307
303 308
303 313
303 317
303 323
303 325
303 329
303 330
303 332
303 340
303 349
303 364
303 367
303 368
303 377
304 225
304 244
304 245
304 249
304 262
304 265
304 276
304 280
304 285
304 287
304 293
304 299
304 309
304 316
304 321
304 326
304 327
304 331
304 348
304 352
304 353
304 355
304 361
305 233
305 236
305 241
305 243
305 263
305 268
305 272
305 275
305 278
305 291
305 297
305 300
305 301
305 310
305 315
305 317
305 323
305 325
305 335
305 338
305 340
305 341
305 343
305 349
305 350
305 370
306 235
306 238
306 248
306 254
306 256
306 259
306 266
306 277
306 283
306 286
306 290
306 307
306 308
306 312
306 313
306 320
306 330
306 332
306 333
306 334
306 339
306 356
306 358
306 359
306 363
306 383
306 384
306 387
307 228
307 238
307 252
307 256
307 259
307 273
307 277
307 279
307 283
307 290
307 303
307 306
307 308
307 313
307 320
307 329
307 330
307 332
307 333
307 334
307 356
307 358
307 359
307 364
307 367
307 384
308 228
308 250
308 252
308 256
308 259
308 273
308 279
308 283
308 301
308 303
308 306
308 307
308 313
308 317
308 329
308 330
308 332
308 334
308 340
308 359
308 364
308 367
308 377
309 246
309 255
309 262
309 264
309 265
309 270
309 271
309 287
309 292
309 293
309 295
309 304
309 314
309 321
309 324
309 331
309 336
309 344
309 347
309 348
309 361
309 365
309 382
310 234
310 236
310 239
310 243
310 261
310 268
310 272
310 278
310 281
310 288
310 297
310 300
310 305
310 315
310 318
310 323
310 335
310 338
310 341
310 343
310 346
310 360
310 370
310 373
310 374
310 376
310 385
311 244
311 247
311 253
311 261
311 276
311 281
311 282
311 285
311 288
311 299
311 315
311 316
311 318
311 327
311 346
311 352
311 355
311 360
311 369
311 374
311 375
311 378
311 380
312 248
312 254
312 266
312 277
312 286
312 290
312 306
312 320
312 333
312 334
312 339
312 356
312 358
312 363
312 372
312 383
313 228
313 252
313 256
313 259
313 273
313 277
313 279
313 283
313 290
313 303
313 306
313 307
313 308
313 329
313 330
313 332
313 333
313 334
313 358
313 359
313 364
313 367
313 384
313 390
314 240
314 246
314 257
314 260
314 264
314 270
314 271
314 287
314 289
314 292
314 294
314 295
314 296
314 309
314 324
314 336
314 337
314 344
314 345
314 347
314 362
314 365
314 381
314 382
314 389
314 391
315 234
315 239
315 261
315 268
315 272
315 281
315 282
315 288
315 297
315 300
315 305
315 310
315 311
315 318
315 338
315 341
315 343
315 346
315 360
315 373
315 374
315 376
315 378
316 244
316 247
316 249
316 253
316 276
316 280
316 281
316 282
316 285
316 288
316 299
316 304
316 311
316 318
316 326
316 327
316 331
316 346
316 352
316 353
316 355
316 369
316 375
316 378
316 380
317 242
317 250
317 263
317 273
317 275
317 278
317 279
317 291
317 301
317 303
317 305
317 308
317 323
317 325
317 329
317 332
317 335
317 340
317 349
317 350
317 367
317 368
317 377
317 379
317 394
318 239
318 261
318 268
318 272
318 281
318 282
318 285
318 288
318 297
318 300
318 310
318 311
318 315
318 316
318 338
318 341
318 343
318 346
318 360
318 369
318 373
318 374
318 376
318 378
319 251
319 258
319 269
319 274
319 284
319 298
319 302
319 322
319 328
319 342
319 351
319 354
319 357
319 371
319 392
320 248
320 254
320 266
320 277
320 283
320 286
320 290
320 306
320 307
320 312
320 330
320 333
320 334
320 339
320 356
320 358
320 363
320 372
320 383
320 387
321 255
321 262
321 265
321 270
321 280
321 287
321 293
321 295
321 304
321 309
321 324
321 326
321 327
321 331
321 336
321 347
321 348
321 353
321 361
321 365
321 382
321 388
321 396
321 397
322 258
322 267
322 269
322 274
322 284
322 289
322 296
322 298
322 302
322 319
322 328
322 337
322 342
322 351
322 354
322 357
322 362
322 366
322 371
322 386
322 392
322 393
323 263
323 275
323 278
323 291
323 300
323 301
323 303
323 305
323 310
323 317
323 325
323 329
323 335
323 338
323 340
323 341
323 349
323 350
323 368
323 370
323 377
323 379
323 385
323 394
323 395
324 255
324 257
324 264
324 270
324 271
324 287
324 292
324 293
324 294
324 295
324 309
324 314
324 321
324 336
324 337
324 344
324 345
324 347
324 348
324 362
324 365
324 381
324 382
324 391
324 404
325 263
325 275
325 278
325 279
325 291
325 301
325 303
325 305
325 317
325 323
325 329
325 332
325 335
325 340
325 341
325 349
325 350
325 367
325 368
325 370
325 377
325 379
325 394
325 408
326 262
326 265
326 276
326 280
326 285
326 293
326 299
326 304
326 316
326 321
326 327
326 331
326 348
326 352
326 353
326 355
326 361
326 375
326 380
326 388
326 396
326 398
327 276
327 280
327 282
327 285
327 299
327 304
327 311
327 316
327 321
327 326
327 331
327 352
327 353
327 355
327 361
327 369
327 375
327 380
327 388
327 398
327 401
328 258
328 267
328 269
328 284
328 289
328 294
328 296
328 298
328 302
328 319
328 322
328 337
328 342
328 345
328 351
328 354
328 357
328 362
328 366
328 371
328 386
328 389
328 393
328 405
329 263
329 273
329 275
329 279
329 291
329 301
329 303
329 307
329 308
329 313
329 317
329 323
329 325
329 330
329 332
329 340
329 349
329 350
329 359
329 364
329 367
329 368
329 377
329 379
329 394
329 399
329 400
330 256
330 259
330 273
330 277
330 283
330 290
330 303
330 306
330 307
330 308
330 313
330 320
330 329
330 332
330 333
330 334
330 356
330 358
330 359
330 364
330 367
330 384
330 387
330 390
330 410
331 262
331 265
331 276
331 280
331 287
331 293
331 299
331 304
331 309
331 316
331 321
331 326
331 327
331 336
331 348
331 352
331 353
331 355
331 361
331 365
331 380
331 388
331 396
331 397
331 398
332 256
332 259
332 273
332 279
332 283
332 301
332 303
332 306
332 307
332 308
332 313
332 317
332 325
332 329
332 330
332 334
332 340
332 359
332 364
332 367
332 368
332 377
332 384
332 390
332 399
332 400
333 266
333 277
333 283
333 286
333 290
333 306
333 307
333 312
333 313
333 320
333 330
333 334
333 339
333 356
333 358
333 359
333 363
333 372
333 383
333 384
333 387
333 390
333 407
334 277
334 283
334 286
334 290
334 306
334 307
334 308
334 312
334 313
334 320
334 330
334 332
334 333
334 339
334 356
334 358
334 359
334 363
334 364
334 367
334 383
334 384
334 387
334 390
334 407
334 410
334 419
335 275
335 278
335 291
335 297
335 300
335 301
335 305
335 310
335 317
335 323
335 325
335 338
335 340
335 341
335 343
335 349
335 350
335 368
335 370
335 373
335 376
335 379
335 385
335 395
335 408
335 412
336 270
336 271
336 287
336 292
336 293
336 295
336 309
336 314
336 321
336 324
336 331
336 344
336 345
336 347
336 348
336 361
336 365
336 381
336 382
336 397
336 411
337 260
337 267
337 289
337 292
337 294
337 296
337 302
337 314
337 322
337 324
337 328
337 342
337 344
337 345
337 347
337 351
337 362
337 366
337 371
337 381
337 386
337 389
337 391
337 402
337 405
338 268
338 272
338 288
338 297
338 300
338 305
338 310
338 315
338 318
338 323
338 335
338 341
338 343
338 346
338 350
338 360
338 370
338 373
338 374
338 376
338 385
338 395
338 412
338 415
339 266
339 286
339 290
339 306
339 312
339 320
339 333
339 334
339 356
339 358
339 363
339 372
339 383
339 387
339 403
339 407
340 263
340 275
340 279
340 291
340 301
340 303
340 305
340 308
340 317
340 323
340 325
340 329
340 332
340 335
340 349
340 350
340 364
340 367
340 368
340 370
340 377
340 379
340 394
340 399
340 400
340 408
340 416
341 268
341 272
341 278
341 291
341 297
341 300
341 305
341 310
341 315
341 318
341 323
341 325
341 335
341 338
341 343
341 346
341 349
341 350
341 360
341 370
341 373
341 376
341 379
341 385
341 395
341 412
341 415
342 269
342 284
342 289
342 296
342 298
342 302
342 319
342 322
342 328
342 337
342 351
342 354
342 357
342 362
342 366
342 371
342 386
342 392
342 393
342 405
342 417
342 421
343 268
343 272
343 288
343 297
343 300
343 305
343 310
343 315
343 318
343 335
343 338
343 341
343 346
343 360
343 370
343 373
343 374
343 376
343 378
343 385
343 409
343 412
343 415
344 271
344 287
344 292
344 294
344 295
344 296
344 309
344 314
344 324
344 336
344 337
344 345
344 347
344 362
344 365
344 381
344 382
344 389
344 391
344 402
344 404
345 292
345 294
345 295
345 296
345 314
345 324
345 328
345 336
345 337
345 344
345 347
345 351
345 362
345 365
345 366
345 381
345 382
345 386
345 389
345 391
345 402
345 404
346 281
346 282
346 288
346 297
346 310
346 311
346 315
346 316
346 318
346 338
346 341
346 343
346 352
346 360
346 369
346 373
346 374
346 375
346 376
346 378
346 406
346 409
346 415
346 423
347 271
347 287
347 292
347 294
347 295
347 309
347 314
347 321
347 324
347 336
347 337
347 344
347 345
347 348
347 362
347 365
347 381
347 382
347 389
347 391
347 397
347 404
347 411
347 424
348 287
348 293
348 304
348 309
348 321
348 324
348 326
348 331
348 336
348 347
348 353
348 361
348 365
348 381
348 382
348 388
348 396
348 397
348 398
348 411
348 426
348 427
349 275
349 291
349 301
349 303
349 305
349 317
349 323
349 325
349 329
349 335
349 340
349 341
349 350
349 367
349 368
349 370
349 377
349 379
349 385
349 394
349 395
349 400
349 408
349 416
349 422
350 278
350 291
350 300
350 301
350 305
350 317
350 323
350 325
350 329
350 335
350 338
350 340
350 341
350 349
350 368
350 370
350 376
350 377
350 379
350 385
350 394
350 395
350 400
350 408
350 412
350 416
350 422
350 431
351 284
351 289
351 296
351 302
351 319
351 322
351 328
351 337
351 342
351 345
351 354
351 357
351 362
351 366
351 371
351 386
351 389
351 393
351 402
351 405
351 417
351 421
351 437
352 285
352 299
352 304
352 311
352 316
352 326
352 327
352 331
352 346
352 353
352 355
352 361
352 369
352 374
352 375
352 378
352 380
352 388
352 398
352 401
352 406
352 413
352 423
352 433
353 280
353 293
353 299
353 304
353 316
353 321
353 326
353 327
353 331
353 348
353 352
353 355
353 361
353 369
353 375
353 380
353 388
353 396
353 397
353 398
353 401
353 413
353 428
354 298
354 302
354 319
354 322
354 328
354 342
354 351
354 357
354 371
354 392
354 393
354 414
354 418
354 421
354 425
355 285
355 299
355 304
355 311
355 316
355 326
355 327
355 331
355 352
355 353
355 361
355 369
355 375
355 378
355 380
355 388
355 396
355 398
355 401
355 406
355 413
355 428
355 433
356 286
356 290
356 306
356 307
356 312
356 320
356 330
356 333
356 334
356 339
356 358
356 359
356 363
356 372
356 383
356 384
356 387
356 390
356 403
356 407
356 410
356 419
356 430
357 284
357 298
357 302
357 319
357 322
357 328
357 342
357 351
357 354
357 366
357 371
357 386
357 392
357 393
357 405
357 414
357 417
357 418
357 421
357 425
358 290
358 306
358 307
358 312
358 313
358 320
358 330
358 333
358 334
358 339
358 356
358 359
358 363
358 364
358 372
358 383
358 384
358 387
358 390
358 403
358 407
358 410
358 419
358 420
358 443
359 306
359 307
359 308
359 313
359 329
359 330
359 332
359 333
359 334
359 356
359 358
359 364
359 367
359 377
359 383
359 384
359 387
359 390
359 399
359 400
359 410
359 419
359 420
360 288
360 297
360 310
360 311
360 315
360 318
360 338
360 341
360 343
360 346
360 369
360 373
360 374
360 375
360 376
360 378
360 385
360 406
360 409
360 412
360 415
360 423
360 436
361 293
361 304
361 309
361 321
361 326
361 327
361 331
361 336
361 348
361 352
361 353
361 355
361 365
361 380
361 388
361 396
361 397
361 398
361 411
361 413
361 426
361 427
361 428
362 289
362 294
362 296
362 314
362 322
362 324
362 328
362 337
362 342
362 344
362 345
362 347
362 351
362 366
362 371
362 381
362 386
362 389
362 391
362 393
362 402
362 404
362 405
362 417
362 429
362 434
362 437
363 286
363 290
363 306
363 312
363 320
363 333
363 334
363 339
363 356
363 358
363 372
363 383
363 384
363 387
363 403
363 407
363 419
363 430
363 440
364 303
364 307
364 308
364 313
364 329
364 330
364 332
364 334
364 340
364 358
364 359
364 367
364 368
364 377
364 384
364 387
364 390
364 394
364 399
364 400
364 410
364 420
365 287
365 295
365 309
365 314
365 321
365 324
365 331
365 336
365 344
365 345
365 347
365 348
365 361
365 381
365 382
365 388
365 391
365 396
365 397
365 404
365 411
365 424
365 426
365 427
365 442
366 289
366 296
366 302
366 322
366 328
366 337
366 342
366 345
366 351
366 357
366 362
366 371
366 386
366 389
366 391
366 393
366 402
366 405
366 417
366 421
366 429
366 437
367 303
367 307
367 308
367 313
367 317
367 325
367 329
367 330
367 332
367 334
367 340
367 349
367 359
367 364
367 368
367 377
367 379
367 384
367 390
367 394
367 399
367 400
367 410
367 416
367 420
367 435
367 448
368 301
368 303
368 317
368 323
368 325
368 329
368 332
368 335
368 340
368 349
368 350
368 364
368 367
368 370
368 377
368 379
368 394
368 395
368 399
368 400
368 408
368 416
368 422
368 435
368 445
368 448
369 311
369 316
369 318
369 327
369 346
369 352
369 353
369 355
369 360
369 373
369 374
369 375
369 378
369 380
369 398
369 401
369 406
369 409
369 413
369 423
369 433
369 438
370 300
370 305
370 310
370 323
370 325
370 335
370 338
370 340
370 341
370 343
370 349
370 350
370 368
370 373
370 376
370 379
370 385
370 394
370 395
370 408
370 412
370 415
370 416
370 422
370 431
370 432
371 302
371 319
371 322
371 328
371 337
371 342
371 351
371 354
371 357
371 362
371 366
371 386
371 392
371 393
371 402
371 405
371 414
371 417
371 418
371 421
371 425
371 437
372 312
372 320
372 333
372 339
372 356
372 358
372 363
372 383
372 387
372 403
372 407
372 430
372 440
373 297
373 300
373 310
373 315
373 318
373 335
373 338
373 341
373 343
373 346
373 360
373 369
373 370
373 374
373 376
373 378
373 385
373 395
373 409
373 412
373 415
373 423
373 432
373 436
373 446
374 310
374 311
374 315
374 318
374 338
374 343
374 346
374 352
374 360
374 369
374 373
374 375
374 376
374 378
374 380
374 385
374 401
374 406
374 409
374 415
374 423
374 436
374 438
374 446
374 456
375 299
375 311
375 316
375 326
375 327
375 346
375 352
375 353
375 355
375 360
375 369
375 374
375 378
375 380
375 388
375 398
375 401
375 406
375 409
375 413
375 423
375 433
375 438
375 444
376 297
376 300
376 310
376 315
376 318
376 335
376 338
376 341
376 343
376 346
376 350
376 360
376 370
376 373
376 374
376 378
376 385
376 395
376 409
376 412
376 415
376 422
376 431
376 432
376 436
376 446
377 301
377 303
377 308
377 317
377 323
377 325
377 329
377 332
377 340
377 349
377 350
377 359
377 364
377 367
377 368
377 379
377 390
377 394
377 399
377 400
377 408
377 416
377 420
377 422
377 435
377 445
377 448
378 311
378 315
378 316
378 318
378 343
378 346
378 352
378 355
378 360
378 369
378 373
378 374
378 375
378 376
378 380
378 401
378 406
378 409
378 415
378 423
378 433
378 436
378 438
378 456
378 458
379 317
379 323
379 325
379 329
379 335
379 340
379 341
379 349
379 350
379 367
379 368
379 370
379 377
379 385
379 394
379 395
379 399
379 400
379 408
379 412
379 416
379 422
379 431
379 435
379 445
379 449
379 453
380 311
380 316
380 326
380 327
380 331
380 352
380 353
380 355
380 361
380 369
380 374
380 375
380 378
380 388
380 396
380 398
380 401
380 406
380 413
380 423
380 428
380 433
380 438
380 444
380 459
381 314
381 324
381 336
381 337
381 344
381 345
381 347
381 348
381 362
381 365
381 382
381 389
381 391
381 397
381 402
381 404
381 411
381 424
381 426
381 429
381 434
381 439
381 442
381 454
381 462
382 309
382 314
382 321
382 324
382 336
382 344
382 345
382 347
382 348
382 365
382 381
382 389
382 391
382 397
382 404
382 411
382 424
382 426
382 427
382 434
382 439
382 442
382 454
383 306
383 312
383 320
383 333
383 334
383 339
383 356
383 358
383 359
383 363
383 372
383 384
383 387
383 390
383 403
383 407
383 410
383 419
383 430
383 440
383 443
383 447
384 306
384 307
384 313
384 330
384 332
384 333
384 334
384 356
384 358
384 359
384 363
384 364
384 367
384 383
384 387
384 390
384 399
384 407
384 410
384 419
384 420
384 443
384 447
384 451
384 452
385 310
385 323
385 335
385 338
385 341
385 343
385 349
385 350
385 360
385 370
385 373
385 374
385 376
385 379
385 395
385 408
385 409
385 412
385 415
385 422
385 431
385 432
385 436
385 446
385 453
386 322
386 328
386 337
386 342
386 345
386 351
386 357
386 362
386 366
386 371
386 389
386 391
386 392
386 393
386 402
386 405
386 417
386 418
386 421
386 425
386 429
386 434
386 437
386 461
387 306
387 320
387 330
387 333
387 334
387 339
387 356
387 358
387 359
387 363
387 364
387 372
387 383
387 384
387 390
387 403
387 407
387 410
387 419
387 420
387 430
387 440
387 443
387 447
387 452
387 466
388 321
388 326
388 327
388 331
388 348
388 352
388 353
388 355
388 361
388 365
388 375
388 380
388 396
388 397
388 398
388 401
388 413
388 426
388 427
388 428
388 433
388 444
388 450
388 460
389 314
389 328
389 337
389 344
389 345
389 347
389 351
389 362
389 366
389 381
389 382
389 386
389 391
389 393
389 402
389 404
389 405
389 417
389 424
389 429
389 434
389 437
389 439
389 457
390 313
390 330
390 332
390 333
390 334
390 356
390 358
390 359
390 364
390 367
390 377
390 383
390 384
390 387
390 399
390 400
390 407
390 410
390 419
390 420
390 443
390 448
390 451
390 452
391 314
391 324
391 337
391 344
391 345
391 347
391 362
391 365
391 366
391 381
391 382
391 386
391 389
391 402
391 404
391 405
391 411
391 424
391 429
391 434
391 437
391 439
391 442
391 454
391 457
391 462
392 319
392 322
392 342
392 354
392 357
392 371
392 386
392 393
392 414
392 417
392 418
392 421
392 425
392 441
392 455
392 463
393 322
393 328
393 342
393 351
393 354
393 357
393 362
393 366
393 371
393 386
393 389
393 392
393 402
393 405
393 414
393 417
393 418
393 421
393 425
393 429
393 437
393 441
393 455
393 461
394 317
394 323
394 325
394 329
394 340
394 349
394 350
394 364
394 367
394 368
394 370
394 377
394 379
394 395
394 399
394 400
394 408
394 416
394 422
394 431
394 435
394 445
394 448
394 449
394 453
394 469
394 471
394 472
395 323
395 335
395 338
395 341
395 349
395 350
395 368
395 370
395 373
395 376
395 379
395 385
395 394
395 408
395 412
395 415
395 416
395 422
395 431
395 432
395 445
395 449
395 453
395 467
395 469
396 321
396 326
396 331
396 348
396 353
396 355
396 361
396 365
396 380
396 388
396 397
396 398
396 401
396 411
396 413
396 426
396 427
396 428
396 433
396 442
396 444
396 450
396 460
396 475
397 321
397 331
397 336
397 347
397 348
397 353
397 361
397 365
397 381
397 382
397 388
397 396
397 398
397 404
397 411
397 424
397 426
397 427
397 428
397 442
397 450
397 454
397 460
397 468
397 475
398 326
398 327
398 331
398 348
398 352
398 353
398 355
398 361
398 369
398 375
398 380
398 388
398 396
398 397
398 401
398 406
398 413
398 426
398 427
398 428
398 433
398 438
398 444
398 450
398 459
398 460
398 465
398 475
398 484
399 329
399 332
399 340
399 359
399 364
399 367
399 368
399 377
399 379
399 384
399 390
399 394
399 400
399 408
399 410
399 416
399 420
399 435
399 445
399 448
399 451
399 452
399 471
399 478
399 482
400 329
400 332
400 340
400 349
400 350
400 359
400 364
400 367
400 368
400 377
400 379
400 390
400 394
400 399
400 408
400 416
400 420
400 422
400 435
400 445
400 448
400 449
400 451
400 471
400 472
400 482
401 327
401 352
401 353
401 355
401 369
401 374
401 375
401 378
401 380
401 388
401 396
401 398
401 406
401 409
401 413
401 423
401 428
401 433
401 438
401 444
401 456
401 459
401 460
401 465
401 473
401 489
402 337
402 344
402 345
402 351
402 362
402 366
402 371
402 381
402 386
402 389
402 391
402 393
402 404
402 405
402 417
402 421
402 424
402 429
402 434
402 437
402 439
402 457
402 461
402 462
402 470
403 339
403 356
403 358
403 363
403 372
403 383
403 387
403 407
403 419
403 430
403 440
403 443
403 447
403 474
403 476
403 485
404 324
404 344
404 345
404 347
404 362
404 365
404 381
404 382
404 389
404 391
404 397
404 402
404 411
404 424
404 426
404 429
404 434
404 439
404 442
404 454
404 457
404 462
404 480
405 328
405 337
405 342
405 351
405 357
405 362
405 366
405 371
405 386
405 389
405 391
405 393
405 402
405 417
405 418
405 421
405 425
405 429
405 434
405 437
405 455
405 457
405 461
405 470
405 488
406 346
406 352
406 355
406 360
406 369
406 374
406 375
406 378
406 380
406 398
406 401
406 409
406 413
406 423
406 433
406 436
406 438
406 444
406 456
406 458
406 459
406 465
406 473
406 487
407 333
407 334
407 339
407 356
407 358
407 363
407 372
407 383
407 384
407 387
407 390
407 403
407 410
407 419
407 420
407 430
407 440
407 443
407 447
407 452
407 466
407 474
407 476
407 485
407 491
408 325
408 335
408 340
408 349
408 350
408 368
408 370
408 377
408 379
408 385
408 394
408 395
408 399
408 400
408 412
408 416
408 422
408 431
408 432
408 435
408 445
408 448
408 449
408 453
408 469
408 471
408 472
408 483
409 343
409 346
409 360
409 369
409 373
409 374
409 375
409 376
409 378
409 385
409 401
409 406
409 412
409 415
409 423
409 432
409 436
409 438
409 446
409 456
409 458
409 464
409 479
409 487
410 330
410 334
410 356
410 358
410 359
410 364
410 367
410 383
410 384
410 387
410 390
410 399
410 407
410 419
410 420
410 440
410 443
410 447
410 451
410 452
410 466
410 476
410 477
410 478
410 493
411 336
411 347
411 348
411 361
411 365
411 381
411 382
411 391
411 396
411 397
411 404
411 424
411 426
411 427
411 428
411 434
411 439
411 442
411 450
411 454
411 462
411 468
411 480
412 335
412 338
412 341
412 343
412 350
412 360
412 370
412 373
412 376
412 379
412 385
412 395
412 408
412 409
412 415
412 422
412 431
412 432
412 436
412 446
412 449
412 453
412 464
412 467
412 479
412 483
413 352
413 353
413 355
413 361
413 369
413 375
413 380
413 388
413 396
413 398
413 401
413 406
413 423
413 427
413 428
413 433
413 438
413 444
413 450
413 459
413 460
413 465
413 473
413 475
413 484
413 489
414 354
414 357
414 371
414 392
414 393
414 418
414 421
414 425
414 441
414 455
414 463
414 481
415 338
415 341
415 343
415 346
415 360
415 370
415 373
415 374
415 376
415 378
415 385
415 395
415 409
415 412
415 422
415 423
415 431
415 432
415 436
415 446
415 456
415 458
415 464
415 467
415 479
416 340
416 349
416 350
416 367
416 368
416 370
416 377
416 379
416 394
416 395
416 399
416 400
416 408
416 422
416 431
416 435
416 445
416 448
416 449
416 451
416 453
416 469
416 471
416 472
416 482
416 498
417 342
417 351
417 357
417 362
417 366
417 371
417 386
417 389
417 392
417 393
417 402
417 405
417 418
417 421
417 425
417 429
417 434
417 437
417 455
417 457
417 461
417 470
417 481
417 488
417 497
418 354
418 357
418 371
418 386
418 392
418 393
418 405
418 414
418 417
418 421
418 425
418 441
418 455
418 461
418 463
418 481
418 496
419 334
419 356
419 358
419 359
419 363
419 383
419 384
419 387
419 390
419 403
419 407
419 410
419 420
419 430
419 440
419 443
419 447
419 451
419 452
419 466
419 474
419 476
419 477
419 491
419 493
419 500
420 358
420 359
420 364
420 367
420 377
420 384
420 387
420 390
420 399
420 400
420 407
420 410
420 419
420 435
420 443
420 447
420 448
420 451
420 452
420 466
420 477
420 478
420 482
420 493
421 342
421 351
421 354
421 357
421 366
421 371
421 386
421 392
421 393
421 402
421 405
421 414
421 417
421 418
421 425
421 429
421 437
421 441
421 455
421 457
421 461
421 463
421 470
421 481
421 488
422 349
422 350
422 368
422 370
422 376
422 377
422 379
422 385
422 394
422 395
422 400
422 408
422 412
422 415
422 416
422 431
422 432
422 435
422 445
422 448
422 449
422 453
422 464
422 467
422 469
422 471
422 472
422 483
422 499
422 501
423 346
423 352
423 360
423 369
423 373
423 374
423 375
423 378
423 380
423 401
423 406
423 409
423 413
423 415
423 433
423 436
423 438
423 446
423 456
423 458
423 459
423 473
423 487
424 347
424 365
424 381
424 382
424 389
424 391
424 397
424 402
424 404
424 411
424 426
424 427
424 429
424 434
424 439
424 442
424 454
424 457
424 462
424 468
424 480
424 486
424 492
424 495
425 354
425 357
425 371
425 386
425 392
425 393
425 405
425 414
425 417
425 418
425 421
425 437
425 441
425 455
425 461
425 463
425 481
425 488
425 496
426 348
426 361
426 365
426 381
426 382
426 388
426 396
426 397
426 398
426 404
426 411
426 424
426 427
426 428
426 439
426 442
426 450
426 454
426 460
426 462
426 468
426 475
426 480
426 484
426 490
426 495
427 348
427 361
427 365
427 382
427 388
427 396
427 397
427 398
427 411
427 413
427 424
427 426
427 428
427 442
427 444
427 450
427 454
427 460
427 465
427 468
427 475
427 484
427 490
427 495
428 353
428 355
428 361
428 380
428 388
428 396
428 397
428 398
428 401
428 411
428 413
428 426
428 427
428 433
428 442
428 444
428 450
428 459
428 460
428 465
428 475
428 484
428 489
428 490
428 505
429 362
429 366
429 381
429 386
429 389
429 391
429 393
429 402
429 404
429 405
429 417
429 421
429 424
429 434
429 437
429 439
429 454
429 457
429 461
429 462
429 470
429 486
429 488
429 492
429 494
429 497
430 356
430 363
430 372
430 383
430 387
430 403
430 407
430 419
430 440
430 443
430 447
430 466
430 474
430 476
430 485
430 491
430 504
431 350
431 370
431 376
431 379
431 385
431 394
431 395
431 408
431 412
431 415
431 416
431 422
431 432
431 445
431 446
431 449
431 453
431 464
431 467
431 469
431 472
431 483
431 499
431 501
432 370
432 373
432 376
432 385
432 395
432 408
432 409
432 412
432 415
432 422
432 431
432 436
432 446
432 449
432 453
432 458
432 464
432 467
432 479
432 483
432 501
432 507
433 352
433 355
433 369
433 375
433 378
433 380
433 388
433 396
433 398
433 401
433 406
433 413
433 423
433 428
433 438
433 444
433 450
433 456
433 458
433 459
433 460
433 465
433 473
433 484
433 487
433 489
433 503
433 509
434 362
434 381
434 382
434 386
434 389
434 391
434 402
434 404
434 405
434 411
434 417
434 424
434 429
434 437
434 439
434 442
434 454
434 457
434 462
434 470
434 480
434 486
434 492
434 494
434 510
435 367
435 368
435 377
435 379
435 394
435 399
435 400
435 408
435 416
435 420
435 422
435 445
435 448
435 449
435 451
435 452
435 453
435 469
435 471
435 472
435 478
435 482
435 498
435 499
435 506
436 360
436 373
436 374
436 376
436 378
436 385
436 406
436 409
436 412
436 415
436 423
436 432
436 438
436 446
436 456
436 458
436 464
436 467
436 479
436 487
436 502
437 351
437 362
437 366
437 371
437 386
437 389
437 391
437 393
437 402
437 405
437 417
437 421
437 425
437 429
437 434
437 439
437 455
437 457
437 461
437 470
437 481
437 486
437 488
437 494
437 497
438 369
438 374
438 375
438 378
438 380
438 398
438 401
438 406
438 409
438 413
438 423
438 433
438 436
438 444
438 456
438 458
438 459
438 465
438 473
438 487
438 489
438 503
438 509
438 514
439 381
439 382
439 389
439 391
439 402
439 404
439 411
439 424
439 426
439 429
439 434
439 437
439 442
439 454
439 457
439 462
439 468
439 480
439 486
439 492
439 494
439 510
439 513
440 363
440 372
440 383
440 387
440 403
440 407
440 410
440 419
440 430
440 443
440 447
440 466
440 474
440 476
440 485
440 491
440 500
440 504
441 392
441 393
441 414
441 418
441 421
441 425
441 455
441 461
441 463
441 481
441 496
442 365
442 381
442 382
442 391
442 396
442 397
442 404
442 411
442 424
442 426
442 427
442 428
442 434
442 439
442 450
442 454
442 460
442 462
442 468
442 475
442 480
442 490
442 492
442 495
443 358
443 383
443 384
443 387
443 390
443 403
443 407
443 410
443 419
443 420
443 430
443 440
443 447
443 451
443 452
443 466
443 474
443 476
443 477
443 478
443 491
443 493
443 500
443 515
444 375
444 380
444 388
444 396
444 398
444 401
444 406
444 413
444 427
444 428
444 433
444 438
444 450
444 459
444 460
444 465
444 473
444 475
444 484
444 489
444 490
444 505
444 509
444 512
445 368
445 377
445 379
445 394
445 395
445 399
445 400
445 408
445 416
445 422
445 431
445 435
445 448
445 449
445 451
445 453
445 469
445 471
445 472
445 478
445 482
445 483
445 498
445 499
445 506
445 516
445 517
446 373
446 374
446 376
446 385
446 409
446 412
446 415
446 423
446 431
446 432
446 436
446 456
446 458
446 464
446 467
446 479
446 487
446 502
446 507
446 518
446 520
447 383
447 384
447 387
447 403
447 407
447 410
447 419
447 420
447 430
447 440
447 443
447 452
447 466
447 474
447 476
447 477
447 485
447 491
447 493
447 500
447 504
447 523
448 367
448 368
448 377
448 390
448 394
448 399
448 400
448 408
448 416
448 420
448 422
448 435
448 445
448 449
448 451
448 452
448 453
448 469
448 471
448 472
448 477
448 478
448 482
448 498
448 499
448 506
448 508
448 516
449 379
449 394
449 395
449 400
449 408
449 412
449 416
449 422
449 431
449 432
449 435
449 445
449 448
449 453
449 467
449 469
449 471
449 472
449 482
449 483
449 498
449 499
449 501
449 506
449 517
450 388
450 396
450 397
450 398
450 411
450 413
450 426
450 427
450 428
450 433
450 442
450 444
450 460
450 465
450 468
450 475
450 484
450 489
450 490
450 495
450 505
450 512
450 528
451 384
451 390
451 399
451 400
451 410
451 416
451 419
451 420
451 435
451 443
451 445
451 448
451 452
451 466
451 471
451 472
451 477
451 478
451 482
451 493
451 498
451 500
451 506
451 508
451 515
451 516
451 519
452 384
452 387
452 390
452 399
452 407
452 410
452 419
452 420
452 435
452 443
452 447
452 448
452 451
452 466
452 476
452 477
452 478
452 482
452 491
452 493
452 500
452 508
452 515
452 519
452 526
453 379
453 385
453 394
453 395
453 408
453 412
453 416
453 422
453 431
453 432
453 435
453 445
453 448
453 449
453 464
453 467
453 469
453 471
453 472
453 483
453 498
453 499
453 501
453 507
453 517
453 529
453 536
454 381
454 382
454 391
454 397
454 404
454 411
454 424
454 426
454 427
454 429
454 434
454 439
454 442
454 457
454 462
454 468
454 480
454 486
454 490
454 492
454 494
454 495
454 510
454 513
454 524
454 530
455 392
455 393
455 405
455 414
455 417
455 418
455 421
455 425
455 437
455 441
455 461
455 463
455 470
455 481
455 488
455 496
455 497
455 511
455 521
455 522
456 374
456 378
456 401
456 406
456 409
456 415
456 423
456 433
456 436
456 438
456 446
456 458
456 459
456 464
456 465
456 473
456 479
456 487
456 489
456 502
456 503
456 514
457 389
457 391
457 402
457 404
457 405
457 417
457 421
457 424
457 429
457 434
457 437
457 439
457 454
457 461
457 462
457 470
457 480
457 486
457 488
457 492
457 494
457 497
457 510
457 513
457 527
457 532
458 378
458 406
458 409
458 415
458 423
458 432
458 433
458 436
458 438
458 446
458 456
458 459
458 464
458 467
458 473
458 479
458 487
458 502
458 503
458 514
458 520
458 538
459 380
459 398
459 401
459 406
459 413
459 423
459 428
459 433
459 438
459 444
459 456
459 458
459 460
459 465
459 473
459 484
459 487
459 489
459 503
459 505
459 509
459 512
459 514
460 388
460 396
460 397
460 398
460 401
460 413
460 426
460 427
460 428
460 433
460 442
460 444
460 450
460 459
460 465
460 468
460 473
460 475
460 484
460 489
460 490
460 495
460 505
460 509
460 512
460 528
460 533
461 386
461 393
461 402
461 405
461 417
461 418
461 421
461 425
461 429
461 437
461 441
461 455
461 457
461 463
461 470
461 481
461 488
461 494
461 496
461 497
461 511
461 522
461 527
461 534
462 381
462 391
462 402
462 404
462 411
462 424
462 426
462 429
462 434
462 439
462 442
462 454
462 457
462 468
462 470
462 480
462 486
462 492
462 494
462 495
462 510
462 513
462 524
462 532
462 541
463 392
463 414
463 418
463 421
463 425
463 441
463 455
463 461
463 481
463 488
463 496
463 511
463 521
463 522
464 409
464 412
464 415
464 422
464 431
464 432
464 436
464 446
464 453
464 456
464 458
464 467
464 479
464 483
464 487
464 501
464 502
464 507
464 518
464 520
464 529
464 540
465 398
465 401
465 406
465 413
465 427
465 428
465 433
465 438
465 444
465 450
465 456
465 459
465 460
465 473
465 475
465 484
465 489
465 490
465 503
465 505
465 509
465 512
465 533
465 543
466 387
466 407
466 410
466 419
466 420
466 430
466 440
466 443
466 447
466 451
466 452
466 474
466 476
466 477
466 478
466 485
466 491
466 493
466 500
466 504
466 508
466 515
466 519
466 523
466 526
466 535
466 544
467 395
467 412
467 415
467 422
467 431
467 432
467 436
467 446
467 449
467 453
467 458
467 464
467 469
467 479
467 483
467 499
467 501
467 502
467 507
467 517
467 518
467 520
467 529
467 536
467 540
468 397
468 411
468 424
468 426
468 427
468 439
468 442
468 450
468 454
468 460
468 462
468 475
468 480
468 484
468 490
468 492
468 495
468 505
468 513
468 524
468 528
468 530
468 546
469 394
469 395
469 408
469 416
469 422
469 431
469 435
469 445
469 448
469 449
469 453
469 467
469 471
469 472
469 482
469 483
469 498
469 499
469 501
469 506
469 507
469 516
469 517
469 529
469 531
469 536
469 539
470 402
470 405
470 417
470 421
470 429
470 434
470 437
470 455
470 457
470 461
470 462
470 481
470 486
470 488
470 492
470 494
470 497
470 510
470 511
470 527
470 532
470 534
470 551
470 553
471 394
471 399
471 400
471 408
471 416
471 422
471 435
471 445
471 448
471 449
471 451
471 453
471 469
471 472
471 478
471 482
471 483
471 498
471 499
471 501
471 506
471 508
471 516
471 517
471 531
471 539
471 550
472 394
472 400
472 408
472 416
472 422
472 431
472 435
472 445
472 448
472 449
472 451
472 453
472 469
472 471
472 478
472 482
472 483
472 498
472 499
472 501
472 506
472 516
472 517
472 529
472 531
472 536
472 539
472 550
473 401
473 406
473 413
473 423
473 433
473 438
473 444
473 456
473 458
473 459
473 460
473 465
473 484
473 487
473 489
473 502
473 503
473 509
473 512
473 514
473 542
473 543
474 403
474 407
474 419
474 430
474 440
474 443
474 447
474 466
474 476
474 485
474 491
474 493
474 500
474 504
474 523
474 525
474 526
474 535
474 545
474 549
475 396
475 397
475 398
475 413
475 426
475 427
475 428
475 442
475 444
475 450
475 460
475 465
475 468
475 484
475 489
475 490
475 495
475 505
475 509
475 512
475 528
475 530
475 533
475 546
476 403
476 407
476 410
476 419
476 430
476 440
476 443
476 447
476 452
476 466
476 474
476 477
476 485
476 491
476 493
476 500
476 504
476 515
476 523
476 525
476 526
476 535
476 545
476 555
477 410
477 419
477 420
477 443
477 447
477 448
477 451
477 452
477 466
477 476
477 478
477 482
477 491
477 493
477 500
477 508
477 515
477 516
477 519
477 523
477 526
477 537
477 544
477 556
477 557
478 399
478 410
478 420
478 435
478 443
478 445
478 448
478 451
478 452
478 466
478 471
478 472
478 477
478 482
478 493
478 498
478 500
478 506
478 508
478 515
478 516
478 519
478 526
478 531
478 537
478 544
478 548
478 556
478 558
479 409
479 412
479 415
479 432
479 436
479 446
479 456
479 458
479 464
479 467
479 487
479 501
479 502
479 507
479 514
479 518
479 520
479 529
479 538
479 540
479 547
480 404
480 411
480 424
480 426
480 434
480 439
480 442
480 454
480 457
480 462
480 468
480 486
480 490
480 492
480 494
480 495
480 510
480 513
480 524
480 530
480 532
480 541
480 546
480 562
481 414
481 417
481 418
481 421
481 425
481 437
481 441
481 455
481 461
481 463
481 470
481 488
481 496
481 497
481 511
481 521
481 522
481 527
481 534
481 552
482 399
482 400
482 416
482 420
482 435
482 445
482 448
482 449
482 451
482 452
482 469
482 471
482 472
482 477
482 478
482 483
482 493
482 498
482 499
482 506
482 508
482 516
482 517
482 519
482 531
482 537
482 539
482 548
482 550
482 558
483 408
483 412
483 422
483 431
483 432
483 445
483 449
483 453
483 464
483 467
483 469
483 471
483 472
483 482
483 498
483 499
483 501
483 506
483 507
483 517
483 518
483 529
483 531
483 536
483 539
483 540
483 554
484 398
484 413
484 426
484 427
484 428
484 433
484 444
484 450
484 459
484 460
484 465
484 468
484 473
484 475
484 489
484 490
484 495
484 505
484 509
484 512
484 528
484 533
484 543
484 565
484 566
485 403
485 407
485 430
485 440
485 447
485 466
485 474
485 476
485 491
485 500
485 504
485 523
485 525
485 526
485 535
485 545
485 549
486 424
486 429
486 434
486 437
486 439
486 454
486 457
486 462
486 470
486 480
486 488
486 492
486 494
486 497
486 510
486 513
486 524
486 527
486 532
486 541
486 551
487 406
487 409
487 423
487 433
487 436
487 438
487 446
487 456
487 458
487 459
487 464
487 473
487 479
487 489
487 502
487 503
487 509
487 514
487 520
487 538
487 542
487 559
487 560
487 564
488 405
488 417
488 421
488 425
488 429
488 437
488 455
488 457
488 461
488 463
488 470
488 481
488 486
488 494
488 496
488 497
488 511
488 521
488 522
488 527
488 532
488 534
488 551
488 553
488 563
488 570
489 401
489 413
489 428
489 433
489 438
489 444
489 450
489 456
489 459
489 460
489 465
489 473
489 475
489 484
489 487
489 503
489 505
489 509
489 512
489 514
489 533
489 542
489 543
489 565
490 426
490 427
490 428
490 442
490 444
490 450
490 454
490 460
490 465
490 468
490 475
490 480
490 484
490 495
490 505
490 512
490 524
490 528
490 530
490 533
490 546
490 561
491 407
491 419
491 430
491 440
491 443
491 447
491 452
491 466
491 474
491 476
491 477
491 485
491 493
491 500
491 504
491 515
491 523
491 525
491 526
491 535
491 545
491 549
491 555
491 575
492 424
492 429
492 434
492 439
492 442
492 454
492 457
492 462
492 468
492 470
492 480
492 486
492 494
492 495
492 510
492 513
492 524
492 530
492 532
492 541
492 562
492 572
492 581
493 410
493 419
493 420
493 443
493 447
493 451
493 452
493 466
493 474
493 476
493 477
493 478
493 482
493 491
493 500
493 508
493 515
493 516
493 519
493 523
493 526
493 535
493 537
493 544
493 555
493 556
493 557
493 574
494 429
494 434
494 437
494 439
494 454
494 457
494 461
494 462
494 470
494 480
494 486
494 488
494 492
494 497
494 510
494 513
494 524
494 527
494 532
494 534
494 541
494 551
494 553
494 569
494 573
495 424
495 426
495 427
495 442
495 450
495 454
495 460
495 462
495 468
495 475
495 480
495 484
495 490
495 492
495 505
495 513
495 524
495 528
495 530
495 533
495 546
495 561
495 562
496 418
496 425
496 441
496 455
496 461
496 463
496 481
496 488
496 497
496 511
496 521
496 522
496 534
496 552
496 568
496 570
496 578
497 417
497 429
497 437
497 455
497 457
497 461
497 470
497 481
497 486
497 488
497 494
497 496
497 510
497 511
497 522
497 527
497 532
497 534
497 541
497 551
497 553
497 563
497 569
497 570
498 416
498 435
498 445
498 448
498 449
498 451
498 453
498 469
498 471
498 472
498 478
498 482
498 483
498 499
498 501
498 506
498 508
498 516
498 517
498 529
498 531
498 536
498 537
498 539
498 548
498 550
498 558
498 576
498 580
499 422
499 431
499 435
499 445
499 448
499 449
499 453
499 467
499 469
499 471
499 472
499 482
499 483
499 498
499 501
499 506
499 507
499 516
499 517
499 529
499 531
499 536
499 539
499 540
499 550
499 554
499 576
499 577
499 580
500 419
500 440
500 443
500 447
500 451
500 452
500 466
500 474
500 476
500 477
500 478
500 485
500 491
500 493
500 504
500 508
500 515
500 519
500 523
500 525
500 526
500 535
500 537
500 544
500 545
500 555
500 556
500 557
500 574
500 575
500 585
501 422
501 431
501 432
501 449
501 453
501 464
501 467
501 469
501 471
501 472
501 479
501 483
501 498
501 499
501 507
501 517
501 518
501 520
501 529
501 536
501 539
501 540
501 547
501 554
501 567
501 571
501 577
501 583
502 436
502 446
502 456
502 458
502 464
502 467
502 473
502 479
502 487
502 503
502 507
502 514
502 518
502 520
502 538
502 540
502 542
502 547
502 559
502 560
502 564
502 571
502 586
503 433
503 438
503 456
503 458
503 459
503 465
503 473
503 487
503 489
503 502
503 505
503 509
503 512
503 514
503 538
503 542
503 543
503 559
503 560
503 564
503 565
503 584
504 430
504 440
504 447
504 466
504 474
504 476
504 485
504 491
504 500
504 523
504 525
504 526
504 535
504 545
504 549
504 555
504 575
504 579
504 582
505 428
505 444
505 450
505 459
505 460
505 465
505 468
505 475
505 484
505 489
505 490
505 495
505 503
505 509
505 512
505 528
505 530
505 533
505 543
505 546
505 561
505 565
505 566
506 435
506 445
506 448
506 449
506 451
506 469
506 471
506 472
506 478
506 482
506 483
506 498
506 499
506 508
506 516
506 517
506 519
506 531
506 536
506 537
506 539
506 548
506 550
506 556
506 558
506 576
506 580
506 592
507 432
507 446
507 453
507 464
507 467
507 469
507 479
507 483
507 499
507 501
507 502
507 517
507 518
507 520
507 529
507 536
507 538
507 540
507 547
507 554
507 567
507 571
507 577
507 583
508 448
508 451
508 452
508 466
508 471
508 477
508 478
508 482
508 493
508 498
508 500
508 506
508 515
508 516
508 519
508 523
508 526
508 531
508 537
508 544
508 548
508 550
508 556
508 557
508 558
508 574
508 576
508 585
508 600
509 433
509 438
509 444
509 459
509 460
509 465
509 473
509 475
509 484
509 487
509 489
509 503
509 505
509 512
509 514
509 533
509 542
509 543
509 559
509 560
509 565
509 566
509 584
509 587
510 434
510 439
510 454
510 457
510 462
510 470
510 480
510 486
510 492
510 494
510 497
510 513
510 524
510 527
510 530
510 532
510 534
510 541
510 551
510 553
510 569
510 572
510 573
510 581
510 602
511 455
511 461
511 463
511 470
511 481
511 488
511 496
511 497
511 521
511 522
511 527
511 534
511 551
511 552
511 553
511 563
511 568
511 569
511 570
511 578
511 589
511 590
511 597
512 444
512 450
512 459
512 460
512 465
512 473
512 475
512 484
512 489
512 490
512 503
512 505
512 509
512 514
512 528
512 533
512 542
512 543
512 561
512 565
512 566
512 584
512 587
512 598
512 601
513 439
513 454
513 457
513 462
513 468
513 480
513 486
513 492
513 494
513 495
513 510
513 524
513 530
513 532
513 541
513 546
513 551
513 562
513 572
513 573
513 581
513 591
513 599
514 438
514 456
514 458
514 459
514 473
514 479
514 487
514 489
514 502
514 503
514 509
514 512
514 520
514 538
514 542
514 543
514 547
514 559
514 560
514 564
514 584
514 586
514 595
515 443
515 451
515 452
515 466
515 476
515 477
515 478
515 491
515 493
515 500
515 508
515 516
515 519
515 523
515 526
515 535
515 537
515 544
515 545
515 548
515 555
515 556
515 557
515 558
515 574
515 575
515 585
515 588
516 445
516 448
516 451
516 469
516 471
516 472
516 477
516 478
516 482
516 493
516 498
516 499
516 506
516 508
516 515
516 517
516 519
516 531
516 537
516 539
516 544
516 548
516 550
516 556
516 558
516 574
516 576
516 580
516 592
516 600
517 445
517 449
517 453
517 467
517 469
517 471
517 472
517 482
517 483
517 498
517 499
517 501
517 506
517 507
517 516
517 529
517 531
517 536
517 539
517 540
517 550
517 554
517 567
517 576
517 577
517 580
517 583
517 607
518 446
518 464
518 467
518 479
518 483
518 501
518 502
518 507
518 520
518 529
518 536
518 538
518 540
518 547
518 554
518 559
518 564
518 567
518 571
518 583
518 586
518 593
518 608
519 451
519 452
519 466
519 477
519 478
519 482
519 493
519 500
519 506
519 508
519 515
519 516
519 523
519 526
519 531
519 535
519 537
519 544
519 548
519 550
519 555
519 556
519 557
519 558
519 574
519 585
519 600
520 446
520 458
520 464
520 467
520 479
520 487
520 501
520 502
520 507
520 514
520 518
520 529
520 538
520 540
520 547
520 554
520 559
520 560
520 564
520 567
520 571
520 586
520 593
520 595
521 455
521 463
521 481
521 488
521 496
521 511
521 522
521 534
521 552
521 563
521 568
521 570
521 578
521 590
521 606
522 455
522 461
522 463
522 481
522 488
522 496
522 497
522 511
522 521
522 527
522 534
522 552
522 553
522 563
522 568
522 570
522 578
522 590
522 597
522 606
522 609
523 447
523 466
523 474
523 476
523 477
523 485
523 491
523 493
523 500
523 504
523 508
523 515
523 519
523 525
523 526
523 535
523 544
523 545
523 549
523 555
523 556
523 557
523 574
523 575
523 582
523 585
523 588
523 605
524 454
524 462
524 468
524 480
524 486
524 490
524 492
524 494
524 495
524 510
524 513
524 528
524 530
524 532
524 541
524 546
524 561
524 562
524 572
524 573
524 581
524 591
524 599
524 603
525 474
525 476
525 485
525 491
525 500
525 504
525 523
525 526
525 535
525 545
525 549
525 555
525 575
525 579
525 582
525 588
525 604
525 605
526 452
526 466
526 474
526 476
526 477
526 478
526 485
526 491
526 493
526 500
526 504
526 508
526 515
526 519
526 523
526 525
526 535
526 537
526 544
526 545
526 549
526 555
526 556
526 557
526 558
526 574
526 575
526 582
526 585
526 588
527 457
527 461
527 470
527 481
527 486
527 488
527 494
527 497
527 510
527 511
527 522
527 532
527 534
527 541
527 551
527 553
527 563
527 569
527 570
527 573
527 578
527 581
527 589
527 596
527 597
527 602
528 450
528 460
528 468
528 475
528 484
528 490
528 495
528 505
528 512
528 524
528 530
528 533
528 543
528 546
528 561
528 562
528 565
528 566
528 594
528 598
528 603
528 616
529 453
529 464
529 467
529 469
529 472
529 479
529 483
529 498
529 499
529 501
529 507
529 517
529 518
529 520
529 536
529 539
529 540
529 547
529 554
529 567
529 571
529 577
529 580
529 583
529 607
529 608
529 613
530 454
530 468
530 475
530 480
530 490
530 492
530 495
530 505
530 510
530 513
530 524
530 528
530 533
530 541
530 546
530 561
530 562
530 572
530 581
530 591
530 594
530 599
530 603
531 469
531 471
531 472
531 478
531 482
531 483
531 498
531 499
531 506
531 508
531 516
531 517
531 519
531 536
531 537
531 539
531 548
531 550
531 556
531 558
531 576
531 577
531 580
531 592
531 600
531 610
531 611
531 620
532 457
532 462
532 470
532 480
532 486
532 488
532 492
532 494
532 497
532 510
532 513
532 524
532 527
532 534
532 541
532 551
532 553
532 563
532 569
532 572
532 573
532 581
532 589
532 596
532 599
532 602
533 460
533 465
533 475
533 484
533 489
533 490
533 495
533 505
533 509
533 512
533 528
533 530
533 542
533 543
533 546
533 561
533 565
533 566
533 587
533 594
533 598
533 601
533 616
534 461
534 470
534 481
534 488
534 494
534 496
534 497
534 510
534 511
534 521
534 522
534 527
534 532
534 551
534 552
534 553
534 563
534 569
534 570
534 573
534 578
534 589
534 590
534 596
534 597
534 609
534 626
535 466
535 474
535 476
535 485
535 491
535 493
535 500
535 504
535 515
535 519
535 523
535 525
535 526
535 544
535 545
535 549
535 555
535 557
535 574
535 575
535 579
535 582
535 585
535 588
535 604
535 605
535 612
535 623
536 453
536 467
536 469
536 472
536 483
536 498
536 499
536 501
536 506
536 507
536 517
536 518
536 529
536 531
536 539
536 540
536 550
536 554
536 567
536 571
536 576
536 577
536 580
536 583
536 607
536 613
537 477
537 478
537 482
537 493
537 498
537 500
537 506
537 508
537 515
537 516
537 519
537 526
537 531
537 539
537 544
537 548
537 550
537 556
537 557
537 558
537 574
537 576
537 585
537 592
537 600
537 611
537 615
537 620
538 458
538 479
538 487
538 502
538 503
538 507
538 514
538 518
538 520
538 540
538 542
538 547
538 559
538 560
538 564
538 567
538 571
538 584
538 586
538 593
538 595
538 614
538 618
539 469
539 471
539 472
539 482
539 483
539 498
539 499
539 501
539 506
539 516
539 517
539 529
539 531
539 536
539 537
539 548
539 550
539 554
539 558
539 576
539 577
539 580
539 583
539 592
539 607
539 610
540 464
540 467
540 479
540 483
540 499
540 501
540 502
540 507
540 517
540 518
540 520
540 529
540 536
540 538
540 547
540 554
540 564
540 567
540 571
540 577
540 583
540 586
540 593
540 607
540 608
540 613
541 462
541 480
541 486
541 492
541 494
541 497
541 510
541 513
541 524
541 527
541 530
541 532
541 551
541 553
541 562
541 569
541 572
541 573
541 581
541 591
541 596
541 599
541 602
541 625
542 473
542 487
542 489
542 502
542 503
542 509
542 512
542 514
542 533
542 538
542 543
542 559
542 560
542 564
542 565
542 566
542 584
542 586
542 587
542 595
542 601
542 614
542 617
543 465
543 473
543 484
543 489
543 503
543 505
543 509
543 512
543 514
543 528
543 533
543 542
543 559
543 560
543 561
543 565
543 566
543 584
543 587
543 598
543 601
543 617
543 624
544 466
544 477
544 478
544 493
544 500
544 508
544 515
544 516
544 519
544 523
544 526
544 535
544 537
544 548
544 555
544 556
544 557
544 558
544 574
544 575
544 585
544 588
544 592
544 600
544 611
544 615
544 619
544 623
545 474
545 476
545 485
545 491
545 500
545 504
545 515
545 523
545 525
545 526
545 535
545 549
545 555
545 557
545 575
545 579
545 582
545 585
545 588
545 604
545 605
545 612
545 623
546 468
546 475
546 480
546 490
546 495
546 505
546 513
546 524
546 528
546 530
546 533
546 561
546 562
546 565
546 566
546 572
546 591
546 594
546 598
546 599
546 603
546 616
547 479
547 501
547 502
547 507
547 514
547 518
547 520
547 529
547 538
547 540
547 554
547 559
547 560
547 564
547 567
547 571
547 583
547 586
547 593
547 595
547 608
547 618
548 478
548 482
548 498
548 506
548 508
548 515
548 516
548 519
548 531
548 537
548 539
548 544
548 550
548 556
548 557
548 558
548 574
548 576
548 580
548 585
548 592
548 600
548 610
548 611
548 615
548 620
549 474
549 485
549 491
549 504
549 523
549 525
549 526
549 535
549 545
549 555
549 575
549 579
549 582
549 588
549 604
549 605
549 612
550 471
550 472
550 482
550 498
550 499
550 506
550 508
550 516
550 517
550 519
550 531
550 536
550 537
550 539
550 548
550 554
550 556
550 558
550 576
550 577
550 580
550 592
550 600
550 607
550 610
550 611
550 620
551 470
551 486
551 488
551 494
551 497
551 510
551 511
551 513
551 527
551 532
551 534
551 541
551 553
551 563
551 569
551 570
551 572
551 573
551 581
551 589
551 596
551 597
551 599
551 602
551 621
551 625
551 626
552 481
552 496
552 511
552 521
552 522
552 534
552 553
552 563
552 568
552 570
552 578
552 589
552 590
552 597
552 606
552 609
552 622
553 470
553 488
553 494
553 497
553 510
553 511
553 522
553 527
553 532
553 534
553 541
553 551
553 552
553 563
553 569
553 570
553 573
553 578
553 581
553 589
553 596
553 597
553 602
553 609
553 621
553 625
553 626
554 483
554 499
554 501
554 507
554 517
554 518
554 520
554 529
554 536
554 539
554 540
554 547
554 550
554 567
554 571
554 576
554 577
554 580
554 583
554 593
554 607
554 608
554 613
555 476
555 491
555 493
555 500
555 504
555 515
555 519
555 523
555 525
555 526
555 535
555 544
555 545
555 549
555 556
555 557
555 574
555 575
555 579
555 582
555 585
555 588
555 604
555 605
555 612
555 619
555 623
556 477
556 478
556 493
556 500
556 506
556 508
556 515
556 516
556 519
556 523
556 526
556 531
556 537
556 544
556 548
556 550
556 555
556 557
556 558
556 574
556 576
556 585
556 588
556 592
556 600
556 610
556 611
556 615
556 619
556 620
557 477
557 493
557 500
557 508
557 515
557 519
557 523
557 526
557 535
557 537
557 544
557 545
557 548
557 555
557 556
557 558
557 574
557 575
557 582
557 585
557 588
557 600
557 605
557 611
557 612
557 615
557 619
557 623
558 478
558 482
558 498
558 506
558 508
558 515
558 516
558 519
558 526
558 531
558 537
558 539
558 544
558 548
558 550
558 556
558 557
558 574
558 576
558 580
558 585
558 592
558 600
558 610
558 611
558 615
558 619
558 620
559 487
559 502
559 503
559 509
559 514
559 518
559 520
559 538
559 542
559 543
559 547
559 560
559 564
559 571
559 584
559 586
559 587
559 593
559 595
559 614
559 617
559 618
560 487
560 502
560 503
560 509
560 514
560 520
560 538
560 542
560 543
560 547
560 559
560 564
560 584
560 586
560 587
560 593
560 595
560 601
560 614
560 617
560 618
561 490
561 495
561 505
561 512
561 524
561 528
561 530
561 533
561 543
561 546
561 562
561 565
561 566
561 591
561 594
561 598
561 601
561 603
561 616
561 624
562 480
562 492
562 495
562 513
562 524
562 528
562 530
562 541
562 546
562 561
562 572
562 573
562 581
562 591
562 594
562 599
562 602
562 603
562 616
563 488
563 497
563 511
563 521
563 522
563 527
563 532
563 534
563 551
563 552
563 553
563 569
563 570
563 573
563 578
563 589
563 590
563 596
563 597
563 602
563 606
563 609
563 621
563 622
563 626
564 487
564 502
564 503
564 514
564 518
564 520
564 538
564 540
564 542
564 547
564 559
564 560
564 567
564 571
564 584
564 586
564 593
564 595
564 608
564 614
564 617
564 618
565 484
565 489
565 503
565 505
565 509
565 512
565 528
565 533
565 542
565 543
565 546
565 561
565 566
565 584
565 587
565 594
565 598
565 601
565 616
565 617
565 624
566 484
566 505
566 509
566 512
566 528
566 533
566 542
566 543
566 546
566 561
566 565
566 584
566 587
566 594
566 598
566 601
566 603
566 616
566 624
567 501
567 507
567 517
567 518
567 520
567 529
567 536
567 538
567 540
567 547
567 554
567 564
567 571
567 577
567 583
567 586
567 593
567 607
567 608
567 613
567 618
568 496
568 511
568 521
568 522
568 552
568 570
568 578
568 590
568 597
568 606
568 609
568 622
569 494
569 497
569 510
569 511
569 527
569 532
569 534
569 541
569 551
569 553
569 563
569 570
569 572
569 573
569 578
569 581
569 589
569 596
569 597
569 602
569 609
569 621
569 625
569 626
570 488
570 496
570 497
570 511
570 521
570 522
570 527
570 534
570 551
570 552
570 553
570 563
570 568
570 569
570 578
570 589
570 590
570 596
570 597
570 606
570 609
570 621
570 622
570 626
571 501
571 502
571 507
571 518
571 520
571 529
571 536
571 538
571 540
571 547
571 554
571 559
571 564
571 567
571 577
571 583
571 586
571 593
571 595
571 607
571 608
571 613
571 618
572 492
572 510
572 513
572 524
572 530
572 532
572 541
572 546
572 551
572 562
572 569
572 573
572 581
572 591
572 596
572 599
572 602
572 603
572 621
572 625
573 494
573 510
573 513
573 524
573 527
573 532
573 534
573 541
573 551
573 553
573 562
573 563
573 569
573 572
573 581
573 589
573 591
573 596
573 599
573 602
573 621
573 625
574 493
574 500
574 508
574 515
574 516
574 519
574 523
574 526
574 535
574 537
574 544
574 548
574 555
574 556
574 557
574 558
574 575
574 585
574 588
574 592
574 600
574 611
574 612
574 615
574 619
574 620
574 623
575 491
575 500
575 504
575 515
575 523
575 525
575 526
575 535
575 544
575 545
575 549
575 555
575 557
575 574
575 579
575 582
575 585
575 588
575 604
575 605
575 612
575 619
575 623
576 498
576 499
576 506
576 508
576 516
576 517
576 531
576 536
576 537
576 539
576 548
576 550
576 554
576 556
576 558
576 577
576 580
576 583
576 592
576 600
576 607
576 610
576 611
576 613
576 615
576 620
577 499
577 501
577 507
577 517
577 529
577 531
577 536
577 539
577 540
577 550
577 554
577 567
577 571
577 576
577 580
577 583
577 592
577 607
577 608
577 610
577 613
577 620
578 496
578 511
578 521
578 522
578 527
578 534
578 552
578 553
578 563
578 568
578 569
578 570
578 589
578 590
578 596
578 597
578 606
578 609
578 622
578 626
579 504
579 525
579 535
579 545
579 549
579 555
579 575
579 582
579 588
579 604
579 605
579 612
580 498
580 499
580 506
580 516
580 517
580 529
580 531
580 536
580 539
580 548
580 550
580 554
580 558
580 576
580 577
580 583
580 592
580 600
580 607
580 610
580 611
580 613
580 620
581 492
581 510
581 513
581 524
581 527
581 530
581 532
581 541
581 551
581 553
581 562
581 569
581 572
581 573
581 589
581 591
581 596
581 599
581 602
581 621
581 625
582 504
582 523
582 525
582 526
582 535
582 545
582 549
582 555
582 557
582 575
582 579
582 585
582 588
582 604
582 605
582 612
582 623
583 501
583 507
583 517
583 518
583 529
583 536
583 539
583 540
583 547
583 554
583 567
583 571
583 576
583 577
583 580
583 593
583 607
583 608
583 613
584 503
584 509
584 512
584 514
584 538
584 542
584 543
584 559
584 560
584 564
584 565
584 566
584 586
584 587
584 595
584 598
584 601
584 614
584 617
584 618
584 624
585 500
585 508
585 515
585 519
585 523
585 526
585 535
585 537
585 544
585 545
585 548
585 555
585 556
585 557
585 558
585 574
585 575
585 582
585 588
585 592
585 600
585 605
585 611
585 612
585 615
585 619
585 623
586 502
586 514
586 518
586 520
586 538
586 540
586 542
586 547
586 559
586 560
586 564
586 567
586 571
586 584
586 593
586 595
586 608
586 614
586 617
586 618
587 509
587 512
587 533
587 542
587 543
587 559
587 560
587 565
587 566
587 584
587 594
587 595
587 598
587 601
587 614
587 616
587 617
587 624
588 515
588 523
588 525
588 526
588 535
588 544
588 545
588 549
588 555
588 556
588 557
588 574
588 575
588 579
588 582
588 585
588 600
588 604
588 605
588 612
588 615
588 619
588 623
589 511
589 527
589 532
589 534
589 551
589 552
589 553
589 563
589 569
589 570
589 573
589 578
589 581
589 590
589 596
589 597
589 602
589 609
589 621
589 622
589 625
589 626
590 511
590 521
590 522
590 534
590 552
590 563
590 568
590 570
590 578
590 589
590 597
590 606
590 609
590 622
590 626
591 513
591 524
591 530
591 541
591 546
591 561
591 562
591 572
591 573
591 581
591 594
591 599
591 602
591 603
591 616
591 625
592 506
592 516
592 531
592 537
592 539
592 544
592 548
592 550
592 556
592 558
592 574
592 576
592 577
592 580
592 585
592 600
592 607
592 610
592 611
592 615
592 619
592 620
593 518
593 520
593 538
593 540
593 547
593 554
593 559
593 560
593 564
593 567
593 571
593 583
593 586
593 595
593 608
593 613
593 614
593 618
594 528
594 530
594 533
594 546
594 561
594 562
594 565
594 566
594 587
594 591
594 598
594 601
594 603
594 616
594 624
595 514
595 520
595 538
595 542
595 547
595 559
595 560
595 564
595 571
595 584
595 586
595 587
595 593
595 614
595 617
595 618
596 527
596 532
596 534
596 541
596 551
596 553
596 563
596 569
596 570
596 572
596 573
596 578
596 581
596 589
596 597
596 599
596 602
596 609
596 621
596 625
596 626
597 511
597 522
597 527
597 534
597 551
597 552
597 553
597 563
597 568
597 569
597 570
597 578
597 589
597 590
597 596
597 606
597 609
597 621
597 622
597 626
598 512
598 528
598 533
598 543
598 546
598 561
598 565
598 566
598 584
598 587
598 594
598 601
598 603
598 616
598 617
598 624
599 513
599 524
599 530
599 532
599 541
599 546
599 551
599 562
599 572
599 573
599 581
599 591
599 596
599 602
599 603
599 621
599 625
600 508
600 516
600 519
600 531
600 537
600 544
600 548
600 550
600 556
600 557
600 558
600 574
600 576
600 580
600 585
600 588
600 592
600 610
600 611
600 615
600 619
600 620
600 623
601 512
601 533
601 542
601 543
601 560
601 561
601 565
601 566
601 584
601 587
601 594
601 598
601 614
601 616
601 617
601 624
602 510
602 527
602 532
602 541
602 551
602 553
602 562
602 563
602 569
602 572
602 573
602 581
602 589
602 591
602 596
602 599
602 621
602 625
602 626
603 524
603 528
603 530
603 546
603 561
603 562
603 566
603 572
603 591
603 594
603 598
603 599
603 616
604 525
604 535
604 545
604 549
604 555
604 575
604 579
604 582
604 588
604 605
604 612
604 623
605 523
605 525
605 535
605 545
605 549
605 555
605 557
605 575
605 579
605 582
605 585
605 588
605 604
605 612
605 619
605 623
606 521
606 522
606 552
606 563
606 568
606 570
606 578
606 590
606 597
606 609
606 622
606 626
607 517
607 529
607 536
607 539
607 540
607 550
607 554
607 567
607 571
607 576
607 577
607 580
607 583
607 592
607 608
607 610
607 613
607 620
608 518
608 529
608 540
608 547
608 554
608 564
608 567
608 571
608 577
608 583
608 586
608 593
608 607
608 613
608 618
609 522
609 534
609 552
609 553
609 563
609 568
609 569
609 570
609 578
609 589
609 590
609 596
609 597
609 606
609 621
609 622
609 626
610 531
610 539
610 548
610 550
610 556
610 558
610 576
610 577
610 580
610 592
610 600
610 607
610 611
610 613
610 615
610 620
611 531
611 537
611 544
611 548
611 550
611 556
611 557
611 558
611 574
611 576
611 580
611 585
611 592
611 600
611 610
611 615
611 619
611 620
612 535
612 545
612 549
612 555
612 557
612 574
612 575
612 579
612 582
612 585
612 588
612 604
612 605
612 615
612 619
612 623
613 529
613 536
613 540
613 554
613 567
613 571
613 576
613 577
613 580
613 583
613 593
613 607
613 608
613 610
614 538
614 542
614 559
614 560
614 564
614 584
614 586
614 587
614 593
614 595
614 601
614 617
614 618
614 624
615 537
615 544
615 548
615 556
615 557
615 558
615 574
615 576
615 585
615 588
615 592
615 600
615 610
615 611
615 612
615 619
615 620
615 623
616 528
616 533
616 546
616 561
616 562
616 565
616 566
616 587
616 591
616 594
616 598
616 601
616 603
616 624
617 542
617 543
617 559
617 560
617 564
617 565
617 584
617 586
617 587
617 595
617 598
617 601
617 614
617 618
617 624
618 538
618 547
618 559
618 560
618 564
618 567
618 571
618 584
618 586
618 593
618 595
618 608
618 614
618 617
619 544
619 555
619 556
619 557
619 558
619 574
619 575
619 585
619 588
619 592
619 600
619 605
619 611
619 612
619 615
619 620
619 623
620 531
620 537
620 548
620 550
620 556
620 558
620 574
620 576
620 577
620 580
620 592
620 600
620 607
620 610
620 611
620 615
620 619
621 551
621 553
621 563
621 569
621 570
621 572
621 573
621 581
621 589
621 596
621 597
621 599
621 602
621 609
621 625
621 626
622 552
622 563
622 568
622 570
622 578
622 589
622 590
622 597
622 606
622 609
622 626
623 535
623 544
623 545
623 555
623 557
623 574
623 575
623 582
623 585
623 588
623 600
623 604
623 605
623 612
623 615
623 619
624 543
624 561
624 565
624 566
624 584
624 587
624 594
624 598
624 601
624 614
624 616
624 617
625 541
625 551
625 553
625 569
625 572
625 573
625 581
625 589
625 591
625 596
625 599
625 602
625 621
625 626
626 534
626 551
626 553
626 563
626 569
626 570
626 578
626 589
626 590
626 596
626 597
626 602
626 606
626 609
626 621
626 622
626 625
