1 2
1 15
1 16
1 29
2 1
2 15
2 16
2 17
2 29
2 43
3 28
3 40
4 18
4 19
4 21
4 34
4 45
5 7
5 12
5 20
5 31
5 35
5 36
6 8
6 24
6 25
6 32
6 33
6 58
7 5
7 10
7 12
7 22
7 26
7 36
7 44
7 46
7 49
8 6
8 16
8 17
8 25
8 32
8 33
8 41
8 60
9 10
9 24
9 26
9 39
9 52
10 7
10 9
10 22
10 24
10 26
10 39
10 52
10 54
11 14
11 23
11 30
11 37
11 53
12 5
12 7
12 22
12 35
12 36
12 44
12 46
13 21
13 38
13 42
13 47
14 11
14 23
14 27
14 30
14 37
14 57
15 1
15 2
15 16
15 19
15 29
15 56
15 61
16 1
16 2
16 8
16 15
16 17
16 29
16 41
16 43
16 50
16 61
17 2
17 8
17 16
17 25
17 29
17 33
17 41
17 43
17 50
17 60
17 70
18 4
18 19
18 34
18 45
18 63
18 64
18 72
19 4
19 15
19 18
19 34
19 48
19 63
19 64
20 5
20 31
20 35
20 59
21 4
21 13
21 38
21 45
21 47
21 66
21 74
22 7
22 10
22 12
22 26
22 36
22 44
22 46
22 49
22 54
23 11
23 14
23 27
23 30
23 37
23 40
23 57
23 62
24 6
24 9
24 10
24 25
24 32
24 39
24 52
24 65
24 69
25 6
25 8
25 17
25 24
25 32
25 33
25 41
25 58
25 60
25 65
25 67
26 7
26 9
26 10
26 22
26 39
26 46
26 49
26 52
26 54
27 14
27 23
27 28
27 37
27 40
27 55
27 57
27 62
28 3
28 27
28 40
28 51
28 55
29 1
29 2
29 15
29 16
29 17
29 41
29 43
29 50
29 56
29 61
29 70
29 77
30 11
30 14
30 23
30 37
30 53
30 57
30 68
30 79
31 5
31 20
31 35
31 36
31 59
31 73
31 80
32 6
32 8
32 24
32 25
32 33
32 52
32 58
32 65
32 67
32 69
33 6
33 8
33 17
33 25
33 32
33 41
33 43
33 58
33 60
33 67
33 70
33 81
34 4
34 18
34 19
34 45
34 48
34 63
34 64
34 72
35 5
35 12
35 20
35 31
35 36
35 44
35 59
35 73
35 80
36 5
36 7
36 12
36 22
36 31
36 35
36 44
36 46
36 59
36 73
36 75
37 11
37 14
37 23
37 27
37 30
37 53
37 57
37 62
37 68
37 79
38 13
38 21
38 42
38 47
38 51
38 71
38 74
38 76
38 90
39 9
39 10
39 24
39 26
39 49
39 52
39 54
39 69
39 78
39 83
40 3
40 23
40 27
40 28
40 55
40 57
40 62
40 86
41 8
41 16
41 17
41 25
41 29
41 33
41 43
41 50
41 60
41 67
41 70
41 77
41 81
41 96
42 13
42 38
42 47
42 51
42 71
42 76
42 82
43 2
43 16
43 17
43 29
43 33
43 41
43 50
43 60
43 61
43 70
43 77
43 88
43 96
44 7
44 12
44 22
44 35
44 36
44 46
44 49
44 73
44 75
44 91
44 95
45 4
45 18
45 21
45 34
45 63
45 64
45 66
45 72
45 87
45 97
46 7
46 12
46 22
46 26
46 36
46 44
46 49
46 54
46 73
46 75
46 83
46 95
47 13
47 21
47 38
47 42
47 66
47 71
47 74
47 76
47 90
48 19
48 34
48 56
48 63
48 64
48 72
48 85
48 89
48 93
49 7
49 22
49 26
49 39
49 44
49 46
49 54
49 75
49 83
49 95
50 16
50 17
50 29
50 41
50 43
50 56
50 61
50 70
50 77
50 88
50 94
50 96
50 105
51 28
51 38
51 42
51 55
51 71
51 76
51 82
51 92
51 99
52 9
52 10
52 24
52 26
52 32
52 39
52 54
52 65
52 69
52 78
52 83
52 104
53 11
53 30
53 37
53 57
53 68
53 79
53 100
54 10
54 22
54 26
54 39
54 46
54 49
54 52
54 69
54 75
54 78
54 83
54 110
55 27
55 28
55 40
55 51
55 62
55 82
55 86
55 92
56 15
56 29
56 48
56 50
56 61
56 64
56 85
56 88
56 89
56 94
57 14
57 23
57 27
57 30
57 37
57 40
57 53
57 62
57 68
57 79
57 100
57 101
57 102
58 6
58 25
58 32
58 33
58 60
58 65
58 67
58 69
58 81
58 84
58 112
59 20
59 31
59 35
59 36
59 73
59 80
59 91
59 98
59 106
60 8
60 17
60 25
60 33
60 41
60 43
60 58
60 67
60 70
60 81
60 84
60 96
60 108
61 15
61 16
61 29
61 43
61 50
61 56
61 70
61 77
61 85
61 88
61 94
62 23
62 27
62 37
62 40
62 55
62 57
62 86
62 101
62 102
63 18
63 19
63 34
63 45
63 48
63 64
63 66
63 72
63 87
63 89
63 93
63 97
64 18
64 19
64 34
64 45
64 48
64 56
64 63
64 72
64 85
64 89
64 93
64 97
65 24
65 25
65 32
65 52
65 58
65 67
65 69
65 78
65 84
65 104
65 112
66 21
66 45
66 47
66 63
66 74
66 87
66 90
66 97
66 103
66 113
67 25
67 32
67 33
67 41
67 58
67 60
67 65
67 70
67 81
67 84
67 108
67 112
68 30
68 37
68 53
68 57
68 79
68 100
68 101
69 24
69 32
69 39
69 52
69 54
69 58
69 65
69 78
69 84
69 104
69 111
69 112
70 17
70 29
70 33
70 41
70 43
70 50
70 60
70 61
70 67
70 77
70 81
70 88
70 96
70 105
71 38
71 42
71 47
71 51
71 74
71 76
71 82
71 90
71 99
71 103
71 116
72 18
72 34
72 45
72 48
72 63
72 64
72 87
72 89
72 93
72 97
73 31
73 35
73 36
73 44
73 46
73 59
73 75
73 80
73 91
73 95
73 98
73 109
74 21
74 38
74 47
74 66
74 71
74 87
74 90
74 103
74 116
75 36
75 44
75 46
75 49
75 54
75 73
75 83
75 91
75 95
75 107
75 109
75 124
76 38
76 42
76 47
76 51
76 71
76 82
76 90
76 99
76 114
76 119
76 121
77 29
77 41
77 43
77 50
77 61
77 70
77 81
77 88
77 94
77 96
77 105
77 118
77 127
78 39
78 52
78 54
78 65
78 69
78 83
78 104
78 110
78 111
79 30
79 37
79 53
79 57
79 68
79 100
79 101
79 126
80 31
80 35
80 59
80 73
80 91
80 98
80 106
80 122
80 131
81 33
81 41
81 58
81 60
81 67
81 70
81 77
81 84
81 96
81 108
81 120
82 42
82 51
82 55
82 71
82 76
82 86
82 92
82 99
82 114
82 119
83 39
83 46
83 49
83 52
83 54
83 75
83 78
83 95
83 104
83 107
83 110
83 111
83 128
84 58
84 60
84 65
84 67
84 69
84 81
84 104
84 108
84 112
84 129
85 48
85 56
85 61
85 64
85 88
85 89
85 93
85 94
85 115
85 118
85 123
86 40
86 55
86 62
86 82
86 92
86 102
86 117
87 45
87 63
87 66
87 72
87 74
87 97
87 103
87 113
87 125
88 43
88 50
88 56
88 61
88 70
88 77
88 85
88 94
88 96
88 105
88 115
88 118
88 127
89 48
89 56
89 63
89 64
89 72
89 85
89 93
89 94
89 115
89 123
89 130
90 38
90 47
90 66
90 71
90 74
90 76
90 99
90 103
90 116
90 119
90 121
90 133
90 138
91 44
91 59
91 73
91 75
91 80
91 95
91 98
91 106
91 107
91 109
91 122
91 124
92 51
92 55
92 82
92 86
92 99
92 102
92 114
92 117
93 48
93 63
93 64
93 72
93 85
93 89
93 97
93 115
93 123
93 125
93 130
94 50
94 56
94 61
94 77
94 85
94 88
94 89
94 105
94 115
94 118
94 127
94 142
95 44
95 46
95 49
95 73
95 75
95 83
95 91
95 98
95 107
95 109
95 110
95 122
95 124
95 128
95 143
96 41
96 43
96 50
96 60
96 70
96 77
96 81
96 88
96 105
96 108
96 118
96 120
96 127
96 139
97 45
97 63
97 64
97 66
97 72
97 87
97 93
97 103
97 113
97 125
97 130
98 59
98 73
98 80
98 91
98 95
98 106
98 109
98 122
98 124
98 131
98 149
99 51
99 71
99 76
99 82
99 90
99 92
99 114
99 116
99 119
99 121
99 138
99 146
100 53
100 57
100 68
100 79
100 101
100 102
100 126
100 134
101 57
101 62
101 68
101 79
101 100
101 102
101 126
101 134
101 137
102 57
102 62
102 86
102 92
102 100
102 101
102 117
102 134
102 137
102 140
103 66
103 71
103 74
103 87
103 90
103 97
103 113
103 116
103 133
103 138
104 52
104 65
104 69
104 78
104 83
104 84
104 110
104 111
104 112
104 132
104 135
104 136
105 50
105 70
105 77
105 88
105 94
105 96
105 118
105 120
105 127
105 139
105 148
106 59
106 80
106 91
106 98
106 122
106 131
106 149
106 154
107 75
107 83
107 91
107 95
107 109
107 110
107 111
107 124
107 128
107 135
107 143
107 147
107 152
108 60
108 67
108 81
108 84
108 96
108 112
108 120
108 129
108 136
108 141
108 151
109 73
109 75
109 91
109 95
109 98
109 107
109 122
109 124
109 128
109 143
109 149
110 54
110 78
110 83
110 95
110 104
110 107
110 111
110 128
110 135
110 147
110 152
111 69
111 78
111 83
111 104
111 107
111 110
111 132
111 135
111 147
112 58
112 65
112 67
112 69
112 84
112 104
112 108
112 129
112 132
112 136
112 141
113 66
113 87
113 97
113 103
113 125
113 133
113 150
113 155
114 76
114 82
114 92
114 99
114 117
114 119
114 121
114 144
114 146
115 85
115 88
115 89
115 93
115 94
115 118
115 123
115 142
115 148
115 153
116 71
116 74
116 90
116 99
116 103
116 119
116 121
116 133
116 138
116 146
116 155
116 163
116 165
117 86
117 92
117 102
117 114
117 137
117 140
117 144
117 145
117 164
118 77
118 85
118 88
118 94
118 96
118 105
118 115
118 127
118 139
118 142
118 148
119 76
119 82
119 90
119 99
119 114
119 116
119 121
119 138
119 144
119 146
119 163
120 81
120 96
120 105
120 108
120 127
120 129
120 139
120 141
120 151
120 160
121 76
121 90
121 99
121 114
121 116
121 119
121 133
121 138
121 146
121 163
121 165
122 80
122 91
122 95
122 98
122 106
122 109
122 124
122 131
122 143
122 149
122 154
123 85
123 89
123 93
123 115
123 125
123 130
123 142
123 153
123 157
124 75
124 91
124 95
124 98
124 107
124 109
124 122
124 128
124 143
124 149
124 152
124 166
125 87
125 93
125 97
125 113
125 123
125 130
125 150
125 153
125 157
126 79
126 100
126 101
126 134
126 137
126 158
126 159
127 77
127 88
127 94
127 96
127 105
127 118
127 120
127 139
127 142
127 148
127 160
127 168
127 171
128 83
128 95
128 107
128 109
128 110
128 124
128 135
128 143
128 147
128 152
128 166
128 170
129 84
129 108
129 112
129 120
129 132
129 136
129 141
129 151
129 162
129 173
130 89
130 93
130 97
130 123
130 125
130 150
130 153
130 157
131 80
131 98
131 106
131 122
131 149
131 154
131 172
132 104
132 111
132 112
132 129
132 135
132 136
132 156
132 162
132 167
133 90
133 103
133 113
133 116
133 121
133 138
133 150
133 155
133 165
133 176
134 100
134 101
134 102
134 126
134 137
134 140
134 158
134 161
135 104
135 107
135 110
135 111
135 128
135 132
135 147
135 156
135 167
135 170
136 104
136 108
136 112
136 129
136 132
136 141
136 156
136 162
136 173
136 180
137 101
137 102
137 117
137 126
137 134
137 140
137 145
137 158
137 161
137 164
138 90
138 99
138 103
138 116
138 119
138 121
138 133
138 146
138 155
138 163
138 165
139 96
139 105
139 118
139 120
139 127
139 141
139 148
139 151
139 160
139 168
139 171
139 181
139 187
140 102
140 117
140 134
140 137
140 145
140 161
140 164
140 185
141 108
141 112
141 120
141 129
141 136
141 139
141 151
141 162
141 173
142 94
142 115
142 118
142 123
142 127
142 148
142 153
142 171
142 184
143 95
143 107
143 109
143 122
143 124
143 128
143 147
143 149
143 152
143 166
143 174
143 175
144 114
144 117
144 119
144 145
144 146
144 163
144 164
144 169
144 177
145 117
145 137
145 140
145 144
145 161
145 164
145 169
145 185
145 198
146 99
146 114
146 116
146 119
146 121
146 138
146 144
146 163
146 165
146 169
146 177
146 189
146 194
147 107
147 110
147 111
147 128
147 135
147 143
147 152
147 167
147 170
147 175
147 182
148 105
148 115
148 118
148 127
148 139
148 142
148 160
148 168
148 171
148 184
149 98
149 106
149 109
149 122
149 124
149 131
149 143
149 154
149 166
149 172
149 174
149 186
150 113
150 125
150 130
150 133
150 155
150 157
150 178
150 201
151 108
151 120
151 129
151 139
151 141
151 160
151 162
151 168
151 173
151 181
151 187
151 191
152 107
152 110
152 124
152 128
152 143
152 147
152 166
152 167
152 170
152 175
152 182
153 115
153 123
153 125
153 130
153 142
153 157
153 179
153 184
153 188
154 106
154 122
154 131
154 149
154 172
154 174
154 186
154 200
155 113
155 116
155 133
155 138
155 150
155 163
155 165
155 176
155 178
155 193
156 132
156 135
156 136
156 162
156 167
156 180
156 183
156 190
156 197
157 123
157 125
157 130
157 150
157 153
157 179
157 188
157 201
158 126
158 134
158 137
158 159
158 161
158 192
158 195
158 196
159 126
159 158
159 192
159 196
160 120
160 127
160 139
160 148
160 151
160 168
160 171
160 173
160 181
160 187
160 191
160 199
161 134
161 137
161 140
161 145
161 158
161 164
161 185
161 195
161 196
162 129
162 132
162 136
162 141
162 151
162 156
162 173
162 180
162 183
162 191
162 197
162 206
163 116
163 119
163 121
163 138
163 144
163 146
163 155
163 165
163 176
163 177
163 189
163 193
163 194
164 117
164 137
164 140
164 144
164 145
164 161
164 169
164 177
164 185
164 198
164 202
165 116
165 121
165 133
165 138
165 146
165 155
165 163
165 176
165 189
165 193
165 194
166 124
166 128
166 143
166 149
166 152
166 170
166 174
166 175
166 182
166 186
166 204
166 205
167 132
167 135
167 147
167 152
167 156
167 170
167 180
167 182
167 183
167 190
167 212
168 127
168 139
168 148
168 151
168 160
168 171
168 181
168 187
168 199
168 211
169 144
169 145
169 146
169 164
169 177
169 185
169 189
169 198
169 202
170 128
170 135
170 147
170 152
170 166
170 167
170 175
170 182
170 190
170 205
170 209
171 127
171 139
171 142
171 148
171 160
171 168
171 184
171 187
171 199
171 207
171 211
172 131
172 149
172 154
172 174
172 186
172 200
172 208
172 217
173 129
173 136
173 141
173 151
173 160
173 162
173 180
173 181
173 191
173 197
173 206
174 143
174 149
174 154
174 166
174 172
174 175
174 186
174 204
174 208
174 220
174 227
175 143
175 147
175 152
175 166
175 170
175 174
175 182
175 186
175 204
175 205
175 209
175 220
175 231
176 133
176 155
176 163
176 165
176 178
176 193
176 194
176 216
176 230
176 233
177 144
177 146
177 163
177 164
177 169
177 185
177 189
177 194
177 198
177 202
177 213
177 218
178 150
178 155
178 176
178 188
178 201
178 216
178 233
179 153
179 157
179 184
179 188
179 201
179 203
179 219
179 235
180 136
180 156
180 162
180 167
180 173
180 183
180 190
180 191
180 197
180 206
180 210
180 236
181 139
181 151
181 160
181 168
181 173
181 187
181 191
181 197
181 199
181 214
181 229
181 232
182 147
182 152
182 166
182 167
182 170
182 175
182 190
182 204
182 205
182 209
182 231
183 156
183 162
183 167
183 180
183 190
183 197
183 206
183 210
183 212
183 236
184 142
184 148
184 153
184 171
184 179
184 199
184 203
184 207
184 211
184 238
184 241
185 140
185 145
185 161
185 164
185 169
185 177
185 198
185 202
185 215
185 218
185 221
185 224
186 149
186 154
186 166
186 172
186 174
186 175
186 200
186 204
186 208
186 217
186 220
186 227
187 139
187 151
187 160
187 168
187 171
187 181
187 191
187 199
187 211
187 214
187 223
187 232
188 153
188 157
188 178
188 179
188 201
188 203
188 219
188 235
189 146
189 163
189 165
189 169
189 177
189 193
189 194
189 202
189 213
189 218
189 228
189 245
190 156
190 167
190 170
190 180
190 182
190 183
190 209
190 210
190 212
190 234
190 236
190 243
191 151
191 160
191 162
191 173
191 180
191 181
191 187
191 197
191 206
191 214
191 229
191 232
191 239
192 158
192 159
192 195
192 196
192 222
192 226
193 155
193 163
193 165
193 176
193 189
193 194
193 213
193 216
193 228
193 230
194 146
194 163
194 165
194 176
194 177
194 189
194 193
194 202
194 213
194 228
194 230
194 245
195 158
195 161
195 192
195 196
195 215
195 221
195 222
195 225
195 226
196 158
196 159
196 161
196 192
196 195
196 215
196 222
196 225
196 226
197 156
197 162
197 173
197 180
197 181
197 183
197 191
197 206
197 210
197 229
197 236
197 239
197 240
198 145
198 164
198 169
198 177
198 185
198 202
198 215
198 218
198 221
198 224
199 160
199 168
199 171
199 181
199 184
199 187
199 207
199 211
199 214
199 223
199 237
199 247
200 154
200 172
200 186
200 208
200 217
200 246
201 150
201 157
201 178
201 179
201 188
201 219
201 233
201 244
202 164
202 169
202 177
202 185
202 189
202 194
202 198
202 213
202 218
202 224
202 245
202 249
203 179
203 184
203 188
203 207
203 219
203 235
203 238
203 250
204 166
204 174
204 175
204 182
204 186
204 205
204 208
204 220
204 227
204 231
204 248
205 166
205 170
205 175
205 182
205 204
205 209
205 220
205 227
205 231
205 234
205 242
205 248
205 255
206 162
206 173
206 180
206 183
206 191
206 197
206 210
206 212
206 229
206 236
206 239
206 240
206 243
206 260
207 171
207 184
207 199
207 203
207 211
207 223
207 237
207 238
207 241
208 172
208 174
208 186
208 200
208 204
208 217
208 220
208 227
208 246
208 248
208 266
209 170
209 175
209 182
209 190
209 205
209 212
209 220
209 231
209 234
209 242
209 243
209 255
209 271
210 180
210 183
210 190
210 197
210 206
210 212
210 234
210 236
210 239
210 240
210 243
210 260
211 168
211 171
211 184
211 187
211 199
211 207
211 214
211 223
211 237
211 238
211 241
211 247
211 258
211 264
212 167
212 183
212 190
212 206
212 209
212 210
212 234
212 236
212 242
212 243
212 260
212 263
213 177
213 189
213 193
213 194
213 202
213 218
213 228
213 230
213 245
213 249
213 254
213 272
214 181
214 187
214 191
214 199
214 211
214 223
214 229
214 232
214 237
214 247
214 258
215 185
215 195
215 196
215 198
215 221
215 224
215 225
215 226
215 251
215 252
215 253
216 176
216 178
216 193
216 228
216 230
216 233
216 254
216 261
216 262
217 172
217 186
217 200
217 208
217 227
217 246
217 256
217 265
218 177
218 185
218 189
218 198
218 202
218 213
218 221
218 224
218 245
218 249
218 252
218 274
219 179
219 188
219 201
219 203
219 235
219 244
219 250
219 267
219 276
220 174
220 175
220 186
220 204
220 205
220 208
220 209
220 227
220 231
220 248
220 255
220 266
220 269
221 185
221 195
221 198
221 215
221 218
221 224
221 225
221 251
221 252
221 253
222 192
222 195
222 196
222 225
222 226
222 259
222 268
223 187
223 199
223 207
223 211
223 214
223 232
223 237
223 241
223 247
223 258
223 264
223 277
224 185
224 198
224 202
224 215
224 218
224 221
224 249
224 251
224 252
224 274
224 281
225 195
225 196
225 215
225 221
225 222
225 226
225 251
225 253
225 259
225 268
225 280
226 192
226 195
226 196
226 215
226 222
226 225
226 253
226 259
226 268
227 174
227 186
227 204
227 205
227 208
227 217
227 220
227 231
227 246
227 248
227 265
227 266
227 269
228 189
228 193
228 194
228 213
228 216
228 230
228 245
228 254
228 262
228 272
229 181
229 191
229 197
229 206
229 214
229 232
229 239
229 240
229 247
229 257
229 270
229 279
230 176
230 193
230 194
230 213
230 216
230 228
230 233
230 245
230 254
230 262
231 175
231 182
231 204
231 205
231 209
231 220
231 227
231 234
231 242
231 248
231 255
231 269
231 271
232 181
232 187
232 191
232 214
232 223
232 229
232 239
232 247
232 257
232 258
232 270
232 279
233 176
233 178
233 201
233 216
233 230
233 244
233 261
233 262
234 190
234 205
234 209
234 210
234 212
234 231
234 236
234 242
234 243
234 255
234 260
234 263
234 271
235 179
235 188
235 203
235 219
235 238
235 244
235 250
235 267
235 275
235 276
236 180
236 183
236 190
236 197
236 206
236 210
236 212
236 234
236 239
236 240
236 243
236 260
236 263
236 270
236 278
236 283
237 199
237 207
237 211
237 214
237 223
237 238
237 241
237 247
237 258
237 264
237 273
237 277
238 184
238 203
238 207
238 211
238 235
238 237
238 241
238 264
238 267
238 273
238 275
239 191
239 197
239 206
239 210
239 229
239 232
239 236
239 240
239 257
239 260
239 270
239 278
239 291
240 197
240 206
240 210
240 229
240 236
240 239
240 243
240 257
240 260
240 270
240 278
240 283
241 184
241 207
241 211
241 223
241 237
241 238
241 258
241 264
241 273
241 275
242 205
242 209
242 212
242 231
242 234
242 243
242 248
242 255
242 263
242 271
242 290
243 190
243 206
243 209
243 210
243 212
243 234
243 236
243 240
243 242
243 260
243 263
243 271
243 283
243 295
244 201
244 219
244 233
244 235
244 250
244 261
244 276
244 284
244 292
245 189
245 194
245 202
245 213
245 218
245 228
245 230
245 249
245 254
245 272
245 274
245 288
246 200
246 208
246 217
246 227
246 256
246 265
246 266
246 285
246 286
247 199
247 211
247 214
247 223
247 229
247 232
247 237
247 257
247 258
247 264
247 277
247 279
248 204
248 205
248 208
248 220
248 227
248 231
248 242
248 255
248 266
248 269
248 271
248 287
248 293
248 294
249 202
249 213
249 218
249 224
249 245
249 252
249 272
249 274
249 281
249 298
250 203
250 219
250 235
250 244
250 267
250 276
250 284
250 292
250 299
251 215
251 221
251 224
251 225
251 252
251 253
251 268
251 280
251 281
251 300
252 215
252 218
252 221
252 224
252 249
252 251
252 253
252 274
252 281
252 298
252 300
253 215
253 221
253 225
253 226
253 251
253 252
253 259
253 268
253 280
253 281
253 309
254 213
254 216
254 228
254 230
254 245
254 262
254 272
254 288
254 297
255 205
255 209
255 220
255 231
255 234
255 242
255 248
255 263
255 266
255 269
255 271
255 287
255 290
255 293
255 304
256 217
256 246
256 265
256 285
256 286
257 229
257 232
257 239
257 240
257 247
257 270
257 277
257 278
257 279
257 291
258 211
258 214
258 223
258 232
258 237
258 241
258 247
258 264
258 273
258 277
258 279
258 303
258 311
259 222
259 225
259 226
259 253
259 268
259 280
259 282
259 289
259 302
260 206
260 210
260 212
260 234
260 236
260 239
260 240
260 243
260 263
260 270
260 278
260 283
260 295
260 301
261 216
261 233
261 244
261 262
261 284
261 292
261 296
261 297
261 306
262 216
262 228
262 230
262 233
262 254
262 261
262 288
262 296
262 297
262 306
263 212
263 234
263 236
263 242
263 243
263 255
263 260
263 271
263 283
263 290
263 295
263 317
264 211
264 223
264 237
264 238
264 241
264 247
264 258
264 273
264 275
264 277
264 303
264 305
264 319
265 217
265 227
265 246
265 256
265 266
265 285
265 286
265 294
265 313
266 208
266 220
266 227
266 246
266 248
266 255
266 265
266 269
266 286
266 287
266 293
266 294
266 312
266 314
267 219
267 235
267 238
267 250
267 273
267 275
267 276
267 292
267 299
267 307
268 222
268 225
268 226
268 251
268 253
268 259
268 280
268 282
268 289
268 302
268 309
269 220
269 227
269 231
269 248
269 255
269 266
269 271
269 287
269 293
269 294
269 304
269 312
269 314
270 229
270 232
270 236
270 239
270 240
270 257
270 260
270 278
270 279
270 283
270 291
270 301
270 316
270 318
271 209
271 231
271 234
271 242
271 243
271 248
271 255
271 263
271 269
271 287
271 290
271 293
271 295
271 304
271 317
271 324
272 213
272 228
272 245
272 249
272 254
272 274
272 288
272 298
272 308
272 320
272 321
273 237
273 238
273 241
273 258
273 264
273 267
273 275
273 303
273 305
273 307
273 319
274 218
274 224
274 245
274 249
274 252
274 272
274 281
274 298
274 308
274 330
275 235
275 238
275 241
275 264
275 267
275 273
275 305
275 307
275 332
276 219
276 235
276 244
276 250
276 267
276 284
276 292
276 299
276 307
276 326
276 327
277 223
277 237
277 247
277 257
277 258
277 264
277 279
277 291
277 303
277 311
277 315
277 319
278 236
278 239
278 240
278 257
278 260
278 270
278 283
278 291
278 295
278 301
278 318
278 323
278 331
279 229
279 232
279 247
279 257
279 258
279 270
279 277
279 291
279 311
279 315
279 316
280 225
280 251
280 253
280 259
280 268
280 281
280 289
280 300
280 302
280 309
280 310
281 224
281 249
281 251
281 252
281 253
281 274
281 280
281 298
281 300
281 310
281 330
281 333
281 335
282 259
282 268
282 289
282 302
282 325
283 236
283 240
283 243
283 260
283 263
283 270
283 278
283 295
283 301
283 317
283 318
283 323
283 331
284 244
284 250
284 261
284 276
284 292
284 296
284 299
284 322
284 327
284 329
285 246
285 256
285 265
285 286
285 294
285 313
285 314
286 246
286 256
286 265
286 266
286 285
286 287
286 294
286 313
286 314
286 334
287 248
287 255
287 266
287 269
287 271
287 286
287 293
287 294
287 304
287 312
287 314
287 328
287 334
288 245
288 254
288 262
288 272
288 297
288 306
288 308
288 320
288 321
288 336
288 347
289 259
289 268
289 280
289 282
289 302
289 309
289 325
289 338
290 242
290 255
290 263
290 271
290 293
290 295
290 304
290 317
290 323
290 324
290 328
290 343
290 345
291 239
291 257
291 270
291 277
291 278
291 279
291 301
291 311
291 315
291 316
291 318
291 340
292 244
292 250
292 261
292 267
292 276
292 284
292 296
292 299
292 322
292 326
292 327
292 329
293 248
293 255
293 266
293 269
293 271
293 287
293 290
293 294
293 304
293 312
293 314
293 324
293 328
294 248
294 265
294 266
294 269
294 285
294 286
294 287
294 293
294 312
294 313
294 314
294 334
295 243
295 260
295 263
295 271
295 278
295 283
295 290
295 301
295 304
295 317
295 323
295 324
295 345
296 261
296 262
296 284
296 292
296 297
296 306
296 322
296 329
296 337
297 254
297 261
297 262
297 288
297 296
297 306
297 321
297 329
297 336
297 337
298 249
298 252
298 272
298 274
298 281
298 300
298 308
298 310
298 320
298 330
298 335
298 342
299 250
299 267
299 276
299 284
299 292
299 307
299 322
299 326
299 327
299 339
300 251
300 252
300 280
300 281
300 298
300 309
300 310
300 330
300 333
300 335
301 260
301 270
301 278
301 283
301 291
301 295
301 317
301 318
301 323
301 331
301 350
301 352
302 259
302 268
302 280
302 282
302 289
302 309
302 325
302 338
302 341
303 258
303 264
303 273
303 277
303 305
303 311
303 315
303 319
303 332
303 344
303 353
303 354
304 255
304 269
304 271
304 287
304 290
304 293
304 295
304 312
304 317
304 324
304 328
304 343
304 357
305 264
305 273
305 275
305 303
305 307
305 319
305 332
305 339
305 349
305 354
306 261
306 262
306 288
306 296
306 297
306 321
306 322
306 329
306 336
306 337
307 267
307 273
307 275
307 276
307 299
307 305
307 326
307 327
307 332
307 339
307 349
308 272
308 274
308 288
308 298
308 320
308 321
308 330
308 342
308 359
309 253
309 268
309 280
309 289
309 300
309 302
309 310
309 325
309 333
309 338
309 341
310 280
310 281
310 298
310 300
310 309
310 333
310 335
310 341
310 362
311 258
311 277
311 279
311 291
311 303
311 315
311 316
311 319
311 340
311 344
311 353
312 266
312 269
312 287
312 293
312 294
312 304
312 314
312 328
312 334
312 351
312 357
312 360
313 265
313 285
313 286
313 294
313 314
313 334
313 346
313 360
313 364
314 266
314 269
314 285
314 286
314 287
314 293
314 294
314 312
314 313
314 328
314 334
314 346
314 351
314 360
315 277
315 279
315 291
315 303
315 311
315 316
315 318
315 340
315 344
315 348
315 353
315 355
316 270
316 279
316 291
316 311
316 315
316 318
316 331
316 340
316 344
316 348
316 355
317 263
317 271
317 283
317 290
317 295
317 301
317 304
317 323
317 324
317 328
317 343
317 345
317 350
317 365
318 270
318 278
318 283
318 291
318 301
318 315
318 316
318 323
318 331
318 348
318 352
318 355
318 369
319 264
319 273
319 277
319 303
319 305
319 311
319 332
319 344
319 349
319 353
319 354
320 272
320 288
320 298
320 308
320 321
320 330
320 336
320 342
320 347
320 359
321 272
321 288
321 297
321 306
321 308
321 320
321 336
321 337
321 347
321 359
322 284
322 292
322 296
322 299
322 306
322 326
322 327
322 329
322 337
322 356
322 361
322 368
323 278
323 283
323 290
323 295
323 301
323 317
323 318
323 324
323 331
323 345
323 350
323 352
324 271
324 290
324 293
324 295
324 304
324 317
324 323
324 328
324 343
324 345
324 350
324 357
324 365
325 282
325 289
325 302
325 309
325 338
325 341
325 366
326 276
326 292
326 299
326 307
326 322
326 327
326 339
326 349
326 356
326 358
326 370
327 276
327 284
327 292
327 299
327 307
327 322
327 326
327 339
327 356
327 358
327 361
328 287
328 290
328 293
328 304
328 312
328 314
328 317
328 324
328 334
328 343
328 345
328 351
328 357
328 365
329 284
329 292
329 296
329 297
329 306
329 322
329 336
329 337
329 361
329 368
330 274
330 281
330 298
330 300
330 308
330 320
330 335
330 342
330 359
330 363
330 377
331 278
331 283
331 301
331 316
331 318
331 323
331 348
331 350
331 352
331 355
331 369
331 385
332 275
332 303
332 305
332 307
332 319
332 339
332 349
332 353
332 354
333 281
333 300
333 309
333 310
333 335
333 338
333 341
333 362
333 363
333 376
334 286
334 287
334 294
334 312
334 313
334 314
334 328
334 346
334 351
334 360
334 364
334 367
334 372
335 281
335 298
335 300
335 310
335 330
335 333
335 341
335 342
335 362
335 363
336 288
336 297
336 306
336 320
336 321
336 329
336 337
336 347
336 359
336 375
336 379
336 381
337 296
337 297
337 306
337 321
337 322
337 329
337 336
337 347
337 361
337 368
337 379
337 381
338 289
338 302
338 309
338 325
338 333
338 341
338 362
338 366
338 376
338 378
338 393
339 299
339 305
339 307
339 326
339 327
339 332
339 349
339 356
339 358
339 370
339 389
340 291
340 311
340 315
340 316
340 344
340 348
340 353
340 355
340 373
340 374
341 302
341 309
341 310
341 325
341 333
341 335
341 338
341 362
341 376
341 378
342 298
342 308
342 320
342 330
342 335
342 359
342 363
342 377
343 290
343 304
343 317
343 324
343 328
343 345
343 351
343 357
343 365
343 371
343 382
343 387
343 388
344 303
344 311
344 315
344 316
344 319
344 340
344 353
344 354
344 355
344 373
344 374
344 383
345 290
345 295
345 317
345 323
345 324
345 328
345 343
345 350
345 357
345 365
345 371
345 380
345 388
346 313
346 314
346 334
346 360
346 364
346 367
346 372
346 394
346 397
347 288
347 320
347 321
347 336
347 337
347 359
347 375
347 379
347 381
348 315
348 316
348 318
348 331
348 340
348 352
348 355
348 369
348 373
348 385
348 399
349 305
349 307
349 319
349 326
349 332
349 339
349 354
349 358
349 370
349 390
349 392
350 301
350 317
350 323
350 324
350 331
350 345
350 352
350 369
350 371
350 380
350 385
351 312
351 314
351 328
351 334
351 343
351 357
351 360
351 365
351 367
351 382
351 387
351 401
352 301
352 318
352 323
352 331
352 348
352 350
352 355
352 369
352 371
352 380
352 385
352 399
352 403
353 303
353 311
353 315
353 319
353 332
353 340
353 344
353 354
353 373
353 374
353 383
353 402
354 303
354 305
354 319
354 332
354 344
354 349
354 353
354 383
354 390
354 392
354 406
355 315
355 316
355 318
355 331
355 340
355 344
355 348
355 352
355 369
355 373
355 374
355 398
355 399
356 322
356 326
356 327
356 339
356 358
356 361
356 368
356 370
356 384
356 386
356 389
357 304
357 312
357 324
357 328
357 343
357 345
357 351
357 365
357 367
357 382
357 387
357 388
358 326
358 327
358 339
358 349
358 356
358 361
358 370
358 384
358 386
358 389
358 396
359 308
359 320
359 321
359 330
359 336
359 342
359 347
359 375
359 377
359 381
359 409
360 312
360 313
360 314
360 334
360 346
360 351
360 364
360 367
360 372
360 382
360 394
360 397
360 401
360 404
361 322
361 327
361 329
361 337
361 356
361 358
361 368
361 379
361 384
361 386
361 389
361 407
361 414
362 310
362 333
362 335
362 338
362 341
362 363
362 376
362 391
362 393
362 395
362 405
362 410
363 330
363 333
363 335
363 342
363 362
363 377
363 391
363 395
363 405
364 313
364 334
364 346
364 360
364 367
364 372
364 394
364 397
364 404
365 317
365 324
365 328
365 343
365 345
365 351
365 357
365 371
365 382
365 387
365 388
365 400
365 408
366 325
366 338
366 376
366 378
366 393
366 418
367 334
367 346
367 351
367 357
367 360
367 364
367 372
367 382
367 387
367 394
367 401
367 404
367 422
368 322
368 329
368 337
368 356
368 361
368 379
368 381
368 384
368 386
368 407
368 414
368 417
369 318
369 331
369 348
369 350
369 352
369 355
369 373
369 380
369 385
369 398
369 399
369 403
369 415
369 423
369 428
370 326
370 339
370 349
370 356
370 358
370 384
370 389
370 390
370 392
370 396
370 419
370 427
371 343
371 345
371 350
371 352
371 365
371 380
371 385
371 387
371 388
371 400
371 403
371 408
371 412
372 334
372 346
372 360
372 364
372 367
372 394
372 397
372 401
372 404
372 422
372 426
373 340
373 344
373 348
373 353
373 355
373 369
373 374
373 383
373 398
373 399
373 402
373 423
373 432
374 340
374 344
374 353
374 355
374 373
374 383
374 398
374 402
374 416
374 430
374 432
375 336
375 347
375 359
375 377
375 379
375 381
375 409
375 411
375 420
375 424
376 333
376 338
376 341
376 362
376 366
376 378
376 391
376 393
376 405
376 410
376 418
376 431
377 330
377 342
377 359
377 363
377 375
377 391
377 395
377 409
377 420
377 421
378 338
378 341
378 366
378 376
378 393
378 410
378 418
378 431
379 336
379 337
379 347
379 361
379 368
379 375
379 381
379 386
379 407
379 411
379 417
379 424
380 345
380 350
380 352
380 369
380 371
380 385
380 399
380 400
380 403
380 412
380 415
380 429
381 336
381 337
381 347
381 359
381 368
381 375
381 379
381 409
381 411
381 417
381 424
382 343
382 351
382 357
382 360
382 365
382 367
382 387
382 388
382 394
382 401
382 408
382 422
382 425
383 344
383 353
383 354
383 373
383 374
383 390
383 402
383 406
383 416
383 430
384 356
384 358
384 361
384 368
384 370
384 386
384 389
384 396
384 407
384 413
384 414
384 419
385 331
385 348
385 350
385 352
385 369
385 371
385 380
385 399
385 403
385 412
385 415
385 428
385 429
386 356
386 358
386 361
386 368
386 379
386 384
386 389
386 407
386 413
386 414
387 343
387 351
387 357
387 365
387 367
387 371
387 382
387 388
387 400
387 401
387 408
387 425
387 440
388 343
388 345
388 357
388 365
388 371
388 382
388 387
388 400
388 408
388 412
388 425
389 339
389 356
389 358
389 361
389 370
389 384
389 386
389 392
389 396
389 413
389 414
389 419
389 427
389 438
390 349
390 354
390 370
390 383
390 392
390 396
390 406
390 416
390 437
391 362
391 363
391 376
391 377
391 395
391 405
391 410
391 433
391 434
391 441
392 349
392 354
392 370
392 389
392 390
392 396
392 406
392 427
392 442
393 338
393 362
393 366
393 376
393 378
393 410
393 418
393 431
393 439
394 346
394 360
394 364
394 367
394 372
394 382
394 397
394 401
394 404
394 422
394 426
394 446
394 447
395 362
395 363
395 377
395 391
395 405
395 421
395 433
395 434
395 441
396 358
396 370
396 384
396 389
396 390
396 392
396 413
396 419
396 427
396 438
396 454
397 346
397 360
397 364
397 372
397 394
397 404
397 422
397 426
398 355
398 369
398 373
398 374
398 399
398 402
398 423
398 428
398 430
398 432
398 457
399 348
399 352
399 355
399 369
399 373
399 380
399 385
399 398
399 403
399 415
399 423
399 428
399 429
399 444
399 456
400 365
400 371
400 380
400 387
400 388
400 403
400 408
400 412
400 425
400 429
400 435
400 436
400 443
400 450
401 351
401 360
401 367
401 372
401 382
401 387
401 394
401 404
401 422
401 425
401 446
401 447
401 459
402 353
402 373
402 374
402 383
402 398
402 406
402 416
402 423
402 430
402 432
402 437
402 462
403 352
403 369
403 371
403 380
403 385
403 399
403 400
403 412
403 415
403 428
403 429
403 435
403 436
403 444
404 360
404 364
404 367
404 372
404 394
404 397
404 401
404 422
404 426
404 446
404 447
404 461
405 362
405 363
405 376
405 391
405 395
405 410
405 433
405 434
405 441
405 448
406 354
406 383
406 390
406 392
406 402
406 416
406 430
406 437
406 442
407 361
407 368
407 379
407 384
407 386
407 413
407 414
407 417
407 445
407 451
407 455
408 365
408 371
408 382
408 387
408 388
408 400
408 412
408 425
408 435
408 440
408 443
408 450
409 359
409 375
409 377
409 381
409 411
409 420
409 421
409 424
409 449
409 453
409 458
410 362
410 376
410 378
410 391
410 393
410 405
410 418
410 431
410 434
410 439
410 448
411 375
411 379
411 381
411 409
411 417
411 420
411 424
411 452
411 453
411 458
412 371
412 380
412 385
412 388
412 400
412 403
412 408
412 415
412 429
412 435
412 436
412 443
412 450
413 384
413 386
413 389
413 396
413 407
413 414
413 419
413 427
413 438
413 445
413 451
413 454
413 460
414 361
414 368
414 384
414 386
414 389
414 407
414 413
414 417
414 419
414 438
414 445
414 451
415 369
415 380
415 385
415 399
415 403
415 412
415 423
415 428
415 429
415 436
415 444
415 456
416 374
416 383
416 390
416 402
416 406
416 430
416 432
416 437
416 462
416 470
417 368
417 379
417 381
417 407
417 411
417 414
417 424
417 445
417 452
417 455
418 366
418 376
418 378
418 393
418 410
418 431
418 439
418 448
418 463
419 370
419 384
419 389
419 396
419 413
419 414
419 427
419 438
419 451
419 454
419 460
420 375
420 377
420 409
420 411
420 421
420 424
420 433
420 449
420 453
420 458
421 377
421 395
421 409
421 420
421 433
421 441
421 449
421 458
422 367
422 372
422 382
422 394
422 397
422 401
422 404
422 425
422 426
422 446
422 447
422 459
422 461
423 369
423 373
423 398
423 399
423 402
423 415
423 428
423 430
423 432
423 444
423 456
423 457
424 375
424 379
424 381
424 409
424 411
424 417
424 420
424 452
424 453
424 455
424 458
425 382
425 387
425 388
425 400
425 401
425 408
425 422
425 440
425 443
425 446
425 459
425 465
426 372
426 394
426 397
426 404
426 422
426 447
426 461
426 477
427 370
427 389
427 392
427 396
427 413
427 419
427 438
427 442
427 454
427 460
427 466
428 369
428 385
428 398
428 399
428 403
428 415
428 423
428 429
428 432
428 436
428 444
428 456
428 457
428 474
428 481
429 380
429 385
429 399
429 400
429 403
429 412
429 415
429 428
429 435
429 436
429 444
429 450
429 456
429 467
429 472
429 474
430 374
430 383
430 398
430 402
430 406
430 416
430 423
430 432
430 437
430 457
430 462
430 469
430 470
431 376
431 378
431 393
431 410
431 418
431 439
431 448
431 463
431 478
432 373
432 374
432 398
432 402
432 416
432 423
432 428
432 430
432 456
432 457
432 462
432 469
433 391
433 395
433 405
433 420
433 421
433 434
433 441
433 449
433 458
433 464
433 476
433 480
433 482
434 391
434 395
434 405
434 410
434 433
434 441
434 448
434 464
434 476
434 493
435 400
435 403
435 408
435 412
435 429
435 436
435 443
435 444
435 450
435 467
435 468
435 472
435 498
436 400
436 403
436 412
436 415
436 428
436 429
436 435
436 444
436 450
436 456
436 467
436 472
436 474
436 497
436 498
437 390
437 402
437 406
437 416
437 430
437 442
437 462
437 470
437 473
437 489
438 389
438 396
438 413
438 414
438 419
438 427
438 445
438 451
438 454
438 460
438 466
438 484
439 393
439 410
439 418
439 431
439 448
439 463
439 478
439 490
440 387
440 408
440 425
440 443
440 446
440 450
440 459
440 465
440 468
440 491
441 391
441 395
441 405
441 421
441 433
441 434
441 449
441 464
441 476
441 482
441 493
442 392
442 406
442 427
442 437
442 454
442 466
442 473
442 489
443 400
443 408
443 412
443 425
443 435
443 440
443 450
443 459
443 465
443 468
443 472
443 491
443 499
444 399
444 403
444 415
444 423
444 428
444 429
444 435
444 436
444 456
444 457
444 467
444 472
444 474
444 481
444 497
445 407
445 413
445 414
445 417
445 438
445 451
445 452
445 455
445 471
445 475
445 488
445 505
446 394
446 401
446 404
446 422
446 425
446 440
446 447
446 459
446 477
446 483
446 491
446 492
447 394
447 401
447 404
447 422
447 426
447 446
447 459
447 461
447 477
447 483
447 492
447 496
448 405
448 410
448 418
448 431
448 434
448 439
448 463
448 464
448 478
448 485
448 493
449 409
449 420
449 421
449 433
449 441
449 453
449 458
449 476
449 479
449 480
449 482
450 400
450 408
450 412
450 429
450 435
450 436
450 440
450 443
450 465
450 467
450 468
450 472
450 498
450 499
451 407
451 413
451 414
451 419
451 438
451 445
451 460
451 471
451 484
451 488
451 505
452 411
452 417
452 424
452 445
452 453
452 455
452 458
452 475
452 487
453 409
453 411
453 420
453 424
453 449
453 452
453 455
453 458
453 479
453 480
453 487
454 396
454 413
454 419
454 427
454 438
454 442
454 460
454 466
454 484
454 489
454 504
454 508
455 407
455 417
455 424
455 445
455 452
455 453
455 471
455 475
455 487
455 506
456 399
456 415
456 423
456 428
456 429
456 432
456 436
456 444
456 457
456 467
456 469
456 474
456 481
456 486
456 497
456 500
457 398
457 423
457 428
457 430
457 432
457 444
457 456
457 462
457 469
457 474
457 481
457 486
457 494
457 500
458 409
458 411
458 420
458 421
458 424
458 433
458 449
458 452
458 453
458 479
458 480
458 482
458 487
458 507
459 401
459 422
459 425
459 440
459 443
459 446
459 447
459 465
459 468
459 483
459 491
459 492
460 413
460 419
460 427
460 438
460 451
460 454
460 466
460 484
460 504
460 508
461 404
461 422
461 426
461 447
461 477
461 483
461 496
462 402
462 416
462 430
462 432
462 437
462 457
462 469
462 470
462 473
462 494
462 495
462 501
462 503
463 418
463 431
463 439
463 448
463 464
463 478
463 485
463 490
463 493
463 502
463 510
463 512
464 433
464 434
464 441
464 448
464 463
464 476
464 485
464 493
464 512
464 524
465 425
465 440
465 443
465 450
465 459
465 468
465 472
465 491
465 492
465 499
465 516
465 519
466 427
466 438
466 442
466 454
466 460
466 484
466 489
466 504
466 508
467 429
467 435
467 436
467 444
467 450
467 456
467 472
467 474
467 481
467 497
467 498
468 435
468 440
468 443
468 450
468 459
468 465
468 472
468 491
468 498
468 499
468 516
468 519
468 525
469 430
469 432
469 456
469 457
469 462
469 470
469 481
469 486
469 494
469 495
469 500
469 501
469 511
469 514
469 518
470 416
470 430
470 437
470 462
470 469
470 473
470 489
470 494
470 495
470 501
470 503
470 518
471 445
471 451
471 455
471 475
471 484
471 488
471 505
471 506
472 429
472 435
472 436
472 443
472 444
472 450
472 465
472 467
472 468
472 474
472 497
472 498
472 499
472 525
473 437
473 442
473 462
473 470
473 489
473 495
473 501
473 503
473 518
474 428
474 429
474 436
474 444
474 456
474 457
474 467
474 472
474 481
474 486
474 497
474 498
474 500
474 517
475 445
475 452
475 455
475 471
475 487
475 488
475 505
475 506
475 521
476 433
476 434
476 441
476 449
476 464
476 480
476 482
476 493
476 509
476 524
476 532
477 426
477 446
477 447
477 461
477 483
477 492
477 496
477 513
477 522
477 528
478 431
478 439
478 448
478 463
478 485
478 490
478 502
478 510
478 526
479 449
479 453
479 458
479 480
479 482
479 487
479 507
479 509
479 523
479 530
479 531
480 433
480 449
480 453
480 458
480 476
480 479
480 482
480 487
480 507
480 509
480 523
480 530
481 428
481 444
481 456
481 457
481 467
481 469
481 474
481 486
481 494
481 497
481 500
481 511
481 514
481 517
482 433
482 441
482 449
482 458
482 476
482 479
482 480
482 507
482 509
482 523
482 532
483 446
483 447
483 459
483 461
483 477
483 491
483 492
483 496
483 513
483 520
483 522
483 527
484 438
484 451
484 454
484 460
484 466
484 471
484 488
484 504
484 505
484 508
484 515
484 529
484 539
485 448
485 463
485 464
485 478
485 493
485 502
485 510
485 512
485 524
485 534
486 456
486 457
486 469
486 474
486 481
486 494
486 495
486 500
486 511
486 514
486 517
486 533
487 452
487 453
487 455
487 458
487 475
487 479
487 480
487 506
487 507
487 521
487 530
487 531
488 445
488 451
488 471
488 475
488 484
488 505
488 506
488 515
488 529
489 437
489 442
489 454
489 466
489 470
489 473
489 501
489 503
489 504
489 508
489 535
489 537
490 439
490 463
490 478
490 502
490 510
490 526
491 440
491 443
491 446
491 459
491 465
491 468
491 483
491 492
491 499
491 513
491 516
491 519
491 520
491 527
491 544
491 545
492 446
492 447
492 459
492 465
492 477
492 483
492 491
492 513
492 516
492 520
492 527
492 545
493 434
493 441
493 448
493 463
493 464
493 476
493 485
493 512
493 524
493 532
494 457
494 462
494 469
494 470
494 481
494 486
494 495
494 500
494 501
494 511
494 514
494 518
494 533
494 541
495 462
495 469
495 470
495 473
495 486
495 494
495 501
495 503
495 511
495 514
495 518
495 533
495 541
495 550
496 447
496 461
496 477
496 483
496 513
496 522
496 528
496 556
497 436
497 444
497 456
497 467
497 472
497 474
497 481
497 498
497 500
497 517
497 538
497 542
497 543
497 546
498 435
498 436
498 450
498 467
498 468
498 472
498 474
498 497
498 499
498 519
498 525
498 538
498 546
498 554
499 443
499 450
499 465
499 468
499 472
499 491
499 498
499 516
499 519
499 525
499 538
499 540
499 544
499 554
500 456
500 457
500 469
500 474
500 481
500 486
500 494
500 497
500 511
500 514
500 517
500 533
500 542
500 543
500 553
501 462
501 469
501 470
501 473
501 489
501 494
501 495
501 503
501 511
501 518
501 537
501 541
501 550
501 551
502 463
502 478
502 485
502 490
502 510
502 512
502 526
502 534
502 549
503 462
503 470
503 473
503 489
503 495
503 501
503 518
503 535
503 537
503 550
503 551
504 454
504 460
504 466
504 484
504 489
504 508
504 515
504 535
504 537
504 547
504 560
505 445
505 451
505 471
505 475
505 484
505 488
505 506
505 515
505 529
505 536
505 539
505 555
506 455
506 471
506 475
506 487
506 488
506 505
506 521
506 529
506 536
506 548
506 570
507 458
507 479
507 480
507 482
507 487
507 509
507 521
507 523
507 530
507 531
507 557
507 558
508 454
508 460
508 466
508 484
508 489
508 504
508 515
508 529
508 535
508 539
508 547
508 560
509 476
509 479
509 480
509 482
509 507
509 523
509 524
509 530
509 532
509 557
509 558
509 563
510 463
510 478
510 485
510 490
510 502
510 512
510 526
510 534
510 549
510 552
510 565
511 469
511 481
511 486
511 494
511 495
511 500
511 501
511 514
511 517
511 518
511 533
511 541
511 550
511 553
511 572
512 463
512 464
512 485
512 493
512 502
512 510
512 524
512 532
512 534
512 552
512 564
512 565
513 477
513 483
513 491
513 492
513 496
513 520
513 522
513 527
513 528
513 556
513 559
513 561
514 469
514 481
514 486
514 494
514 495
514 500
514 511
514 517
514 518
514 533
514 541
514 543
514 553
515 484
515 488
515 504
515 505
515 508
515 529
515 539
515 547
515 555
515 560
515 568
516 465
516 468
516 491
516 492
516 499
516 519
516 520
516 525
516 527
516 540
516 544
516 545
516 569
516 571
517 474
517 481
517 486
517 497
517 500
517 511
517 514
517 533
517 542
517 543
517 546
517 553
517 577
518 469
518 470
518 473
518 494
518 495
518 501
518 503
518 511
518 514
518 533
518 537
518 541
518 550
518 551
518 572
518 574
519 465
519 468
519 491
519 498
519 499
519 516
519 520
519 525
519 540
519 544
519 545
519 554
519 569
519 571
519 576
520 483
520 491
520 492
520 513
520 516
520 519
520 527
520 540
520 544
520 545
520 559
520 561
520 569
520 585
521 475
521 487
521 506
521 507
521 530
521 531
521 536
521 548
521 570
521 573
521 586
522 477
522 483
522 496
522 513
522 527
522 528
522 556
522 559
522 561
523 479
523 480
523 482
523 507
523 509
523 530
523 531
523 532
523 557
523 558
523 563
523 584
524 464
524 476
524 485
524 493
524 509
524 512
524 532
524 552
524 563
524 564
524 580
525 468
525 472
525 498
525 499
525 516
525 519
525 538
525 540
525 544
525 545
525 546
525 554
525 567
525 571
525 576
526 478
526 490
526 502
526 510
526 534
526 549
526 566
526 579
527 483
527 491
527 492
527 513
527 516
527 520
527 522
527 528
527 544
527 545
527 556
527 559
527 561
527 569
527 585
528 477
528 496
528 513
528 522
528 527
528 556
528 561
529 484
529 488
529 505
529 506
529 508
529 515
529 536
529 539
529 555
529 560
529 568
529 582
530 479
530 480
530 487
530 507
530 509
530 521
530 523
530 531
530 548
530 557
530 558
530 584
530 587
530 590
531 479
531 487
531 507
531 521
531 523
531 530
531 536
531 548
531 557
531 573
531 586
531 587
531 590
532 476
532 482
532 493
532 509
532 512
532 523
532 524
532 552
532 557
532 558
532 563
532 564
532 580
533 486
533 494
533 495
533 500
533 511
533 514
533 517
533 518
533 541
533 543
533 553
533 572
533 577
533 578
533 593
534 485
534 502
534 510
534 512
534 526
534 549
534 552
534 565
534 566
534 579
534 592
535 489
535 503
535 504
535 508
535 537
535 547
535 551
535 560
535 562
535 575
535 581
535 595
536 505
536 506
536 521
536 529
536 531
536 548
536 555
536 570
536 573
536 582
537 489
537 501
537 503
537 504
537 518
537 535
537 547
537 550
537 551
537 562
537 574
537 575
537 595
538 497
538 498
538 499
538 525
538 540
538 542
538 546
538 554
538 567
538 576
538 583
538 588
539 484
539 505
539 508
539 515
539 529
539 547
539 555
539 560
539 568
539 582
539 589
540 499
540 516
540 519
540 520
540 525
540 538
540 544
540 545
540 554
540 567
540 569
540 571
540 576
540 594
541 494
541 495
541 501
541 511
541 514
541 518
541 533
541 550
541 553
541 572
541 574
541 578
541 593
542 497
542 500
542 517
542 538
542 543
542 546
542 553
542 567
542 577
542 578
542 583
542 588
543 497
543 500
543 514
543 517
543 533
543 542
543 546
543 553
543 577
543 578
543 583
543 588
544 491
544 499
544 516
544 519
544 520
544 525
544 527
544 540
544 545
544 554
544 559
544 569
544 571
544 576
544 585
544 591
545 491
545 492
545 516
545 519
545 520
545 525
545 527
545 540
545 544
545 559
545 569
545 571
545 576
545 585
545 591
546 497
546 498
546 517
546 525
546 538
546 542
546 543
546 554
546 567
546 577
546 583
546 588
547 504
547 508
547 515
547 535
547 537
547 539
547 560
547 562
547 568
547 575
547 581
547 589
548 506
548 521
548 530
548 531
548 536
548 570
548 573
548 586
548 590
549 502
549 510
549 526
549 534
549 552
549 565
549 566
549 579
549 592
550 495
550 501
550 503
550 511
550 518
550 537
550 541
550 551
550 562
550 572
550 574
551 501
551 503
551 518
551 535
551 537
551 550
551 562
551 572
551 574
551 575
551 595
552 510
552 512
552 524
552 532
552 534
552 549
552 564
552 565
552 579
552 580
552 592
553 500
553 511
553 514
553 517
553 533
553 541
553 542
553 543
553 572
553 577
553 578
553 583
553 593
554 498
554 499
554 519
554 525
554 538
554 540
554 544
554 546
554 567
554 571
554 576
554 588
554 594
555 505
555 515
555 529
555 536
555 539
555 560
555 568
555 570
555 582
556 496
556 513
556 522
556 527
556 528
556 559
556 561
557 507
557 509
557 523
557 530
557 531
557 532
557 558
557 563
557 584
557 587
557 590
558 507
558 509
558 523
558 530
558 532
558 557
558 563
558 580
558 584
558 587
559 513
559 520
559 522
559 527
559 544
559 545
559 556
559 561
559 569
559 571
559 585
559 591
560 504
560 508
560 515
560 529
560 535
560 539
560 547
560 555
560 568
560 575
560 581
560 589
561 513
561 520
561 522
561 527
561 528
561 556
561 559
561 585
562 535
562 537
562 547
562 550
562 551
562 574
562 575
562 581
562 595
563 509
563 523
563 524
563 532
563 557
563 558
563 564
563 580
563 584
564 512
564 524
564 532
564 552
564 563
564 565
564 580
564 592
565 510
565 512
565 534
565 549
565 552
565 564
565 566
565 579
565 592
566 526
566 534
566 549
566 565
566 579
566 592
567 525
567 538
567 540
567 542
567 546
567 554
567 576
567 583
567 588
567 594
568 515
568 529
568 539
568 547
568 555
568 560
568 581
568 582
568 589
569 516
569 519
569 520
569 527
569 540
569 544
569 545
569 559
569 571
569 576
569 585
569 591
569 594
570 506
570 521
570 536
570 548
570 555
570 573
570 582
570 586
570 590
571 516
571 519
571 525
571 540
571 544
571 545
571 554
571 559
571 569
571 576
571 585
571 591
571 594
572 511
572 518
572 533
572 541
572 550
572 551
572 553
572 574
572 578
572 593
573 521
573 531
573 536
573 548
573 570
573 582
573 586
573 587
573 590
574 518
574 537
574 541
574 550
574 551
574 562
574 572
574 593
574 595
575 535
575 537
575 547
575 551
575 560
575 562
575 581
575 589
575 595
576 519
576 525
576 538
576 540
576 544
576 545
576 554
576 567
576 569
576 571
576 591
576 594
577 517
577 533
577 542
577 543
577 546
577 553
577 578
577 583
577 588
577 593
578 533
578 541
578 542
578 543
578 553
578 572
578 577
578 583
578 593
579 526
579 534
579 549
579 552
579 565
579 566
579 592
580 524
580 532
580 552
580 558
580 563
580 564
581 535
581 547
581 560
581 562
581 568
581 575
581 589
581 595
582 529
582 536
582 539
582 555
582 568
582 570
582 573
583 538
583 542
583 543
583 546
583 553
583 567
583 577
583 578
583 588
584 523
584 530
584 557
584 558
584 563
584 587
584 590
585 520
585 527
585 544
585 545
585 559
585 561
585 569
585 571
585 591
586 521
586 531
586 548
586 570
586 573
586 587
586 590
587 530
587 531
587 557
587 558
587 573
587 584
587 586
587 590
588 538
588 542
588 543
588 546
588 554
588 567
588 577
588 583
588 594
589 539
589 547
589 560
589 568
589 575
589 581
590 530
590 531
590 548
590 557
590 570
590 573
590 584
590 586
590 587
591 544
591 545
591 559
591 569
591 571
591 576
591 585
591 594
592 534
592 549
592 552
592 564
592 565
592 566
592 579
593 533
593 541
593 553
593 572
593 574
593 577
593 578
594 540
594 554
594 567
594 569
594 571
594 576
594 588
594 591
595 535
595 537
595 551
595 562
595 574
595 575
595 581
