1 7
1 16
1 20
1 29
1 31
1 38
1 46
1 48
2 5
2 13
2 17
2 21
2 22
2 34
2 37
2 40
3 4
3 8
3 15
3 18
3 32
3 33
3 39
3 44
3 58
4 3
4 6
4 8
4 10
4 15
4 18
4 23
4 25
4 32
4 39
4 44
4 49
5 2
5 13
5 17
5 21
5 34
5 37
5 40
5 41
5 60
6 4
6 8
6 10
6 18
6 19
6 23
6 25
6 36
6 49
6 52
6 54
7 1
7 10
7 19
7 20
7 29
7 31
7 36
7 42
7 48
7 62
8 3
8 4
8 6
8 15
8 18
8 25
8 32
8 33
8 39
8 44
8 49
8 58
8 64
9 14
9 30
9 41
9 45
9 47
9 53
9 66
10 4
10 6
10 7
10 18
10 19
10 23
10 25
10 36
10 52
10 54
10 63
11 13
11 22
11 24
11 26
11 28
11 43
11 50
11 55
12 15
12 27
12 30
12 33
12 35
12 51
12 56
12 57
13 2
13 5
13 11
13 17
13 21
13 22
13 28
13 34
13 37
13 43
13 59
13 65
14 9
14 27
14 30
14 41
14 45
14 47
14 51
14 53
14 71
15 3
15 4
15 8
15 12
15 18
15 32
15 33
15 35
15 39
15 44
15 56
15 58
15 64
16 1
16 20
16 29
16 31
16 38
16 46
16 48
16 61
17 2
17 5
17 13
17 21
17 22
17 34
17 37
17 40
17 43
17 59
17 60
17 67
18 3
18 4
18 6
18 8
18 10
18 15
18 23
18 25
18 32
18 33
18 39
18 44
18 49
18 52
18 64
18 69
19 6
19 7
19 10
19 23
19 25
19 29
19 36
19 42
19 52
19 54
19 62
19 63
19 73
20 1
20 7
20 16
20 29
20 31
20 38
20 42
20 46
20 48
20 61
20 62
20 70
21 2
21 5
21 13
21 17
21 34
21 37
21 40
21 41
21 60
21 67
21 68
22 2
22 11
22 13
22 17
22 28
22 34
22 37
22 43
22 55
22 59
22 65
22 67
23 4
23 6
23 10
23 18
23 19
23 25
23 36
23 44
23 49
23 52
23 54
23 63
23 69
23 73
24 11
24 26
24 28
24 50
24 55
25 4
25 6
25 8
25 10
25 18
25 19
25 23
25 32
25 36
25 44
25 49
25 52
25 54
25 69
25 80
25 86
26 11
26 24
26 50
26 78
26 83
27 12
27 14
27 30
27 35
27 45
27 47
27 51
27 53
27 57
27 71
27 74
27 76
28 11
28 13
28 22
28 24
28 37
28 43
28 50
28 55
28 59
28 65
28 79
28 85
29 1
29 7
29 16
29 19
29 20
29 31
29 36
29 42
29 46
29 48
29 61
29 62
29 63
29 70
29 84
30 9
30 12
30 14
30 27
30 35
30 45
30 47
30 51
30 53
30 57
30 71
30 74
30 76
31 1
31 7
31 16
31 20
31 29
31 38
31 42
31 46
31 48
31 61
31 62
31 70
31 82
32 3
32 4
32 8
32 15
32 18
32 25
32 33
32 39
32 44
32 49
32 56
32 58
32 64
32 69
32 72
32 77
32 87
33 3
33 8
33 12
33 15
33 18
33 32
33 35
33 39
33 44
33 56
33 57
33 58
33 64
33 72
33 77
33 87
34 2
34 5
34 13
34 17
34 21
34 22
34 37
34 40
34 41
34 43
34 59
34 60
34 67
34 68
34 93
35 12
35 15
35 27
35 30
35 33
35 45
35 51
35 53
35 56
35 57
35 74
35 76
35 81
35 95
36 6
36 7
36 10
36 19
36 23
36 25
36 29
36 42
36 52
36 54
36 62
36 63
36 73
36 89
36 96
37 2
37 5
37 13
37 17
37 21
37 22
37 28
37 34
37 40
37 43
37 59
37 60
37 65
37 67
37 68
37 92
37 93
38 1
38 16
38 20
38 31
38 46
38 48
38 61
38 70
38 82
39 3
39 4
39 8
39 15
39 18
39 32
39 33
39 44
39 49
39 56
39 58
39 64
39 69
39 72
39 77
39 87
39 104
40 2
40 5
40 17
40 21
40 34
40 37
40 41
40 59
40 60
40 66
40 67
40 68
40 93
40 99
40 101
41 5
41 9
41 14
41 21
41 34
41 40
41 45
41 47
41 60
41 66
41 68
41 75
41 88
41 99
42 7
42 19
42 20
42 29
42 31
42 36
42 48
42 54
42 61
42 62
42 63
42 70
42 73
42 84
43 11
43 13
43 17
43 22
43 28
43 34
43 37
43 55
43 59
43 65
43 67
43 79
43 85
43 92
43 98
44 3
44 4
44 8
44 15
44 18
44 23
44 25
44 32
44 33
44 39
44 49
44 52
44 56
44 58
44 64
44 69
44 72
44 77
44 80
44 86
44 87
44 102
44 104
44 109
45 9
45 14
45 27
45 30
45 35
45 41
45 47
45 51
45 53
45 57
45 66
45 71
45 74
45 75
45 76
45 88
45 90
45 97
46 1
46 16
46 20
46 29
46 31
46 38
46 48
46 61
46 62
46 70
46 82
46 94
46 113
47 9
47 14
47 27
47 30
47 41
47 45
47 51
47 53
47 66
47 71
47 74
47 75
47 88
47 90
48 1
48 7
48 16
48 20
48 29
48 31
48 38
48 42
48 46
48 61
48 62
48 63
48 70
48 82
48 84
48 94
49 4
49 6
49 8
49 18
49 23
49 25
49 32
49 39
49 44
49 52
49 54
49 58
49 64
49 69
49 77
49 80
49 86
49 87
49 89
49 102
49 111
50 11
50 24
50 26
50 28
50 55
50 78
50 79
50 83
50 91
50 107
50 114
51 12
51 14
51 27
51 30
51 35
51 45
51 47
51 53
51 56
51 57
51 71
51 74
51 76
51 81
51 90
51 95
51 97
51 100
52 6
52 10
52 18
52 19
52 23
52 25
52 36
52 44
52 49
52 54
52 63
52 69
52 73
52 80
52 86
52 89
52 96
52 111
53 9
53 14
53 27
53 30
53 35
53 45
53 47
53 51
53 57
53 66
53 71
53 74
53 75
53 76
53 88
53 90
53 95
53 97
53 100
54 6
54 10
54 19
54 23
54 25
54 36
54 42
54 49
54 52
54 63
54 69
54 73
54 80
54 86
54 89
54 96
54 106
54 116
55 11
55 22
55 24
55 28
55 43
55 50
55 59
55 65
55 79
55 83
55 85
55 91
55 98
55 105
56 12
56 15
56 32
56 33
56 35
56 39
56 44
56 51
56 57
56 58
56 64
56 72
56 76
56 77
56 81
56 87
56 95
56 103
56 104
57 12
57 27
57 30
57 33
57 35
57 45
57 51
57 53
57 56
57 58
57 71
57 72
57 74
57 76
57 81
57 95
57 97
57 100
57 103
57 118
58 3
58 8
58 15
58 32
58 33
58 39
58 44
58 49
58 56
58 57
58 64
58 69
58 72
58 77
58 81
58 87
58 102
58 103
58 104
58 109
59 13
59 17
59 22
59 28
59 34
59 37
59 40
59 43
59 55
59 60
59 65
59 67
59 68
59 79
59 85
59 92
59 93
59 98
59 108
59 115
59 125
60 5
60 17
60 21
60 34
60 37
60 40
60 41
60 59
60 67
60 68
60 92
60 93
60 99
60 101
60 108
60 115
60 123
61 16
61 20
61 29
61 31
61 38
61 42
61 46
61 48
61 62
61 70
61 82
61 84
61 94
61 113
61 117
62 7
62 19
62 20
62 29
62 31
62 36
62 42
62 46
62 48
62 61
62 63
62 70
62 73
62 84
62 94
62 106
62 117
62 122
63 10
63 19
63 23
63 29
63 36
63 42
63 48
63 52
63 54
63 62
63 73
63 84
63 86
63 89
63 96
63 106
63 116
63 119
63 122
64 8
64 15
64 18
64 32
64 33
64 39
64 44
64 49
64 56
64 58
64 69
64 72
64 77
64 80
64 87
64 102
64 103
64 104
64 109
64 111
65 13
65 22
65 28
65 37
65 43
65 55
65 59
65 67
65 79
65 85
65 91
65 92
65 93
65 98
65 105
65 108
65 125
65 127
66 9
66 40
66 41
66 45
66 47
66 53
66 68
66 71
66 74
66 75
66 88
66 90
66 99
66 112
66 120
66 121
66 134
67 17
67 21
67 22
67 34
67 37
67 40
67 43
67 59
67 60
67 65
67 68
67 85
67 92
67 93
67 98
67 99
67 101
67 108
67 115
67 123
67 129
68 21
68 34
68 37
68 40
68 41
68 59
68 60
68 66
68 67
68 75
68 93
68 99
68 101
68 108
68 115
68 121
68 123
68 133
69 18
69 23
69 25
69 32
69 39
69 44
69 49
69 52
69 54
69 58
69 64
69 72
69 77
69 80
69 86
69 87
69 89
69 102
69 104
69 109
69 111
70 20
70 29
70 31
70 38
70 42
70 46
70 48
70 61
70 62
70 82
70 84
70 94
70 113
70 117
70 122
70 137
71 14
71 27
71 30
71 45
71 47
71 51
71 53
71 57
71 66
71 74
71 75
71 76
71 88
71 90
71 95
71 97
71 100
71 112
71 120
71 124
71 134
72 32
72 33
72 39
72 44
72 56
72 57
72 58
72 64
72 69
72 77
72 81
72 87
72 95
72 102
72 103
72 104
72 109
72 118
72 131
72 135
73 19
73 23
73 36
73 42
73 52
73 54
73 62
73 63
73 80
73 84
73 86
73 89
73 96
73 106
73 111
73 116
73 119
73 122
73 139
73 148
74 27
74 30
74 35
74 45
74 47
74 51
74 53
74 57
74 66
74 71
74 75
74 76
74 81
74 88
74 90
74 95
74 97
74 100
74 112
74 120
74 124
74 126
74 128
75 41
75 45
75 47
75 53
75 66
75 68
75 71
75 74
75 88
75 90
75 97
75 99
75 112
75 120
75 121
75 124
75 134
75 144
76 27
76 30
76 35
76 45
76 51
76 53
76 56
76 57
76 71
76 74
76 81
76 90
76 95
76 97
76 100
76 118
76 124
76 126
76 128
76 154
77 32
77 33
77 39
77 44
77 49
77 56
77 58
77 64
77 69
77 72
77 80
77 81
77 87
77 102
77 103
77 104
77 109
77 131
77 135
78 26
78 50
78 83
78 91
78 107
78 110
78 114
78 132
78 136
78 140
78 145
79 28
79 43
79 50
79 55
79 59
79 65
79 83
79 85
79 91
79 92
79 98
79 105
79 107
79 114
79 125
79 127
79 130
79 136
79 138
80 25
80 44
80 49
80 52
80 54
80 64
80 69
80 73
80 77
80 86
80 87
80 89
80 96
80 102
80 104
80 109
80 111
80 116
80 141
80 147
81 35
81 51
81 56
81 57
81 58
81 72
81 74
81 76
81 77
81 95
81 97
81 100
81 103
81 104
81 118
81 126
81 128
81 131
81 143
82 31
82 38
82 46
82 48
82 61
82 70
82 84
82 94
82 113
82 117
82 137
83 26
83 50
83 55
83 78
83 79
83 91
83 105
83 107
83 110
83 114
83 130
83 132
83 136
83 140
83 145
84 29
84 42
84 48
84 61
84 62
84 63
84 70
84 73
84 82
84 94
84 106
84 113
84 117
84 119
84 122
84 137
84 139
84 142
84 162
85 28
85 43
85 55
85 59
85 65
85 67
85 79
85 91
85 92
85 93
85 98
85 105
85 108
85 115
85 125
85 127
85 130
85 138
85 149
85 156
85 158
86 25
86 44
86 49
86 52
86 54
86 63
86 69
86 73
86 80
86 87
86 89
86 96
86 102
86 109
86 111
86 116
86 119
86 141
86 147
86 151
86 153
87 32
87 33
87 39
87 44
87 49
87 56
87 58
87 64
87 69
87 72
87 77
87 80
87 86
87 102
87 103
87 104
87 109
87 111
87 131
87 135
87 147
87 150
87 160
88 41
88 45
88 47
88 53
88 66
88 71
88 74
88 75
88 90
88 97
88 99
88 112
88 120
88 121
88 124
88 134
88 144
88 152
89 36
89 49
89 52
89 54
89 63
89 69
89 73
89 80
89 86
89 96
89 102
89 106
89 111
89 116
89 119
89 141
89 148
89 151
89 153
90 45
90 47
90 51
90 53
90 66
90 71
90 74
90 75
90 76
90 88
90 95
90 97
90 100
90 112
90 120
90 121
90 124
90 126
90 134
90 152
90 155
91 50
91 55
91 65
91 78
91 79
91 83
91 85
91 98
91 105
91 107
91 110
91 114
91 127
91 130
91 132
91 136
91 138
91 140
91 145
91 164
92 37
92 43
92 59
92 60
92 65
92 67
92 79
92 85
92 93
92 98
92 101
92 105
92 108
92 115
92 123
92 125
92 127
92 129
92 149
92 157
92 158
92 159
93 34
93 37
93 40
93 59
93 60
93 65
93 67
93 68
93 85
93 92
93 98
93 99
93 101
93 108
93 115
93 123
93 125
93 127
93 129
93 133
93 146
93 149
93 157
93 159
94 46
94 48
94 61
94 62
94 70
94 82
94 84
94 113
94 117
94 122
94 137
94 142
94 161
95 35
95 51
95 53
95 56
95 57
95 71
95 72
95 74
95 76
95 81
95 90
95 97
95 100
95 103
95 118
95 124
95 126
95 128
95 143
95 154
96 36
96 52
96 54
96 63
96 73
96 80
96 86
96 89
96 106
96 111
96 116
96 119
96 122
96 139
96 141
96 148
96 151
96 153
97 45
97 51
97 53
97 57
97 71
97 74
97 75
97 76
97 81
97 88
97 90
97 95
97 100
97 118
97 120
97 124
97 126
97 128
97 143
97 152
97 154
97 155
98 43
98 55
98 59
98 65
98 67
98 79
98 85
98 91
98 92
98 93
98 105
98 108
98 115
98 125
98 127
98 129
98 130
98 138
98 149
98 156
98 157
98 158
98 170
99 40
99 41
99 60
99 66
99 67
99 68
99 75
99 88
99 93
99 101
99 112
99 115
99 120
99 121
99 123
99 129
99 133
99 134
99 144
99 146
99 163
99 165
100 51
100 53
100 57
100 71
100 74
100 76
100 81
100 90
100 95
100 97
100 103
100 118
100 120
100 124
100 126
100 128
100 143
100 152
100 154
100 155
100 174
101 40
101 60
101 67
101 68
101 92
101 93
101 99
101 108
101 112
101 115
101 121
101 123
101 129
101 133
101 144
101 146
101 157
101 159
101 165
101 172
102 44
102 49
102 58
102 64
102 69
102 72
102 77
102 80
102 86
102 87
102 89
102 103
102 104
102 109
102 111
102 116
102 131
102 135
102 141
102 147
102 150
102 153
102 160
102 167
103 56
103 57
103 58
103 64
103 72
103 77
103 81
103 87
103 95
103 100
103 102
103 104
103 109
103 118
103 128
103 131
103 135
103 143
103 150
103 160
104 39
104 44
104 56
104 58
104 64
104 69
104 72
104 77
104 80
104 81
104 87
104 102
104 103
104 109
104 111
104 118
104 131
104 135
104 147
104 150
104 160
105 55
105 65
105 79
105 83
105 85
105 91
105 92
105 98
105 107
105 114
105 125
105 127
105 130
105 136
105 138
105 140
105 156
105 158
105 164
105 166
105 170
106 54
106 62
106 63
106 73
106 84
106 89
106 96
106 116
106 117
106 119
106 122
106 139
106 148
106 151
106 153
106 162
106 171
107 50
107 78
107 79
107 83
107 91
107 105
107 110
107 114
107 130
107 132
107 136
107 138
107 140
107 145
107 164
107 169
107 173
108 59
108 60
108 65
108 67
108 68
108 85
108 92
108 93
108 98
108 101
108 115
108 123
108 125
108 127
108 129
108 133
108 146
108 149
108 157
108 158
108 159
109 44
109 58
109 64
109 69
109 72
109 77
109 80
109 86
109 87
109 102
109 103
109 104
109 111
109 131
109 135
109 141
109 147
109 150
109 160
109 180
110 78
110 83
110 91
110 107
110 114
110 132
110 136
110 140
110 145
110 164
110 169
110 173
111 49
111 52
111 64
111 69
111 73
111 80
111 86
111 87
111 89
111 96
111 102
111 104
111 109
111 116
111 119
111 135
111 141
111 147
111 150
111 151
111 153
111 167
112 66
112 71
112 74
112 75
112 88
112 90
112 99
112 101
112 120
112 121
112 123
112 124
112 133
112 134
112 144
112 152
112 163
112 165
112 175
112 177
112 185
113 46
113 61
113 70
113 82
113 84
113 94
113 117
113 137
113 142
113 161
113 168
114 50
114 78
114 79
114 83
114 91
114 105
114 107
114 110
114 130
114 132
114 136
114 138
114 140
114 145
114 156
114 164
114 166
114 169
114 173
114 184
115 59
115 60
115 67
115 68
115 85
115 92
115 93
115 98
115 99
115 101
115 108
115 123
115 125
115 127
115 129
115 133
115 146
115 149
115 157
115 158
115 159
115 165
115 172
115 182
116 54
116 63
116 73
116 80
116 86
116 89
116 96
116 102
116 106
116 111
116 119
116 122
116 139
116 141
116 147
116 148
116 151
116 153
116 167
116 178
117 61
117 62
117 70
117 82
117 84
117 94
117 106
117 113
117 122
117 137
117 139
117 142
117 161
117 162
117 168
117 171
117 179
118 57
118 72
118 76
118 81
118 95
118 97
118 100
118 103
118 104
118 124
118 126
118 128
118 131
118 135
118 143
118 154
118 155
118 174
118 176
118 190
119 63
119 73
119 84
119 86
119 89
119 96
119 106
119 111
119 116
119 122
119 139
119 141
119 148
119 151
119 153
119 162
119 171
119 178
119 186
120 66
120 71
120 74
120 75
120 88
120 90
120 97
120 99
120 100
120 112
120 121
120 124
120 126
120 134
120 144
120 152
120 154
120 155
120 163
120 175
120 181
120 185
121 66
121 68
121 75
121 88
121 90
121 99
121 101
121 112
121 120
121 123
121 133
121 134
121 144
121 146
121 152
121 163
121 165
121 172
121 175
121 177
121 185
122 62
122 63
122 70
122 73
122 84
122 94
122 96
122 106
122 116
122 117
122 119
122 137
122 139
122 142
122 148
122 151
122 161
122 162
122 171
122 179
122 186
123 60
123 67
123 68
123 92
123 93
123 99
123 101
123 108
123 112
123 115
123 121
123 125
123 129
123 133
123 144
123 146
123 149
123 157
123 159
123 165
123 172
123 177
124 71
124 74
124 75
124 76
124 88
124 90
124 95
124 97
124 100
124 112
124 118
124 120
124 126
124 128
124 134
124 152
124 154
124 155
124 163
124 175
124 181
124 183
125 59
125 65
125 79
125 85
125 92
125 93
125 98
125 105
125 108
125 115
125 123
125 127
125 129
125 130
125 138
125 149
125 156
125 157
125 158
125 159
125 170
125 182
125 193
126 74
126 76
126 81
126 90
126 95
126 97
126 100
126 118
126 120
126 124
126 128
126 143
126 152
126 154
126 155
126 174
126 176
126 181
126 183
126 190
127 65
127 79
127 85
127 91
127 92
127 93
127 98
127 105
127 108
127 115
127 125
127 129
127 130
127 136
127 138
127 149
127 156
127 157
127 158
127 159
127 166
127 170
127 182
127 193
128 74
128 76
128 81
128 95
128 97
128 100
128 103
128 118
128 124
128 126
128 131
128 143
128 152
128 154
128 155
128 174
128 176
128 181
128 183
128 190
129 67
129 92
129 93
129 98
129 99
129 101
129 108
129 115
129 123
129 125
129 127
129 133
129 144
129 146
129 149
129 157
129 158
129 159
129 165
129 172
129 182
129 203
130 79
130 83
130 85
130 91
130 98
130 105
130 107
130 114
130 125
130 127
130 136
130 138
130 140
130 145
130 156
130 158
130 164
130 166
130 170
130 173
130 184
130 191
130 193
131 72
131 77
131 81
131 87
131 102
131 103
131 104
131 109
131 118
131 128
131 135
131 143
131 147
131 150
131 160
131 174
131 176
131 180
131 187
131 189
132 78
132 83
132 91
132 107
132 110
132 114
132 136
132 140
132 145
132 164
132 169
132 173
132 184
132 196
132 206
133 68
133 93
133 99
133 101
133 108
133 112
133 115
133 121
133 123
133 129
133 134
133 144
133 146
133 157
133 159
133 163
133 165
133 172
133 177
133 185
133 202
133 205
133 207
134 66
134 71
134 75
134 88
134 90
134 99
134 112
134 120
134 121
134 124
134 133
134 144
134 152
134 155
134 163
134 165
134 175
134 177
134 181
134 185
134 204
135 72
135 77
135 87
135 102
135 103
135 104
135 109
135 111
135 118
135 131
135 141
135 143
135 147
135 150
135 160
135 180
135 187
135 189
136 78
136 79
136 83
136 91
136 105
136 107
136 110
136 114
136 127
136 130
136 132
136 138
136 140
136 145
136 156
136 164
136 166
136 169
136 170
136 173
136 184
136 191
136 196
137 70
137 82
137 84
137 94
137 113
137 117
137 122
137 142
137 161
137 162
137 168
137 179
137 188
137 192
137 195
138 79
138 85
138 91
138 98
138 105
138 107
138 114
138 125
138 127
138 130
138 136
138 140
138 149
138 156
138 158
138 164
138 166
138 170
138 173
138 184
138 191
138 193
139 73
139 84
139 96
139 106
139 116
139 117
139 119
139 122
139 142
139 148
139 151
139 153
139 161
139 162
139 171
139 178
139 179
139 186
139 197
139 198
139 200
140 78
140 83
140 91
140 105
140 107
140 110
140 114
140 130
140 132
140 136
140 138
140 145
140 156
140 164
140 166
140 169
140 173
140 184
140 191
140 196
140 206
141 80
141 86
141 89
141 96
141 102
141 109
141 111
141 116
141 119
141 135
141 147
141 148
141 150
141 151
141 153
141 160
141 167
141 178
141 180
141 194
141 199
141 208
142 84
142 94
142 113
142 117
142 122
142 137
142 139
142 161
142 162
142 168
142 171
142 179
142 188
142 192
142 197
142 198
142 215
143 81
143 95
143 97
143 100
143 103
143 118
143 126
143 128
143 131
143 135
143 154
143 155
143 160
143 174
143 176
143 183
143 187
143 190
143 209
143 210
144 75
144 88
144 99
144 101
144 112
144 120
144 121
144 123
144 129
144 133
144 134
144 146
144 152
144 159
144 163
144 165
144 172
144 175
144 177
144 185
144 202
144 204
144 205
144 207
144 212
145 78
145 83
145 91
145 107
145 110
145 114
145 130
145 132
145 136
145 140
145 164
145 169
145 173
145 184
145 196
145 206
145 219
146 93
146 99
146 101
146 108
146 115
146 121
146 123
146 129
146 133
146 144
146 149
146 157
146 159
146 163
146 165
146 172
146 177
146 182
146 202
146 203
146 205
146 207
147 80
147 86
147 87
147 102
147 104
147 109
147 111
147 116
147 131
147 135
147 141
147 150
147 151
147 153
147 160
147 167
147 178
147 180
147 189
147 194
147 199
147 208
147 220
148 73
148 89
148 96
148 106
148 116
148 119
148 122
148 139
148 141
148 151
148 153
148 162
148 167
148 171
148 178
148 186
148 197
148 199
148 200
149 85
149 92
149 93
149 98
149 108
149 115
149 123
149 125
149 127
149 129
149 138
149 146
149 156
149 157
149 158
149 159
149 166
149 170
149 172
149 182
149 193
149 203
149 211
149 214
150 87
150 102
150 103
150 104
150 109
150 111
150 131
150 135
150 141
150 147
150 160
150 167
150 180
150 187
150 189
150 194
150 208
150 220
150 226
151 86
151 89
151 96
151 106
151 111
151 116
151 119
151 122
151 139
151 141
151 147
151 148
151 153
151 162
151 167
151 171
151 178
151 186
151 197
151 199
151 200
151 223
152 88
152 90
152 97
152 100
152 112
152 120
152 121
152 124
152 126
152 128
152 134
152 144
152 154
152 155
152 163
152 175
152 181
152 183
152 185
152 201
152 204
152 213
153 86
153 89
153 96
153 102
153 106
153 111
153 116
153 119
153 139
153 141
153 147
153 148
153 151
153 167
153 171
153 178
153 186
153 194
153 199
153 200
153 208
153 223
154 76
154 95
154 97
154 100
154 118
154 120
154 124
154 126
154 128
154 143
154 152
154 155
154 174
154 176
154 181
154 183
154 190
154 201
154 209
154 210
154 217
155 90
155 97
155 100
155 118
155 120
155 124
155 126
155 128
155 134
155 143
155 152
155 154
155 163
155 174
155 175
155 176
155 181
155 183
155 185
155 190
155 201
155 204
155 213
155 217
156 85
156 98
156 105
156 114
156 125
156 127
156 130
156 136
156 138
156 140
156 149
156 157
156 158
156 164
156 166
156 170
156 173
156 182
156 184
156 191
156 193
156 211
156 222
157 92
157 93
157 98
157 101
157 108
157 115
157 123
157 125
157 127
157 129
157 133
157 146
157 149
157 156
157 158
157 159
157 165
157 170
157 172
157 182
157 193
157 202
157 203
157 214
158 85
158 92
158 98
158 105
158 108
158 115
158 125
158 127
158 129
158 130
158 138
158 149
158 156
158 157
158 159
158 166
158 170
158 182
158 191
158 193
158 203
158 211
158 214
158 222
159 92
159 93
159 101
159 108
159 115
159 123
159 125
159 127
159 129
159 133
159 144
159 146
159 149
159 157
159 158
159 165
159 170
159 172
159 177
159 182
159 202
159 203
159 205
159 214
160 87
160 102
160 103
160 104
160 109
160 131
160 135
160 141
160 143
160 147
160 150
160 167
160 176
160 180
160 187
160 189
160 194
160 216
160 220
160 226
161 94
161 113
161 117
161 122
161 137
161 139
161 142
161 162
161 168
161 171
161 179
161 188
161 192
161 195
161 197
161 198
161 215
161 225
162 84
162 106
162 117
162 119
162 122
162 137
162 139
162 142
162 148
162 151
162 161
162 168
162 171
162 179
162 186
162 188
162 197
162 198
162 221
162 224
162 225
163 99
163 112
163 120
163 121
163 124
163 133
163 134
163 144
163 146
163 152
163 155
163 165
163 172
163 175
163 177
163 181
163 185
163 204
163 205
163 207
163 212
163 213
163 233
163 237
164 91
164 105
164 107
164 110
164 114
164 130
164 132
164 136
164 138
164 140
164 145
164 156
164 166
164 169
164 170
164 173
164 184
164 191
164 196
164 206
164 211
164 218
164 219
164 231
165 99
165 101
165 112
165 115
165 121
165 123
165 129
165 133
165 134
165 144
165 146
165 157
165 159
165 163
165 172
165 175
165 177
165 185
165 202
165 203
165 205
165 207
165 212
165 228
165 229
166 105
166 114
166 127
166 130
166 136
166 138
166 140
166 149
166 156
166 158
166 164
166 170
166 173
166 184
166 191
166 193
166 196
166 211
166 218
166 219
166 222
166 231
166 236
167 102
167 111
167 116
167 141
167 147
167 148
167 150
167 151
167 153
167 160
167 178
167 180
167 189
167 194
167 199
167 200
167 208
167 220
167 223
167 232
168 113
168 117
168 137
168 142
168 161
168 162
168 179
168 188
168 192
168 195
168 198
168 215
169 107
169 110
169 114
169 132
169 136
169 140
169 145
169 164
169 173
169 184
169 196
169 206
169 218
169 219
169 227
169 240
170 98
170 105
170 125
170 127
170 130
170 136
170 138
170 149
170 156
170 157
170 158
170 159
170 164
170 166
170 182
170 184
170 191
170 193
170 203
170 211
170 214
170 222
170 236
171 106
171 117
171 119
171 122
171 139
171 142
171 148
171 151
171 153
171 161
171 162
171 178
171 179
171 186
171 188
171 197
171 198
171 200
171 221
171 224
171 225
172 101
172 115
172 121
172 123
172 129
172 133
172 144
172 146
172 149
172 157
172 159
172 163
172 165
172 177
172 182
172 185
172 202
172 203
172 205
172 207
172 214
172 228
172 229
173 107
173 110
173 114
173 130
173 132
173 136
173 138
173 140
173 145
173 156
173 164
173 166
173 169
173 184
173 191
173 196
173 206
173 218
173 219
173 227
173 240
173 242
174 100
174 118
174 126
174 128
174 131
174 143
174 154
174 155
174 176
174 181
174 183
174 187
174 190
174 201
174 209
174 210
174 217
174 230
174 239
174 243
174 244
175 112
175 120
175 121
175 124
175 134
175 144
175 152
175 155
175 163
175 165
175 177
175 181
175 183
175 185
175 201
175 204
175 207
175 212
175 213
175 233
175 234
175 237
175 238
176 118
176 126
176 128
176 131
176 143
176 154
176 155
176 160
176 174
176 181
176 183
176 187
176 190
176 201
176 209
176 210
176 216
176 217
176 230
176 243
176 244
177 112
177 121
177 123
177 133
177 134
177 144
177 146
177 159
177 163
177 165
177 172
177 175
177 185
177 202
177 203
177 204
177 205
177 207
177 212
177 228
177 229
177 233
177 237
177 246
178 116
178 119
178 139
178 141
178 147
178 148
178 151
178 153
178 167
178 171
178 186
178 194
178 199
178 200
178 208
178 223
178 232
178 245
179 117
179 122
179 137
179 139
179 142
179 161
179 162
179 168
179 171
179 186
179 188
179 192
179 197
179 198
179 215
179 221
179 224
179 225
179 247
179 250
180 109
180 131
180 135
180 141
180 147
180 150
180 160
180 167
180 187
180 189
180 194
180 199
180 208
180 216
180 220
180 226
180 232
180 248
181 120
181 124
181 126
181 128
181 134
181 152
181 154
181 155
181 163
181 174
181 175
181 176
181 183
181 185
181 190
181 201
181 204
181 210
181 212
181 213
181 217
181 233
181 234
181 238
181 239
181 244
182 115
182 125
182 127
182 129
182 146
182 149
182 156
182 157
182 158
182 159
182 170
182 172
182 193
182 202
182 203
182 211
182 214
182 222
182 228
182 235
182 241
182 249
182 251
183 124
183 126
183 128
183 143
183 152
183 154
183 155
183 174
183 175
183 176
183 181
183 190
183 201
183 204
183 209
183 210
183 213
183 217
183 230
183 234
183 238
183 239
183 243
183 244
184 114
184 130
184 132
184 136
184 138
184 140
184 145
184 156
184 164
184 166
184 169
184 170
184 173
184 191
184 193
184 196
184 206
184 211
184 218
184 219
184 227
184 231
184 236
184 240
184 242
185 112
185 120
185 121
185 133
185 134
185 144
185 152
185 155
185 163
185 165
185 172
185 175
185 177
185 181
185 201
185 202
185 204
185 205
185 207
185 212
185 213
185 229
185 233
185 234
185 237
185 246
185 252
185 254
186 119
186 122
186 139
186 148
186 151
186 153
186 162
186 171
186 178
186 179
186 197
186 198
186 199
186 200
186 221
186 223
186 224
186 225
186 245
186 247
186 256
187 131
187 135
187 143
187 150
187 160
187 174
187 176
187 180
187 189
187 190
187 194
187 209
187 210
187 216
187 220
187 226
187 230
187 248
187 260
188 137
188 142
188 161
188 162
188 168
188 171
188 179
188 192
188 195
188 197
188 198
188 215
188 221
188 225
188 250
189 131
189 135
189 147
189 150
189 160
189 167
189 180
189 187
189 194
189 208
189 209
189 216
189 220
189 226
189 232
189 248
189 260
190 118
190 126
190 128
190 143
190 154
190 155
190 174
190 176
190 181
190 183
190 187
190 201
190 209
190 210
190 213
190 217
190 230
190 238
190 239
190 243
190 244
190 253
191 130
191 136
191 138
191 140
191 156
191 158
191 164
191 166
191 170
191 173
191 184
191 193
191 196
191 211
191 218
191 219
191 222
191 231
191 236
191 240
191 242
191 249
191 261
191 262
192 137
192 142
192 161
192 168
192 179
192 188
192 195
192 198
192 215
192 225
193 125
193 127
193 130
193 138
193 149
193 156
193 157
193 158
193 166
193 170
193 182
193 184
193 191
193 203
193 211
193 214
193 218
193 222
193 231
193 235
193 236
193 241
193 249
194 141
194 147
194 150
194 153
194 160
194 167
194 178
194 180
194 187
194 189
194 199
194 200
194 208
194 220
194 223
194 226
194 232
194 248
194 255
194 258
194 264
195 137
195 161
195 168
195 188
195 192
195 215
196 132
196 136
196 140
196 145
196 164
196 166
196 169
196 173
196 184
196 191
196 206
196 218
196 219
196 227
196 231
196 240
196 242
196 262
196 266
197 139
197 142
197 148
197 151
197 161
197 162
197 171
197 179
197 186
197 188
197 198
197 200
197 215
197 221
197 223
197 224
197 225
197 245
197 247
197 250
197 256
198 139
198 142
198 161
198 162
198 168
198 171
198 179
198 186
198 188
198 192
198 197
198 200
198 215
198 221
198 224
198 225
198 247
198 250
198 256
199 141
199 147
199 148
199 151
199 153
199 167
199 178
199 180
199 186
199 194
199 200
199 208
199 220
199 223
199 226
199 232
199 245
199 255
199 258
199 265
199 271
200 139
200 148
200 151
200 153
200 167
200 171
200 178
200 186
200 194
200 197
200 198
200 199
200 208
200 221
200 223
200 224
200 245
200 256
200 258
200 265
201 152
201 154
201 155
201 174
201 175
201 176
201 181
201 183
201 185
201 190
201 204
201 209
201 210
201 212
201 213
201 217
201 230
201 233
201 234
201 238
201 239
201 243
201 244
201 259
201 263
201 270
201 277
202 133
202 144
202 146
202 157
202 159
202 165
202 172
202 177
202 182
202 185
202 203
202 205
202 207
202 212
202 214
202 228
202 229
202 235
202 246
202 251
202 252
202 257
203 129
203 146
203 149
203 157
203 158
203 159
203 165
203 170
203 172
203 177
203 182
203 193
203 202
203 205
203 207
203 214
203 222
203 228
203 229
203 235
203 241
203 246
203 251
203 257
203 268
204 134
204 144
204 152
204 155
204 163
204 175
204 177
204 181
204 183
204 185
204 201
204 205
204 207
204 212
204 213
204 229
204 233
204 234
204 237
204 238
204 239
204 252
204 254
204 259
204 263
204 276
205 133
205 144
205 146
205 159
205 163
205 165
205 172
205 177
205 185
205 202
205 203
205 204
205 207
205 212
205 228
205 229
205 235
205 237
205 246
205 251
205 252
205 254
205 257
205 274
205 275
206 132
206 140
206 145
206 164
206 169
206 173
206 184
206 196
206 218
206 219
206 227
206 240
206 242
206 266
207 133
207 144
207 146
207 163
207 165
207 172
207 175
207 177
207 185
207 202
207 203
207 204
207 205
207 212
207 213
207 228
207 229
207 233
207 237
207 246
207 252
207 254
207 257
207 274
207 275
208 141
208 147
208 150
208 153
208 167
208 178
208 180
208 189
208 194
208 199
208 200
208 220
208 223
208 226
208 232
208 248
208 255
208 258
208 264
208 265
208 271
208 281
209 143
209 154
209 174
209 176
209 183
209 187
209 189
209 190
209 201
209 210
209 216
209 217
209 230
209 239
209 243
209 244
209 253
209 260
209 267
209 279
210 143
210 154
210 174
210 176
210 181
210 183
210 187
210 190
210 201
210 209
210 216
210 217
210 230
210 238
210 239
210 243
210 244
210 253
210 267
210 270
210 279
211 149
211 156
211 158
211 164
211 166
211 170
211 182
211 184
211 191
211 193
211 214
211 218
211 222
211 231
211 235
211 236
211 241
211 242
211 249
211 261
211 262
211 269
211 273
212 144
212 163
212 165
212 175
212 177
212 181
212 185
212 201
212 202
212 204
212 205
212 207
212 213
212 228
212 229
212 233
212 234
212 237
212 238
212 246
212 252
212 254
212 259
212 275
212 276
213 152
213 155
213 163
213 175
213 181
213 183
213 185
213 190
213 201
213 204
213 207
213 212
213 217
213 233
213 234
213 237
213 238
213 239
213 244
213 254
213 259
213 263
213 276
213 277
214 149
214 157
214 158
214 159
214 170
214 172
214 182
214 193
214 202
214 203
214 211
214 222
214 228
214 235
214 236
214 241
214 249
214 251
214 257
214 268
214 269
214 273
215 142
215 161
215 168
215 179
215 188
215 192
215 195
215 197
215 198
215 221
215 225
215 247
215 250
215 282
215 285
216 160
216 176
216 180
216 187
216 189
216 209
216 210
216 220
216 226
216 230
216 243
216 248
216 253
216 260
216 264
216 267
216 278
217 154
217 155
217 174
217 176
217 181
217 183
217 190
217 201
217 209
217 210
217 213
217 230
217 234
217 238
217 239
217 243
217 244
217 253
217 259
217 263
217 270
217 277
217 279
218 164
218 166
218 169
218 173
218 184
218 191
218 193
218 196
218 206
218 211
218 219
218 227
218 231
218 236
218 240
218 242
218 249
218 261
218 262
218 266
218 272
218 284
218 286
219 145
219 164
219 166
219 169
219 173
219 184
219 191
219 196
219 206
219 218
219 227
219 231
219 236
219 240
219 242
219 261
219 262
219 266
219 272
219 284
219 293
220 147
220 150
220 160
220 167
220 180
220 187
220 189
220 194
220 199
220 208
220 216
220 223
220 226
220 232
220 248
220 255
220 258
220 260
220 264
220 278
220 281
220 292
221 162
221 171
221 179
221 186
221 188
221 197
221 198
221 200
221 215
221 223
221 224
221 225
221 245
221 247
221 250
221 256
221 280
221 282
221 283
222 156
222 158
222 166
222 170
222 182
222 191
222 193
222 203
222 211
222 214
222 231
222 235
222 236
222 241
222 249
222 251
222 261
222 268
222 269
222 273
222 286
222 290
222 297
223 151
223 153
223 167
223 178
223 186
223 194
223 197
223 199
223 200
223 208
223 220
223 221
223 224
223 232
223 245
223 255
223 256
223 258
223 265
223 271
223 281
223 289
224 162
224 171
224 179
224 186
224 197
224 198
224 200
224 221
224 223
224 225
224 245
224 247
224 250
224 256
224 265
224 280
224 283
224 298
225 161
225 162
225 171
225 179
225 186
225 188
225 192
225 197
225 198
225 215
225 221
225 224
225 247
225 250
225 256
225 280
225 282
225 283
225 285
226 150
226 160
226 180
226 187
226 189
226 194
226 199
226 208
226 216
226 220
226 232
226 248
226 255
226 258
226 260
226 264
226 267
226 278
226 281
226 292
227 169
227 173
227 184
227 196
227 206
227 218
227 219
227 231
227 240
227 242
227 262
227 266
227 272
227 284
227 293
228 165
228 172
228 177
228 182
228 202
228 203
228 205
228 207
228 212
228 214
228 229
228 235
228 237
228 241
228 246
228 251
228 252
228 257
228 268
228 269
228 274
228 275
228 287
228 288
228 294
228 306
229 165
229 172
229 177
229 185
229 202
229 203
229 204
229 205
229 207
229 212
229 228
229 233
229 234
229 237
229 246
229 251
229 252
229 254
229 257
229 274
229 275
229 276
229 288
229 302
229 306
230 174
230 176
230 183
230 187
230 190
230 201
230 209
230 210
230 216
230 217
230 239
230 243
230 244
230 253
230 260
230 267
230 270
230 277
230 279
230 300
230 304
231 164
231 166
231 184
231 191
231 193
231 196
231 211
231 218
231 219
231 222
231 227
231 236
231 240
231 241
231 242
231 249
231 261
231 262
231 266
231 272
231 273
231 284
231 286
231 297
231 299
232 167
232 178
232 180
232 189
232 194
232 199
232 208
232 220
232 223
232 226
232 248
232 255
232 258
232 260
232 264
232 265
232 271
232 278
232 281
232 289
232 292
233 163
233 175
233 177
233 181
233 185
233 201
233 204
233 207
233 212
233 213
233 229
233 234
233 237
233 238
233 239
233 246
233 252
233 254
233 259
233 263
233 275
233 276
233 277
233 291
233 296
234 175
234 181
234 183
234 185
234 201
234 204
234 212
234 213
234 217
234 229
234 233
234 237
234 238
234 239
234 243
234 244
234 252
234 254
234 259
234 263
234 270
234 276
234 277
234 291
234 296
235 182
235 193
235 202
235 203
235 205
235 211
235 214
235 222
235 228
235 236
235 241
235 246
235 249
235 251
235 257
235 268
235 269
235 273
235 287
235 288
235 290
235 294
235 301
236 166
236 170
236 184
236 191
236 193
236 211
236 214
236 218
236 219
236 222
236 231
236 235
236 240
236 241
236 242
236 249
236 261
236 262
236 269
236 272
236 273
236 286
236 290
236 297
236 299
237 163
237 175
237 177
237 185
237 204
237 205
237 207
237 212
237 213
237 228
237 229
237 233
237 234
237 238
237 246
237 252
237 254
237 259
237 263
237 274
237 275
237 276
237 291
237 302
237 310
238 175
238 181
238 183
238 190
238 201
238 204
238 210
238 212
238 213
238 217
238 233
238 234
238 237
238 239
238 243
238 244
238 254
238 259
238 263
238 270
238 276
238 277
238 291
238 296
238 300
238 307
239 174
239 181
239 183
239 190
239 201
239 204
239 209
239 210
239 213
239 217
239 230
239 233
239 234
239 238
239 243
239 244
239 253
239 259
239 263
239 270
239 277
239 279
239 296
239 300
239 307
240 169
240 173
240 184
240 191
240 196
240 206
240 218
240 219
240 227
240 231
240 236
240 242
240 261
240 262
240 266
240 272
240 284
240 286
240 293
240 299
240 317
241 182
241 193
241 203
241 211
241 214
241 222
241 228
241 231
241 235
241 236
241 249
241 251
241 257
241 261
241 268
241 269
241 273
241 286
241 287
241 290
241 294
241 297
241 301
242 173
242 184
242 191
242 196
242 206
242 211
242 218
242 219
242 227
242 231
242 236
242 240
242 249
242 261
242 262
242 266
242 272
242 273
242 284
242 286
242 293
242 299
242 317
243 174
243 176
243 183
243 190
243 201
243 209
243 210
243 216
243 217
243 230
243 234
243 238
243 239
243 244
243 253
243 263
243 267
243 270
243 277
243 279
243 300
243 304
243 307
244 174
244 176
244 181
244 183
244 190
244 201
244 209
244 210
244 213
244 217
244 230
244 234
244 238
244 239
244 243
244 253
244 259
244 263
244 270
244 277
244 279
244 296
244 300
244 304
244 307
245 178
245 186
245 197
245 199
245 200
245 221
245 223
245 224
245 247
245 255
245 256
245 258
245 265
245 271
245 280
245 283
245 289
245 298
245 311
245 312
246 177
246 185
246 202
246 203
246 205
246 207
246 212
246 228
246 229
246 233
246 235
246 237
246 251
246 252
246 254
246 257
246 268
246 274
246 275
246 276
246 287
246 288
246 302
246 306
246 313
246 320
247 179
247 186
247 197
247 198
247 215
247 221
247 224
247 225
247 245
247 250
247 256
247 265
247 280
247 282
247 283
247 285
247 298
247 309
247 311
247 316
248 180
248 187
248 189
248 194
248 208
248 216
248 220
248 226
248 232
248 255
248 258
248 260
248 264
248 267
248 278
248 281
248 292
248 303
248 308
249 182
249 191
249 193
249 211
249 214
249 218
249 222
249 231
249 235
249 236
249 241
249 242
249 251
249 261
249 262
249 268
249 269
249 272
249 273
249 286
249 290
249 294
249 297
249 299
249 301
249 321
250 179
250 188
250 197
250 198
250 215
250 221
250 224
250 225
250 247
250 256
250 280
250 282
250 283
250 285
250 295
250 309
250 311
250 316
251 182
251 202
251 203
251 205
251 214
251 222
251 228
251 229
251 235
251 241
251 246
251 249
251 252
251 257
251 268
251 269
251 273
251 274
251 275
251 287
251 288
251 290
251 294
251 301
251 306
251 313
251 322
251 326
252 185
252 202
252 204
252 205
252 207
252 212
252 228
252 229
252 233
252 234
252 237
252 246
252 251
252 254
252 257
252 259
252 274
252 275
252 276
252 288
252 291
252 302
252 306
252 310
252 313
252 320
253 190
253 209
253 210
253 216
253 217
253 230
253 239
253 243
253 244
253 260
253 267
253 270
253 277
253 279
253 300
253 303
253 304
253 307
254 185
254 204
254 205
254 207
254 212
254 213
254 229
254 233
254 234
254 237
254 238
254 246
254 252
254 257
254 259
254 263
254 274
254 275
254 276
254 291
254 296
254 302
254 306
254 310
254 314
254 320
255 194
255 199
255 208
255 220
255 223
255 226
255 232
255 245
255 248
255 258
255 260
255 264
255 265
255 271
255 278
255 281
255 289
255 292
255 308
255 315
255 325
256 186
256 197
256 198
256 200
256 221
256 223
256 224
256 225
256 245
256 247
256 250
256 265
256 271
256 280
256 282
256 283
256 298
256 309
256 311
256 312
256 332
257 202
257 203
257 205
257 207
257 214
257 228
257 229
257 235
257 241
257 246
257 251
257 252
257 254
257 268
257 269
257 274
257 275
257 287
257 288
257 294
257 301
257 302
257 306
257 313
257 322
257 326
258 194
258 199
258 200
258 208
258 220
258 223
258 226
258 232
258 245
258 248
258 255
258 264
258 265
258 271
258 278
258 281
258 289
258 292
258 298
258 312
258 315
258 325
258 328
259 201
259 204
259 212
259 213
259 217
259 233
259 234
259 237
259 238
259 239
259 244
259 252
259 254
259 263
259 270
259 275
259 276
259 277
259 291
259 296
259 300
259 307
259 310
259 314
259 323
260 187
260 189
260 209
260 216
260 220
260 226
260 230
260 232
260 248
260 253
260 255
260 264
260 267
260 278
260 279
260 292
260 303
260 304
260 308
260 329
260 330
261 191
261 211
261 218
261 219
261 222
261 231
261 236
261 240
261 241
261 242
261 249
261 262
261 266
261 269
261 272
261 273
261 284
261 286
261 290
261 297
261 299
261 301
261 317
261 319
261 321
262 191
262 196
262 211
262 218
262 219
262 227
262 231
262 236
262 240
262 242
262 249
262 261
262 266
262 272
262 273
262 284
262 286
262 290
262 293
262 297
262 299
262 317
262 319
262 321
262 331
263 201
263 204
263 213
263 217
263 233
263 234
263 237
263 238
263 239
263 243
263 244
263 254
263 259
263 270
263 276
263 277
263 291
263 296
263 300
263 307
263 310
263 314
263 323
263 324
264 194
264 208
264 216
264 220
264 226
264 232
264 248
264 255
264 258
264 260
264 267
264 271
264 278
264 281
264 289
264 292
264 303
264 308
264 315
264 330
264 350
265 199
265 200
265 208
265 223
265 224
265 232
265 245
265 247
265 255
265 256
265 258
265 271
265 281
265 283
265 289
265 298
265 311
265 312
265 315
265 325
265 328
266 196
266 206
266 218
266 219
266 227
266 231
266 240
266 242
266 261
266 262
266 272
266 284
266 293
266 299
266 317
266 331
266 337
267 209
267 210
267 216
267 226
267 230
267 243
267 248
267 253
267 260
267 264
267 278
267 279
267 292
267 303
267 304
267 308
267 329
267 338
268 203
268 214
268 222
268 228
268 235
268 241
268 246
268 249
268 251
268 257
268 269
268 273
268 274
268 287
268 288
268 290
268 294
268 297
268 301
268 313
268 322
268 326
268 334
268 335
269 211
269 214
269 222
269 228
269 235
269 236
269 241
269 249
269 251
269 257
269 261
269 268
269 273
269 286
269 287
269 288
269 290
269 294
269 297
269 301
269 321
269 322
269 326
269 334
269 335
270 201
270 210
270 217
270 230
270 234
270 238
270 239
270 243
270 244
270 253
270 259
270 263
270 277
270 279
270 296
270 300
270 304
270 307
270 323
270 324
270 333
270 336
271 199
271 208
271 223
271 232
271 245
271 255
271 256
271 258
271 264
271 265
271 281
271 283
271 289
271 292
271 298
271 312
271 315
271 325
271 328
271 344
272 218
272 219
272 227
272 231
272 236
272 240
272 242
272 249
272 261
272 262
272 266
272 273
272 284
272 286
272 293
272 297
272 299
272 317
272 319
272 321
272 331
272 347
273 211
273 214
273 222
273 231
273 235
273 236
273 241
273 242
273 249
273 251
273 261
273 262
273 268
273 269
273 272
273 286
273 287
273 290
273 294
273 297
273 299
273 301
273 319
273 321
273 322
273 334
273 335
274 205
274 207
274 228
274 229
274 237
274 246
274 251
274 252
274 254
274 257
274 268
274 275
274 276
274 287
274 288
274 291
274 294
274 302
274 306
274 310
274 313
274 320
274 326
274 339
274 341
274 342
275 205
275 207
275 212
275 228
275 229
275 233
275 237
275 246
275 251
275 252
275 254
275 257
275 259
275 274
275 276
275 287
275 288
275 291
275 302
275 306
275 310
275 313
275 314
275 320
275 339
275 341
275 342
276 204
276 212
276 213
276 229
276 233
276 234
276 237
276 238
276 246
276 252
276 254
276 259
276 263
276 274
276 275
276 288
276 291
276 296
276 302
276 306
276 310
276 314
276 320
276 323
276 339
276 342
276 349
277 201
277 213
277 217
277 230
277 233
277 234
277 238
277 239
277 243
277 244
277 253
277 259
277 263
277 270
277 279
277 291
277 296
277 300
277 304
277 307
277 314
277 323
277 324
277 333
277 336
277 352
278 216
278 220
278 226
278 232
278 248
278 255
278 258
278 260
278 264
278 267
278 281
278 292
278 303
278 308
278 315
278 329
278 330
278 348
278 350
279 209
279 210
279 217
279 230
279 239
279 243
279 244
279 253
279 260
279 267
279 270
279 277
279 300
279 303
279 304
279 307
279 324
279 329
279 333
279 336
279 338
280 221
280 224
280 225
280 245
280 247
280 250
280 256
280 282
280 283
280 285
280 298
280 309
280 311
280 316
280 318
280 332
280 340
280 343
281 208
281 220
281 223
281 226
281 232
281 248
281 255
281 258
281 264
281 265
281 271
281 278
281 289
281 292
281 308
281 312
281 315
281 325
281 328
281 330
281 344
281 350
282 215
282 221
282 225
282 247
282 250
282 256
282 280
282 283
282 285
282 295
282 309
282 311
282 316
282 318
282 327
282 340
282 343
282 346
283 221
283 224
283 225
283 245
283 247
283 250
283 256
283 265
283 271
283 280
283 282
283 298
283 309
283 311
283 312
283 316
283 328
283 332
283 340
283 343
283 351
284 218
284 219
284 227
284 231
284 240
284 242
284 261
284 262
284 266
284 272
284 286
284 293
284 299
284 317
284 319
284 331
284 337
284 347
284 358
285 215
285 225
285 247
285 250
285 280
285 282
285 295
285 305
285 309
285 316
285 318
285 327
285 343
285 345
285 346
286 218
286 222
286 231
286 236
286 240
286 241
286 242
286 249
286 261
286 262
286 269
286 272
286 273
286 284
286 290
286 293
286 297
286 299
286 301
286 317
286 319
286 321
286 334
286 347
286 354
286 355
286 358
287 228
287 235
287 241
287 246
287 251
287 257
287 268
287 269
287 273
287 274
287 275
287 288
287 290
287 294
287 301
287 302
287 306
287 313
287 322
287 326
287 334
287 335
287 339
287 341
287 360
287 361
288 228
288 229
288 235
288 246
288 251
288 252
288 257
288 268
288 269
288 274
288 275
288 276
288 287
288 294
288 301
288 302
288 306
288 310
288 313
288 320
288 322
288 326
288 335
288 339
288 341
288 360
288 366
289 223
289 232
289 245
289 255
289 258
289 264
289 265
289 271
289 281
289 292
289 298
289 308
289 312
289 315
289 325
289 328
289 330
289 344
289 350
289 351
289 353
290 222
290 235
290 236
290 241
290 249
290 251
290 261
290 262
290 268
290 269
290 273
290 286
290 287
290 294
290 297
290 299
290 301
290 319
290 321
290 322
290 326
290 334
290 335
290 355
290 359
290 361
291 233
291 234
291 237
291 238
291 252
291 254
291 259
291 263
291 274
291 275
291 276
291 277
291 296
291 302
291 306
291 307
291 310
291 314
291 320
291 323
291 324
291 342
291 349
291 352
291 356
291 364
292 220
292 226
292 232
292 248
292 255
292 258
292 260
292 264
292 267
292 271
292 278
292 281
292 289
292 303
292 308
292 315
292 325
292 329
292 330
292 344
292 348
292 350
292 372
293 219
293 227
293 240
293 242
293 262
293 266
293 272
293 284
293 286
293 299
293 317
293 319
293 331
293 337
293 347
293 358
294 228
294 235
294 241
294 249
294 251
294 257
294 268
294 269
294 273
294 274
294 287
294 288
294 290
294 297
294 301
294 306
294 313
294 321
294 322
294 326
294 334
294 335
294 341
294 359
294 360
294 361
295 250
295 282
295 285
295 305
295 316
295 318
295 327
295 345
295 346
295 370
296 233
296 234
296 238
296 239
296 244
296 254
296 259
296 263
296 270
296 276
296 277
296 291
296 300
296 307
296 310
296 314
296 323
296 324
296 336
296 342
296 349
296 352
296 356
296 371
296 376
297 222
297 231
297 236
297 241
297 249
297 261
297 262
297 268
297 269
297 272
297 273
297 286
297 290
297 294
297 299
297 301
297 317
297 319
297 321
297 322
297 334
297 335
297 354
297 355
297 359
298 224
298 245
298 247
298 256
298 258
298 265
298 271
298 280
298 283
298 289
298 309
298 311
298 312
298 325
298 328
298 332
298 340
298 343
298 351
298 353
298 362
298 365
298 369
299 231
299 236
299 240
299 242
299 249
299 261
299 262
299 266
299 272
299 273
299 284
299 286
299 290
299 293
299 297
299 317
299 319
299 321
299 331
299 334
299 347
299 354
299 355
299 358
300 230
300 238
300 239
300 243
300 244
300 253
300 259
300 263
300 270
300 277
300 279
300 296
300 304
300 307
300 323
300 324
300 333
300 336
300 338
300 352
300 368
301 235
301 241
301 249
301 251
301 257
301 261
301 268
301 269
301 273
301 286
301 287
301 288
301 290
301 294
301 297
301 313
301 321
301 322
301 326
301 334
301 335
301 341
301 355
301 359
301 360
301 361
302 229
302 237
302 246
302 252
302 254
302 257
302 274
302 275
302 276
302 287
302 288
302 291
302 306
302 310
302 313
302 314
302 320
302 326
302 339
302 341
302 342
302 349
302 363
302 364
302 366
303 248
303 253
303 260
303 264
303 267
303 278
303 279
303 292
303 304
303 308
303 329
303 330
303 333
303 338
303 348
303 350
303 357
303 375
304 230
304 243
304 244
304 253
304 260
304 267
304 270
304 277
304 279
304 300
304 303
304 307
304 324
304 329
304 333
304 336
304 338
304 357
304 368
304 380
305 285
305 295
305 316
305 318
305 327
305 345
305 346
305 370
306 228
306 229
306 246
306 251
306 252
306 254
306 257
306 274
306 275
306 276
306 287
306 288
306 291
306 294
306 302
306 310
306 313
306 314
306 320
306 322
306 326
306 339
306 341
306 342
306 349
306 360
306 363
306 364
306 366
307 238
307 239
307 243
307 244
307 253
307 259
307 263
307 270
307 277
307 279
307 291
307 296
307 300
307 304
307 314
307 323
307 324
307 333
307 336
307 338
307 349
307 352
307 356
307 368
307 371
307 376
308 248
308 255
308 260
308 264
308 267
308 278
308 281
308 289
308 292
308 303
308 315
308 329
308 330
308 344
308 348
308 350
308 357
308 372
308 373
308 375
309 247
309 250
309 256
309 280
309 282
309 283
309 285
309 298
309 311
309 312
309 316
309 318
309 332
309 340
309 343
309 346
309 351
309 365
309 367
309 369
309 377
309 381
310 237
310 252
310 254
310 259
310 263
310 274
310 275
310 276
310 288
310 291
310 296
310 302
310 306
310 313
310 314
310 320
310 323
310 339
310 342
310 349
310 356
310 363
310 364
310 371
310 382
310 385
311 245
311 247
311 250
311 256
311 265
311 280
311 282
311 283
311 298
311 309
311 312
311 316
311 328
311 332
311 340
311 343
311 351
311 362
311 365
311 367
311 369
311 377
311 381
312 245
312 256
312 258
312 265
312 271
312 281
312 283
312 289
312 298
312 309
312 311
312 315
312 325
312 328
312 332
312 340
312 344
312 351
312 353
312 362
312 365
312 369
312 386
313 246
313 251
313 252
313 257
313 268
313 274
313 275
313 287
313 288
313 294
313 301
313 302
313 306
313 310
313 320
313 322
313 326
313 335
313 339
313 341
313 360
313 361
313 363
313 366
313 379
313 396
314 254
314 259
314 263
314 275
314 276
314 277
314 291
314 296
314 302
314 306
314 307
314 310
314 320
314 323
314 324
314 339
314 342
314 349
314 352
314 356
314 363
314 364
314 371
314 376
314 382
314 385
315 255
315 258
315 264
315 265
315 271
315 278
315 281
315 289
315 292
315 308
315 312
315 325
315 328
315 330
315 344
315 348
315 350
315 351
315 353
315 362
315 372
315 373
315 374
315 386
315 393
316 247
316 250
316 280
316 282
316 283
316 285
316 295
316 305
316 309
316 311
316 318
316 327
316 332
316 340
316 343
316 346
316 367
316 369
316 377
316 381
316 387
317 240
317 242
317 261
317 262
317 266
317 272
317 284
317 286
317 293
317 297
317 299
317 319
317 321
317 331
317 337
317 347
317 354
317 358
317 378
317 383
317 384
317 388
318 280
318 282
318 285
318 295
318 305
318 309
318 316
318 327
318 343
318 345
318 346
318 367
318 370
318 377
318 387
318 398
319 261
319 262
319 272
319 273
319 284
319 286
319 290
319 293
319 297
319 299
319 317
319 321
319 331
319 334
319 337
319 347
319 354
319 355
319 358
319 359
319 384
319 388
319 391
320 246
320 252
320 254
320 274
320 275
320 276
320 288
320 291
320 302
320 306
320 310
320 313
320 314
320 326
320 339
320 341
320 342
320 349
320 356
320 360
320 363
320 364
320 366
320 382
320 385
320 389
321 249
321 261
321 262
321 269
321 272
321 273
321 286
321 290
321 294
321 297
321 299
321 301
321 317
321 319
321 322
321 334
321 335
321 347
321 354
321 355
321 358
321 359
321 361
321 384
321 391
321 395
322 251
322 257
322 268
322 269
322 273
322 287
322 288
322 290
322 294
322 297
322 301
322 306
322 313
322 321
322 326
322 334
322 335
322 339
322 341
322 355
322 359
322 360
322 361
322 366
322 379
322 392
323 259
323 263
323 270
323 276
323 277
323 291
323 296
323 300
323 307
323 310
323 314
323 324
323 333
323 336
323 342
323 349
323 352
323 356
323 364
323 371
323 376
323 382
323 399
324 263
324 270
324 277
324 279
324 291
324 296
324 300
324 304
324 307
324 314
324 323
324 333
324 336
324 338
324 349
324 352
324 356
324 368
324 371
324 376
324 390
324 400
325 255
325 258
325 265
325 271
325 281
325 289
325 292
325 298
325 312
325 315
325 328
325 330
325 332
325 344
325 350
325 351
325 353
325 362
325 365
325 372
325 374
325 386
325 393
326 251
326 257
326 268
326 269
326 274
326 287
326 288
326 290
326 294
326 301
326 302
326 306
326 313
326 320
326 322
326 334
326 335
326 339
326 341
326 359
326 360
326 361
326 363
326 366
326 379
326 392
326 396
327 282
327 285
327 295
327 305
327 316
327 318
327 345
327 346
327 367
327 370
327 387
327 398
328 258
328 265
328 271
328 281
328 283
328 289
328 298
328 311
328 312
328 315
328 325
328 332
328 340
328 344
328 351
328 353
328 362
328 365
328 369
328 374
328 386
328 393
328 394
328 403
329 260
329 267
329 278
329 279
329 292
329 303
329 304
329 308
329 330
329 333
329 336
329 338
329 348
329 350
329 357
329 368
329 372
329 373
329 375
329 380
329 397
330 260
330 264
330 278
330 281
330 289
330 292
330 303
330 308
330 315
330 325
330 329
330 344
330 348
330 350
330 357
330 372
330 373
330 374
330 375
330 408
331 262
331 266
331 272
331 284
331 293
331 299
331 317
331 319
331 337
331 347
331 354
331 358
331 378
331 383
331 384
331 388
331 402
331 405
332 256
332 280
332 283
332 298
332 309
332 311
332 312
332 316
332 325
332 328
332 340
332 343
332 351
332 353
332 362
332 365
332 369
332 377
332 381
332 386
332 394
332 403
332 411
333 270
333 277
333 279
333 300
333 303
333 304
333 307
333 323
333 324
333 329
333 336
333 338
333 352
333 357
333 368
333 376
333 380
333 390
333 400
333 414
334 268
334 269
334 273
334 286
334 287
334 290
334 294
334 297
334 299
334 301
334 319
334 321
334 322
334 326
334 335
334 354
334 355
334 359
334 360
334 361
334 379
334 384
334 391
334 392
334 395
334 409
335 268
335 269
335 273
335 287
335 288
335 290
335 294
335 297
335 301
335 313
335 321
335 322
335 326
335 334
335 341
335 355
335 359
335 360
335 361
335 366
335 379
335 391
335 392
335 395
335 409
336 270
336 277
336 279
336 296
336 300
336 304
336 307
336 323
336 324
336 329
336 333
336 338
336 352
336 356
336 368
336 371
336 376
336 380
336 390
336 400
336 406
336 416
337 266
337 284
337 293
337 317
337 319
337 331
337 347
337 354
337 358
337 378
337 383
337 388
337 402
337 405
338 267
338 279
338 300
338 303
338 304
338 307
338 324
338 329
338 333
338 336
338 348
338 357
338 368
338 375
338 380
338 390
338 397
338 400
338 414
339 274
339 275
339 276
339 287
339 288
339 302
339 306
339 310
339 313
339 314
339 320
339 322
339 326
339 341
339 342
339 349
339 360
339 363
339 364
339 366
339 379
339 382
339 385
339 389
339 396
339 415
340 280
340 282
340 283
340 298
340 309
340 311
340 312
340 316
340 328
340 332
340 343
340 346
340 351
340 362
340 365
340 367
340 369
340 377
340 381
340 394
340 411
341 274
341 275
341 287
341 288
341 294
341 301
341 302
341 306
341 313
341 320
341 322
341 326
341 335
341 339
341 342
341 360
341 361
341 363
341 364
341 366
341 379
341 389
341 392
341 396
341 410
342 274
342 275
342 276
342 291
342 296
342 302
342 306
342 310
342 314
342 320
342 323
342 339
342 341
342 349
342 352
342 356
342 363
342 364
342 366
342 371
342 382
342 385
342 389
342 399
342 407
342 412
342 415
343 280
343 282
343 283
343 285
343 298
343 309
343 311
343 316
343 318
343 332
343 340
343 346
343 351
343 365
343 367
343 369
343 377
343 381
343 387
343 394
343 401
343 411
343 413
344 271
344 281
344 289
344 292
344 308
344 312
344 315
344 325
344 328
344 330
344 348
344 350
344 351
344 353
344 362
344 372
344 373
344 374
344 375
344 386
344 393
344 404
345 285
345 295
345 305
345 318
345 327
345 346
345 367
345 370
345 387
345 398
346 282
346 285
346 295
346 305
346 309
346 316
346 318
346 327
346 340
346 343
346 345
346 367
346 370
346 377
346 381
346 387
346 398
346 401
347 272
347 284
347 286
347 293
347 299
347 317
347 319
347 321
347 331
347 337
347 354
347 355
347 358
347 378
347 383
347 384
347 388
347 402
347 405
348 278
348 292
348 303
348 308
348 315
348 329
348 330
348 338
348 344
348 350
348 357
348 372
348 373
348 374
348 375
348 380
348 397
348 408
349 276
349 291
349 296
349 302
349 306
349 307
349 310
349 314
349 320
349 323
349 324
349 339
349 342
349 352
349 356
349 363
349 364
349 371
349 376
349 382
349 385
349 389
349 399
349 407
349 412
350 264
350 278
350 281
350 289
350 292
350 303
350 308
350 315
350 325
350 329
350 330
350 344
350 348
350 353
350 357
350 372
350 373
350 374
350 375
350 386
350 393
350 397
350 404
350 408
350 422
350 423
351 283
351 289
351 298
351 309
351 311
351 312
351 315
351 325
351 328
351 332
351 340
351 343
351 344
351 353
351 362
351 365
351 369
351 374
351 381
351 386
351 393
351 394
351 403
351 411
351 417
351 420
352 277
352 291
352 296
352 300
352 307
352 314
352 323
352 324
352 333
352 336
352 342
352 349
352 356
352 368
352 371
352 376
352 382
352 390
352 399
352 400
352 406
352 407
353 289
353 298
353 312
353 315
353 325
353 328
353 332
353 344
353 350
353 351
353 362
353 365
353 369
353 372
353 374
353 386
353 393
353 394
353 403
353 404
353 417
353 431
354 286
354 297
354 299
354 317
354 319
354 321
354 331
354 334
354 337
354 347
354 355
354 358
354 359
354 383
354 384
354 388
354 391
354 395
354 402
354 405
354 419
354 428
354 430
355 286
355 290
355 297
355 299
355 301
355 319
355 321
355 322
355 334
355 335
355 347
355 354
355 358
355 359
355 361
355 384
355 388
355 391
355 392
355 395
355 409
355 419
355 428
355 429
356 291
356 296
356 307
356 310
356 314
356 320
356 323
356 324
356 336
356 342
356 349
356 352
356 363
356 364
356 371
356 376
356 382
356 385
356 399
356 400
356 406
356 407
356 412
356 426
356 432
357 303
357 304
357 308
357 329
357 330
357 333
357 338
357 348
357 350
357 368
357 372
357 373
357 375
357 380
357 390
357 397
357 408
357 414
358 284
358 286
358 293
358 299
358 317
358 319
358 321
358 331
358 337
358 347
358 354
358 355
358 378
358 383
358 384
358 388
358 391
358 402
358 405
358 419
358 428
358 430
358 433
359 290
359 294
359 297
359 301
359 319
359 321
359 322
359 326
359 334
359 335
359 354
359 355
359 360
359 361
359 379
359 384
359 391
359 392
359 395
359 409
359 410
359 421
359 428
359 429
359 439
360 287
360 288
360 294
360 301
360 306
360 313
360 320
360 322
360 326
360 334
360 335
360 339
360 341
360 359
360 361
360 363
360 366
360 379
360 389
360 392
360 396
360 409
360 410
360 418
360 421
360 443
361 287
361 290
361 294
361 301
361 313
361 321
361 322
361 326
361 334
361 335
361 341
361 355
361 359
361 360
361 366
361 379
361 391
361 392
361 395
361 396
361 409
361 410
361 421
361 429
361 438
361 439
362 298
362 311
362 312
362 315
362 325
362 328
362 332
362 340
362 344
362 351
362 353
362 365
362 369
362 374
362 381
362 386
362 393
362 394
362 403
362 404
362 411
362 417
362 420
362 424
362 431
362 445
363 302
363 306
363 310
363 313
363 314
363 320
363 326
363 339
363 341
363 342
363 349
363 356
363 360
363 364
363 366
363 379
363 382
363 385
363 389
363 396
363 407
363 410
363 412
363 415
363 418
363 437
363 441
364 291
364 302
364 306
364 310
364 314
364 320
364 323
364 339
364 341
364 342
364 349
364 356
364 363
364 366
364 371
364 382
364 385
364 389
364 396
364 399
364 407
364 412
364 415
364 418
364 426
364 441
365 298
365 309
365 311
365 312
365 325
365 328
365 332
365 340
365 343
365 351
365 353
365 362
365 369
365 377
365 381
365 386
365 393
365 394
365 403
365 411
365 417
365 420
365 424
365 445
366 288
366 302
366 306
366 313
366 320
366 322
366 326
366 335
366 339
366 341
366 342
366 360
366 361
366 363
366 364
366 379
366 385
366 389
366 392
366 396
366 409
366 410
366 415
366 418
366 421
366 437
366 443
367 309
367 311
367 316
367 318
367 327
367 340
367 343
367 345
367 346
367 369
367 370
367 377
367 381
367 387
367 398
367 401
367 411
367 413
367 434
367 436
367 440
368 300
368 304
368 307
368 324
368 329
368 333
368 336
368 338
368 352
368 357
368 371
368 376
368 380
368 390
368 397
368 400
368 406
368 414
368 416
368 446
369 298
369 309
369 311
369 312
369 316
369 328
369 332
369 340
369 343
369 351
369 353
369 362
369 365
369 367
369 377
369 381
369 386
369 394
369 401
369 403
369 411
369 413
369 417
369 420
369 424
370 295
370 305
370 318
370 327
370 345
370 346
370 367
370 377
370 387
370 398
370 401
370 427
370 434
370 435
370 436
371 296
371 307
371 310
371 314
371 323
371 324
371 336
371 342
371 349
371 352
371 356
371 364
371 368
371 376
371 382
371 385
371 390
371 399
371 400
371 406
371 407
371 412
371 416
371 426
371 432
372 292
372 308
372 315
372 325
372 329
372 330
372 344
372 348
372 350
372 353
372 357
372 373
372 374
372 375
372 386
372 393
372 397
372 404
372 408
372 422
372 423
372 447
372 448
373 308
373 315
373 329
373 330
373 344
373 348
373 350
373 357
373 372
373 374
373 375
373 393
373 397
373 404
373 408
373 422
373 423
373 444
373 448
374 315
374 325
374 328
374 330
374 344
374 348
374 350
374 351
374 353
374 362
374 372
374 373
374 375
374 386
374 393
374 403
374 404
374 408
374 422
374 423
374 431
374 447
375 303
375 308
375 329
375 330
375 338
375 344
375 348
375 350
375 357
375 372
375 373
375 374
375 380
375 397
375 404
375 408
375 422
375 423
375 444
375 448
376 296
376 307
376 314
376 323
376 324
376 333
376 336
376 349
376 352
376 356
376 368
376 371
376 380
376 382
376 385
376 390
376 399
376 400
376 406
376 407
376 416
376 426
376 432
376 454
377 309
377 311
377 316
377 318
377 332
377 340
377 343
377 346
377 365
377 367
377 369
377 370
377 381
377 387
377 394
377 398
377 401
377 411
377 413
377 424
377 434
377 436
377 440
377 455
378 317
378 331
378 337
378 347
378 358
378 383
378 388
378 402
378 405
378 425
378 430
378 433
378 451
379 313
379 322
379 326
379 334
379 335
379 339
379 341
379 359
379 360
379 361
379 363
379 366
379 389
379 392
379 395
379 396
379 409
379 410
379 418
379 421
379 437
379 438
379 439
379 443
379 449
380 304
380 329
380 333
380 336
380 338
380 348
380 357
380 368
380 375
380 376
380 390
380 397
380 400
380 414
380 416
380 444
380 446
380 453
381 309
381 311
381 316
381 332
381 340
381 343
381 346
381 351
381 362
381 365
381 367
381 369
381 377
381 387
381 394
381 398
381 401
381 411
381 413
381 417
381 420
381 424
381 434
381 440
381 455
382 310
382 314
382 320
382 323
382 339
382 342
382 349
382 352
382 356
382 363
382 364
382 371
382 376
382 385
382 389
382 399
382 406
382 407
382 412
382 415
382 426
382 432
382 441
382 450
383 317
383 331
383 337
383 347
383 354
383 358
383 378
383 384
383 388
383 402
383 405
383 419
383 425
383 430
383 433
383 451
384 317
384 319
384 321
384 331
384 334
384 347
384 354
384 355
384 358
384 359
384 383
384 388
384 391
384 395
384 402
384 405
384 419
384 428
384 429
384 430
384 433
384 442
384 452
385 310
385 314
385 320
385 339
385 342
385 349
385 356
385 363
385 364
385 366
385 371
385 376
385 382
385 389
385 396
385 399
385 406
385 407
385 412
385 415
385 418
385 426
385 432
385 437
385 441
385 450
386 312
386 315
386 325
386 328
386 332
386 344
386 350
386 351
386 353
386 362
386 365
386 369
386 372
386 374
386 393
386 394
386 403
386 404
386 417
386 420
386 423
386 431
386 445
386 447
386 462
387 316
387 318
387 327
387 343
387 345
387 346
387 367
387 370
387 377
387 381
387 398
387 401
387 411
387 413
387 427
387 434
387 435
387 436
387 440
387 457
387 458
388 317
388 319
388 331
388 337
388 347
388 354
388 355
388 358
388 378
388 383
388 384
388 391
388 395
388 402
388 405
388 419
388 425
388 428
388 429
388 430
388 433
388 442
388 451
388 452
388 467
389 320
389 339
389 341
389 342
389 349
389 360
389 363
389 364
389 366
389 379
389 382
389 385
389 396
389 407
389 410
389 412
389 415
389 418
389 426
389 437
389 441
389 443
389 450
389 463
389 468
390 324
390 333
390 336
390 338
390 352
390 357
390 368
390 371
390 376
390 380
390 397
390 399
390 400
390 406
390 414
390 416
390 432
390 446
390 453
390 454
391 319
391 321
391 334
391 335
391 354
391 355
391 358
391 359
391 361
391 384
391 388
391 392
391 395
391 402
391 409
391 419
391 428
391 429
391 430
391 438
391 439
391 442
391 452
391 459
392 322
392 326
392 334
392 335
392 341
392 355
392 359
392 360
392 361
392 366
392 379
392 391
392 395
392 396
392 409
392 410
392 418
392 421
392 429
392 437
392 438
392 439
392 443
392 449
392 459
392 460
393 315
393 325
393 328
393 344
393 350
393 351
393 353
393 362
393 365
393 372
393 373
393 374
393 386
393 394
393 403
393 404
393 408
393 417
393 420
393 422
393 423
393 431
393 445
393 447
393 462
393 474
394 328
394 332
394 340
394 343
394 351
394 353
394 362
394 365
394 369
394 377
394 381
394 386
394 393
394 403
394 411
394 413
394 417
394 420
394 424
394 431
394 440
394 445
394 455
394 470
394 476
395 321
395 334
395 335
395 354
395 355
395 359
395 361
395 379
395 384
395 388
395 391
395 392
395 409
395 410
395 419
395 421
395 428
395 429
395 438
395 439
395 442
395 449
395 452
395 459
395 460
396 313
396 326
396 339
396 341
396 360
396 361
396 363
396 364
396 366
396 379
396 385
396 389
396 392
396 409
396 410
396 412
396 415
396 418
396 421
396 437
396 438
396 441
396 443
396 449
396 463
396 478
397 329
397 338
397 348
397 350
397 357
397 368
397 372
397 373
397 375
397 380
397 390
397 408
397 414
397 416
397 422
397 444
397 448
397 453
397 456
397 461
398 318
398 327
398 345
398 346
398 367
398 370
398 377
398 381
398 387
398 401
398 413
398 427
398 434
398 435
398 436
398 440
398 457
398 458
399 323
399 342
399 349
399 352
399 356
399 364
399 371
399 376
399 382
399 385
399 390
399 400
399 406
399 407
399 412
399 416
399 426
399 432
399 450
399 454
399 464
399 469
400 324
400 333
400 336
400 338
400 352
400 356
400 368
400 371
400 376
400 380
400 390
400 399
400 406
400 407
400 414
400 416
400 432
400 446
400 453
400 454
400 464
401 343
401 346
401 367
401 369
401 370
401 377
401 381
401 387
401 398
401 411
401 413
401 424
401 427
401 434
401 435
401 436
401 440
401 455
401 457
401 458
401 466
402 331
402 337
402 347
402 354
402 358
402 378
402 383
402 384
402 388
402 391
402 405
402 419
402 425
402 428
402 430
402 433
402 442
402 451
402 452
402 467
402 471
402 475
403 328
403 332
403 351
403 353
403 362
403 365
403 369
403 374
403 386
403 393
403 394
403 404
403 411
403 417
403 420
403 423
403 424
403 431
403 445
403 447
403 462
403 470
403 476
404 344
404 350
404 353
404 362
404 372
404 373
404 374
404 375
404 386
404 393
404 403
404 408
404 417
404 422
404 423
404 431
404 445
404 447
404 448
404 462
404 465
404 474
405 331
405 337
405 347
405 354
405 358
405 378
405 383
405 384
405 388
405 402
405 419
405 425
405 428
405 430
405 433
405 442
405 451
405 467
405 471
405 475
406 336
406 352
406 356
406 368
406 371
406 376
406 382
406 385
406 390
406 399
406 400
406 407
406 412
406 414
406 416
406 426
406 432
406 446
406 454
406 464
406 469
406 480
407 342
407 349
407 352
407 356
407 363
407 364
407 371
407 376
407 382
407 385
407 389
407 399
407 400
407 406
407 412
407 415
407 426
407 432
407 441
407 450
407 464
407 468
407 469
407 472
408 330
408 348
408 350
408 357
408 372
408 373
408 374
408 375
408 393
408 397
408 404
408 422
408 423
408 444
408 447
408 448
408 456
408 461
408 465
408 484
409 334
409 335
409 355
409 359
409 360
409 361
409 366
409 379
409 391
409 392
409 395
409 396
409 410
409 418
409 421
409 428
409 429
409 437
409 438
409 439
409 443
409 449
409 452
409 459
409 460
409 479
410 341
410 359
410 360
410 361
410 363
410 366
410 379
410 389
410 392
410 395
410 396
410 409
410 415
410 418
410 421
410 437
410 438
410 439
410 441
410 443
410 449
410 460
410 463
410 478
410 479
411 332
411 340
411 343
411 351
411 362
411 365
411 367
411 369
411 377
411 381
411 387
411 394
411 401
411 403
411 413
411 417
411 420
411 424
411 434
411 440
411 445
411 455
411 457
411 466
411 470
411 473
411 476
411 485
412 342
412 349
412 356
412 363
412 364
412 371
412 382
412 385
412 389
412 396
412 399
412 406
412 407
412 415
412 418
412 426
412 432
412 437
412 441
412 450
412 463
412 468
412 469
412 472
413 343
413 367
413 369
413 377
413 381
413 387
413 394
413 398
413 401
413 411
413 420
413 424
413 434
413 435
413 436
413 440
413 455
413 457
413 466
413 473
413 485
413 490
414 333
414 338
414 357
414 368
414 380
414 390
414 397
414 400
414 406
414 416
414 444
414 446
414 453
414 454
414 456
414 461
414 481
414 482
415 339
415 342
415 363
415 364
415 366
415 382
415 385
415 389
415 396
415 407
415 410
415 412
415 418
415 426
415 437
415 441
415 443
415 450
415 463
415 468
415 469
415 472
415 478
415 491
415 492
416 336
416 368
416 371
416 376
416 380
416 390
416 397
416 399
416 400
416 406
416 414
416 432
416 446
416 453
416 454
416 464
416 480
416 481
416 482
416 494
416 498
417 351
417 353
417 362
417 365
417 369
417 381
417 386
417 393
417 394
417 403
417 404
417 411
417 420
417 424
417 431
417 445
417 447
417 455
417 462
417 470
417 473
417 476
417 500
418 360
418 363
418 364
418 366
418 379
418 385
418 389
418 392
418 396
418 409
418 410
418 412
418 415
418 421
418 426
418 437
418 438
418 441
418 443
418 449
418 450
418 463
418 468
418 472
418 478
418 479
418 491
418 492
419 354
419 355
419 358
419 383
419 384
419 388
419 391
419 395
419 402
419 405
419 425
419 428
419 429
419 430
419 433
419 439
419 442
419 451
419 452
419 459
419 467
419 471
419 475
419 477
419 483
419 488
419 504
420 351
420 362
420 365
420 369
420 381
420 386
420 393
420 394
420 403
420 411
420 413
420 417
420 424
420 431
420 440
420 445
420 455
420 462
420 466
420 470
420 473
420 476
420 485
420 500
421 359
421 360
421 361
421 366
421 379
421 392
421 395
421 396
421 409
421 410
421 418
421 429
421 437
421 438
421 439
421 443
421 449
421 459
421 460
421 463
421 478
421 479
421 502
422 350
422 372
422 373
422 374
422 375
422 393
422 397
422 404
422 408
422 423
422 431
422 444
422 447
422 448
422 456
422 461
422 465
422 474
422 484
422 495
423 350
423 372
423 373
423 374
423 375
423 386
423 393
423 403
423 404
423 408
423 422
423 431
423 444
423 447
423 448
423 456
423 462
423 465
423 474
423 484
423 495
424 362
424 365
424 369
424 377
424 381
424 394
424 401
424 403
424 411
424 413
424 417
424 420
424 431
424 434
424 440
424 445
424 455
424 457
424 466
424 470
424 473
424 476
424 485
425 378
425 383
425 388
425 402
425 405
425 419
425 430
425 433
425 442
425 451
425 467
425 471
425 475
425 493
425 505
426 356
426 364
426 371
426 376
426 382
426 385
426 389
426 399
426 406
426 407
426 412
426 415
426 418
426 432
426 437
426 441
426 450
426 463
426 464
426 468
426 469
426 472
426 492
426 501
427 370
427 387
427 398
427 401
427 434
427 435
427 436
427 457
427 458
427 487
427 489
427 490
428 354
428 355
428 358
428 359
428 384
428 388
428 391
428 395
428 402
428 405
428 409
428 419
428 429
428 430
428 433
428 438
428 439
428 442
428 452
428 459
428 467
428 475
428 477
428 483
428 488
428 499
428 504
429 355
429 359
429 361
429 384
429 388
429 391
429 392
429 395
429 409
429 419
429 421
429 428
429 430
429 438
429 439
429 442
429 449
429 452
429 459
429 460
429 467
429 477
429 483
429 488
429 497
429 499
430 354
430 358
430 378
430 383
430 384
430 388
430 391
430 402
430 405
430 419
430 425
430 428
430 429
430 433
430 442
430 451
430 452
430 467
430 471
430 475
430 477
430 483
430 488
430 493
430 504
431 353
431 362
431 374
431 386
431 393
431 394
431 403
431 404
431 417
431 420
431 422
431 423
431 424
431 445
431 447
431 462
431 465
431 470
431 474
431 476
431 500
431 509
432 356
432 371
432 376
432 382
432 385
432 390
432 399
432 400
432 406
432 407
432 412
432 416
432 426
432 446
432 450
432 454
432 464
432 469
432 472
432 480
432 498
432 501
432 503
433 358
433 378
433 383
433 384
433 388
433 402
433 405
433 419
433 425
433 428
433 430
433 442
433 451
433 452
433 467
433 471
433 475
433 483
433 493
433 504
433 505
434 367
434 370
434 377
434 381
434 387
434 398
434 401
434 411
434 413
434 424
434 427
434 435
434 436
434 440
434 455
434 457
434 458
434 466
434 473
434 485
434 489
434 490
434 496
435 370
435 387
435 398
435 401
435 413
435 427
435 434
435 436
435 440
435 457
435 458
435 466
435 487
435 489
435 490
436 367
436 370
436 377
436 387
436 398
436 401
436 413
436 427
436 434
436 435
436 440
436 455
436 457
436 458
436 466
436 487
436 489
436 490
436 496
437 363
437 366
437 379
437 385
437 389
437 392
437 396
437 409
437 410
437 412
437 415
437 418
437 421
437 426
437 438
437 441
437 443
437 449
437 450
437 460
437 463
437 468
437 472
437 478
437 479
437 491
437 492
437 513
438 361
438 379
438 391
438 392
438 395
438 396
438 409
438 410
438 418
438 421
438 428
438 429
438 437
438 439
438 443
438 449
438 452
438 459
438 460
438 463
438 477
438 478
438 479
438 497
438 499
438 502
439 359
439 361
439 379
439 391
439 392
439 395
439 409
439 410
439 419
439 421
439 428
439 429
439 438
439 442
439 443
439 449
439 452
439 459
439 460
439 477
439 478
439 479
439 488
439 497
439 499
439 502
440 367
440 377
440 381
440 387
440 394
440 398
440 401
440 411
440 413
440 420
440 424
440 434
440 435
440 436
440 455
440 457
440 458
440 466
440 473
440 476
440 485
440 489
440 490
440 496
440 507
441 363
441 364
441 382
441 385
441 389
441 396
441 407
441 410
441 412
441 415
441 418
441 426
441 437
441 443
441 450
441 463
441 468
441 469
441 472
441 478
441 491
441 492
441 501
441 514
442 384
442 388
442 391
442 395
442 402
442 405
442 419
442 425
442 428
442 429
442 430
442 433
442 439
442 451
442 452
442 459
442 467
442 471
442 475
442 477
442 483
442 488
442 493
442 499
442 504
442 510
442 512
443 360
443 366
443 379
443 389
443 392
443 396
443 409
443 410
443 415
443 418
443 421
443 437
443 438
443 439
443 441
443 449
443 459
443 460
443 463
443 468
443 478
443 479
443 491
443 492
443 497
443 502
443 513
444 373
444 375
444 380
444 397
444 408
444 414
444 422
444 423
444 446
444 448
444 453
444 456
444 461
444 465
444 481
444 482
444 484
444 486
444 508
444 511
444 516
444 519
445 362
445 365
445 386
445 393
445 394
445 403
445 404
445 411
445 417
445 420
445 424
445 431
445 447
445 455
445 462
445 470
445 473
445 474
445 476
445 485
445 500
445 506
445 509
446 368
446 380
446 390
446 400
446 406
446 414
446 416
446 432
446 444
446 453
446 454
446 461
446 464
446 480
446 481
446 482
446 494
446 498
446 508
446 521
447 372
447 374
447 386
447 393
447 403
447 404
447 408
447 417
447 422
447 423
447 431
447 445
447 448
447 462
447 465
447 470
447 474
447 484
447 495
447 509
447 515
447 520
448 372
448 373
448 375
448 397
448 404
448 408
448 422
448 423
448 444
448 447
448 453
448 456
448 461
448 465
448 474
448 482
448 484
448 486
448 495
448 511
448 516
448 519
449 379
449 392
449 395
449 396
449 409
449 410
449 418
449 421
449 429
449 437
449 438
449 439
449 443
449 459
449 460
449 463
449 477
449 478
449 479
449 491
449 497
449 502
449 513
449 525
450 382
450 385
450 389
450 399
450 407
450 412
450 415
450 418
450 426
450 432
450 437
450 441
450 463
450 464
450 468
450 469
450 472
450 491
450 492
450 501
450 514
451 378
451 383
451 388
451 402
451 405
451 419
451 425
451 430
451 433
451 442
451 467
451 471
451 475
451 483
451 493
451 504
451 505
451 512
451 518
452 384
452 388
452 391
452 395
452 402
452 409
452 419
452 428
452 429
452 430
452 433
452 438
452 439
452 442
452 459
452 460
452 467
452 475
452 477
452 483
452 488
452 497
452 499
452 504
452 510
452 523
453 380
453 390
453 397
453 400
453 414
453 416
453 444
453 446
453 448
453 454
453 456
453 461
453 481
453 482
453 486
453 494
453 498
453 508
453 516
453 521
454 376
454 390
454 399
454 400
454 406
454 414
454 416
454 432
454 446
454 453
454 464
454 469
454 480
454 481
454 482
454 494
454 498
454 503
454 517
454 521
455 377
455 381
455 394
455 401
455 411
455 413
455 417
455 420
455 424
455 434
455 436
455 440
455 445
455 457
455 466
455 470
455 473
455 476
455 485
455 490
455 496
455 500
455 506
455 507
455 529
456 397
456 408
456 414
456 422
456 423
456 444
456 448
456 453
456 461
456 465
456 481
456 482
456 484
456 486
456 495
456 508
456 511
456 516
456 519
457 387
457 398
457 401
457 411
457 413
457 424
457 427
457 434
457 435
457 436
457 440
457 455
457 458
457 466
457 473
457 485
457 487
457 489
457 490
457 496
457 522
457 529
457 532
457 533
458 387
458 398
458 401
458 427
458 434
458 435
458 436
458 440
458 457
458 466
458 487
458 489
458 490
458 496
458 522
458 531
458 532
459 391
459 392
459 395
459 409
459 419
459 421
459 428
459 429
459 438
459 439
459 442
459 443
459 449
459 452
459 460
459 467
459 477
459 478
459 479
459 483
459 488
459 497
459 499
459 502
459 510
459 523
459 524
459 525
460 392
460 395
460 409
460 410
460 421
460 429
460 437
460 438
460 439
460 443
460 449
460 452
460 459
460 463
460 477
460 478
460 479
460 488
460 491
460 497
460 499
460 502
460 513
460 523
460 524
460 525
461 397
461 408
461 414
461 422
461 444
461 446
461 448
461 453
461 456
461 465
461 481
461 482
461 484
461 486
461 494
461 508
461 511
461 516
461 519
461 521
462 386
462 393
462 403
462 404
462 417
462 420
462 423
462 431
462 445
462 447
462 465
462 470
462 473
462 474
462 476
462 495
462 500
462 506
462 509
462 515
462 520
462 535
463 389
463 396
463 410
463 412
463 415
463 418
463 421
463 426
463 437
463 438
463 441
463 443
463 449
463 450
463 460
463 468
463 469
463 472
463 478
463 479
463 491
463 492
463 502
463 513
463 514
463 526
463 527
463 534
464 399
464 400
464 406
464 407
464 416
464 426
464 432
464 446
464 450
464 454
464 469
464 472
464 480
464 481
464 494
464 498
464 501
464 503
464 517
464 528
464 530
465 404
465 408
465 422
465 423
465 431
465 444
465 447
465 448
465 456
465 461
465 462
465 474
465 484
465 486
465 495
465 511
465 515
465 516
465 519
465 520
465 538
466 401
466 411
466 413
466 420
466 424
466 434
466 435
466 436
466 440
466 455
466 457
466 458
466 473
466 476
466 485
466 489
466 490
466 496
466 506
466 507
466 522
466 529
466 533
467 388
467 402
467 405
467 419
467 425
467 428
467 429
467 430
467 433
467 442
467 451
467 452
467 459
467 471
467 475
467 477
467 483
467 488
467 493
467 499
467 504
467 505
467 510
467 512
467 518
467 536
467 544
468 389
468 407
468 412
468 415
468 418
468 426
468 437
468 441
468 443
468 450
468 463
468 469
468 472
468 478
468 491
468 492
468 501
468 513
468 514
468 526
468 527
468 528
468 534
468 539
469 399
469 406
469 407
469 412
469 415
469 426
469 432
469 441
469 450
469 454
469 463
469 464
469 468
469 472
469 480
469 491
469 492
469 501
469 503
469 514
469 517
469 528
469 530
469 539
470 394
470 403
470 411
470 417
470 420
470 424
470 431
470 445
470 447
470 455
470 462
470 473
470 474
470 476
470 485
470 500
470 506
470 507
470 509
470 515
470 535
471 402
471 405
471 419
471 425
471 430
471 433
471 442
471 451
471 467
471 475
471 483
471 493
471 504
471 505
471 512
471 518
471 541
471 545
472 407
472 412
472 415
472 418
472 426
472 432
472 437
472 441
472 450
472 463
472 464
472 468
472 469
472 491
472 492
472 501
472 503
472 514
472 527
472 528
472 530
472 534
472 539
473 411
473 413
473 417
473 420
473 424
473 434
473 440
473 445
473 455
473 457
473 462
473 466
473 470
473 476
473 485
473 490
473 496
473 500
473 506
473 507
473 509
473 529
473 543
473 546
474 393
474 404
474 422
474 423
474 431
474 445
474 447
474 448
474 462
474 465
474 470
474 484
474 495
474 500
474 509
474 511
474 515
474 520
474 535
474 550
475 402
475 405
475 419
475 425
475 428
475 430
475 433
475 442
475 451
475 452
475 467
475 471
475 477
475 483
475 488
475 493
475 504
475 505
475 510
475 512
475 518
475 541
475 544
475 545
476 394
476 403
476 411
476 417
476 420
476 424
476 431
476 440
476 445
476 455
476 462
476 466
476 470
476 473
476 485
476 496
476 500
476 506
476 507
476 509
476 535
476 543
476 546
477 419
477 428
477 429
477 430
477 438
477 439
477 442
477 449
477 452
477 459
477 460
477 467
477 475
477 479
477 483
477 488
477 497
477 499
477 502
477 504
477 510
477 512
477 523
477 524
477 536
477 547
477 551
478 396
478 410
478 415
478 418
478 421
478 437
478 438
478 439
478 441
478 443
478 449
478 459
478 460
478 463
478 468
478 479
478 491
478 492
478 497
478 502
478 513
478 524
478 525
478 526
478 527
478 542
478 549
479 409
479 410
479 418
479 421
479 437
479 438
479 439
479 443
479 449
479 459
479 460
479 463
479 477
479 478
479 491
479 492
479 497
479 499
479 502
479 513
479 524
479 525
479 526
479 527
479 542
479 548
479 549
480 406
480 416
480 432
480 446
480 454
480 464
480 469
480 481
480 494
480 498
480 501
480 503
480 517
480 521
480 528
480 530
480 540
480 559
481 414
481 416
481 444
481 446
481 453
481 454
481 456
481 461
481 464
481 480
481 482
481 486
481 494
481 498
481 508
481 516
481 517
481 521
481 537
481 540
482 414
482 416
482 444
482 446
482 448
482 453
482 454
482 456
482 461
482 481
482 484
482 486
482 494
482 498
482 508
482 516
482 519
482 521
482 537
482 540
483 419
483 428
483 429
483 430
483 433
483 442
483 451
483 452
483 459
483 467
483 471
483 475
483 477
483 488
483 493
483 497
483 499
483 504
483 510
483 512
483 518
483 523
483 536
483 544
483 545
483 547
484 408
484 422
484 423
484 444
484 447
484 448
484 456
484 461
484 465
484 474
484 482
484 486
484 495
484 508
484 511
484 515
484 516
484 519
484 520
484 538
484 555
484 556
484 562
485 411
485 413
485 420
485 424
485 434
485 440
485 445
485 455
485 457
485 466
485 470
485 473
485 476
485 490
485 496
485 500
485 506
485 507
485 509
485 529
485 533
485 543
485 546
485 553
486 444
486 448
486 453
486 456
486 461
486 465
486 481
486 482
486 484
486 495
486 508
486 511
486 516
486 519
486 521
486 537
486 538
486 556
487 427
487 435
487 436
487 457
487 458
487 489
487 490
487 522
487 531
487 532
487 533
487 560
488 419
488 428
488 429
488 430
488 439
488 442
488 452
488 459
488 460
488 467
488 475
488 477
488 483
488 493
488 497
488 499
488 504
488 510
488 512
488 523
488 524
488 536
488 544
488 547
488 551
489 427
489 434
489 435
489 436
489 440
489 457
489 458
489 466
489 487
489 490
489 496
489 522
489 529
489 531
489 532
489 533
489 560
489 564
490 413
490 427
490 434
490 435
490 436
490 440
490 455
490 457
490 458
490 466
490 473
490 485
490 487
490 489
490 496
490 507
490 522
490 529
490 531
490 532
490 533
490 553
491 415
491 418
491 437
491 441
491 443
491 449
491 450
491 460
491 463
491 468
491 469
491 472
491 478
491 479
491 492
491 501
491 502
491 513
491 514
491 525
491 526
491 527
491 534
491 539
491 542
491 549
491 554
491 558
492 415
492 418
492 426
492 437
492 441
492 443
492 450
492 463
492 468
492 469
492 472
492 478
492 479
492 491
492 501
492 513
492 514
492 526
492 527
492 528
492 534
492 539
492 542
492 554
492 558
492 566
493 425
493 430
493 433
493 442
493 451
493 467
493 471
493 475
493 483
493 488
493 504
493 505
493 512
493 518
493 541
493 544
493 545
493 568
494 416
494 446
494 453
494 454
494 461
494 464
494 480
494 481
494 482
494 498
494 503
494 508
494 517
494 521
494 537
494 540
494 559
494 563
495 422
495 423
495 447
495 448
495 456
495 462
495 465
495 474
495 484
495 486
495 509
495 511
495 515
495 516
495 519
495 520
495 538
495 550
495 555
495 562
496 434
496 436
496 440
496 455
496 457
496 458
496 466
496 473
496 476
496 485
496 489
496 490
496 506
496 507
496 522
496 529
496 531
496 532
496 533
496 543
496 546
496 553
496 571
497 429
497 438
497 439
497 443
497 449
497 452
497 459
497 460
497 477
497 478
497 479
497 483
497 488
497 499
497 502
497 510
497 513
497 523
497 524
497 525
497 536
497 547
497 548
497 549
497 551
498 416
498 432
498 446
498 453
498 454
498 464
498 480
498 481
498 482
498 494
498 503
498 508
498 517
498 521
498 530
498 537
498 540
498 559
498 561
498 563
499 428
499 429
499 438
499 439
499 442
499 452
499 459
499 460
499 467
499 477
499 479
499 483
499 488
499 497
499 502
499 504
499 510
499 512
499 523
499 524
499 525
499 536
499 544
499 547
499 548
499 551
499 565
500 417
500 420
500 431
500 445
500 455
500 462
500 470
500 473
500 474
500 476
500 485
500 506
500 507
500 509
500 515
500 535
500 543
500 546
500 550
500 557
500 569
500 576
501 426
501 432
501 441
501 450
501 464
501 468
501 469
501 472
501 480
501 491
501 492
501 503
501 514
501 517
501 527
501 528
501 530
501 534
501 539
501 552
501 561
501 566
501 567
502 421
502 438
502 439
502 443
502 449
502 459
502 460
502 463
502 477
502 478
502 479
502 491
502 497
502 499
502 510
502 513
502 523
502 524
502 525
502 526
502 527
502 542
502 548
502 549
502 551
502 574
503 432
503 454
503 464
503 469
503 472
503 480
503 494
503 498
503 501
503 514
503 517
503 528
503 530
503 539
503 540
503 552
503 559
503 561
504 419
504 428
504 430
504 433
504 442
504 451
504 452
504 467
504 471
504 475
504 477
504 483
504 488
504 493
504 499
504 505
504 510
504 512
504 518
504 523
504 536
504 541
504 544
504 545
504 547
504 565
505 425
505 433
505 451
505 467
505 471
505 475
505 493
505 504
505 512
505 518
505 541
505 544
505 545
505 568
506 445
506 455
506 462
506 466
506 470
506 473
506 476
506 485
506 496
506 500
506 507
506 509
506 515
506 529
506 535
506 543
506 546
506 553
506 569
506 570
506 576
507 440
507 455
507 466
507 470
507 473
507 476
507 485
507 490
507 496
507 500
507 506
507 509
507 529
507 533
507 535
507 543
507 546
507 553
507 569
507 570
508 444
508 446
508 453
508 456
508 461
508 481
508 482
508 484
508 486
508 494
508 498
508 511
508 516
508 519
508 521
508 537
508 540
508 556
508 563
508 573
508 581
509 431
509 445
509 447
509 462
509 470
509 473
509 474
509 476
509 485
509 495
509 500
509 506
509 507
509 515
509 520
509 535
509 543
509 550
509 557
509 569
509 576
509 578
510 442
510 452
510 459
510 467
510 475
510 477
510 483
510 488
510 497
510 499
510 502
510 504
510 512
510 518
510 523
510 524
510 536
510 544
510 545
510 547
510 548
510 551
510 565
511 444
511 448
511 456
511 461
511 465
511 474
511 484
511 486
511 495
511 508
511 515
511 516
511 519
511 520
511 538
511 550
511 555
511 556
511 562
511 575
511 586
512 442
512 451
512 467
512 471
512 475
512 477
512 483
512 488
512 493
512 499
512 504
512 505
512 510
512 518
512 523
512 536
512 541
512 544
512 545
512 547
512 565
512 568
513 437
513 443
513 449
513 460
513 463
513 468
513 478
513 479
513 491
513 492
513 497
513 502
513 524
513 525
513 526
513 527
513 534
513 542
513 548
513 549
513 554
513 558
513 574
513 577
513 583
514 441
514 450
514 463
514 468
514 469
514 472
514 491
514 492
514 501
514 503
514 526
514 527
514 528
514 530
514 534
514 539
514 542
514 552
514 554
514 558
514 566
514 567
514 577
515 447
515 462
515 465
515 470
515 474
515 484
515 495
515 500
515 506
515 509
515 511
515 520
515 535
515 538
515 550
515 555
515 557
515 576
515 578
516 444
516 448
516 453
516 456
516 461
516 465
516 481
516 482
516 484
516 486
516 495
516 508
516 511
516 519
516 520
516 521
516 537
516 538
516 555
516 556
516 562
516 573
516 575
516 581
516 585
517 454
517 464
517 469
517 480
517 481
517 494
517 498
517 501
517 503
517 521
517 528
517 530
517 537
517 540
517 552
517 559
517 561
517 563
517 582
517 584
518 451
518 467
518 471
518 475
518 483
518 493
518 504
518 505
518 510
518 512
518 536
518 541
518 544
518 545
518 568
519 444
519 448
519 456
519 461
519 465
519 482
519 484
519 486
519 495
519 508
519 511
519 516
519 520
519 537
519 538
519 555
519 556
519 562
519 575
519 581
519 585
519 586
520 447
520 462
520 465
520 474
520 484
520 495
520 509
520 511
520 515
520 516
520 519
520 535
520 538
520 550
520 555
520 556
520 557
520 562
520 575
520 578
520 586
521 446
521 453
521 454
521 461
521 480
521 481
521 482
521 486
521 494
521 498
521 508
521 516
521 517
521 537
521 540
521 559
521 563
521 573
521 581
521 582
521 584
522 457
522 458
522 466
522 487
522 489
522 490
522 496
522 529
522 531
522 532
522 533
522 553
522 560
522 564
522 571
522 572
522 579
523 452
523 459
523 460
523 477
523 483
523 488
523 497
523 499
523 502
523 504
523 510
523 512
523 524
523 525
523 536
523 544
523 547
523 548
523 549
523 551
523 565
523 580
524 459
524 460
524 477
524 478
524 479
524 488
524 497
524 499
524 502
524 510
524 513
524 523
524 525
524 536
524 542
524 547
524 548
524 549
524 551
524 565
524 574
524 580
525 449
525 459
525 460
525 478
525 479
525 491
525 497
525 499
525 502
525 513
525 523
525 524
525 526
525 527
525 542
525 548
525 549
525 551
525 558
525 574
525 580
526 463
526 468
526 478
526 479
526 491
526 492
526 502
526 513
526 514
526 525
526 527
526 534
526 539
526 542
526 548
526 549
526 554
526 558
526 566
526 574
526 577
526 583
527 463
527 468
527 472
527 478
527 479
527 491
527 492
527 501
527 502
527 513
527 514
527 525
527 526
527 528
527 534
527 539
527 542
527 549
527 552
527 554
527 558
527 566
527 567
527 574
527 577
527 583
528 464
528 468
528 469
528 472
528 480
528 492
528 501
528 503
528 514
528 517
528 527
528 530
528 534
528 539
528 552
528 554
528 559
528 561
528 566
528 567
528 577
529 455
529 457
529 466
529 473
529 485
529 489
529 490
529 496
529 506
529 507
529 522
529 531
529 532
529 533
529 543
529 546
529 553
529 564
529 570
529 571
529 572
529 579
530 464
530 469
530 472
530 480
530 498
530 501
530 503
530 514
530 517
530 528
530 534
530 539
530 540
530 552
530 559
530 561
530 566
530 567
530 584
531 458
531 487
531 489
531 490
531 496
531 522
531 529
531 532
531 533
531 553
531 560
531 564
531 571
531 572
532 457
532 458
532 487
532 489
532 490
532 496
532 522
532 529
532 531
532 533
532 553
532 560
532 564
532 571
532 572
532 579
533 457
533 466
533 485
533 487
533 489
533 490
533 496
533 507
533 522
533 529
533 531
533 532
533 546
533 553
533 560
533 564
533 570
533 571
533 572
533 579
534 463
534 468
534 472
534 491
534 492
534 501
534 513
534 514
534 526
534 527
534 528
534 530
534 539
534 542
534 552
534 554
534 558
534 566
534 567
534 577
534 583
535 462
535 470
535 474
535 476
535 500
535 506
535 507
535 509
535 515
535 520
535 543
535 546
535 550
535 555
535 557
535 569
535 570
535 576
535 578
536 467
536 477
536 483
536 488
536 497
536 499
536 504
536 510
536 512
536 518
536 523
536 524
536 541
536 544
536 545
536 547
536 548
536 551
536 565
536 580
537 481
537 482
537 486
537 494
537 498
537 508
537 516
537 517
537 519
537 521
537 540
537 556
537 559
537 563
537 573
537 575
537 581
537 582
537 584
537 585
538 465
538 484
538 486
538 495
538 511
538 515
538 516
538 519
538 520
538 550
538 555
538 556
538 557
538 562
538 575
538 578
538 585
538 586
539 468
539 469
539 472
539 491
539 492
539 501
539 503
539 514
539 526
539 527
539 528
539 530
539 534
539 552
539 554
539 558
539 561
539 566
539 567
539 577
539 583
540 480
540 481
540 482
540 494
540 498
540 503
540 508
540 517
540 521
540 530
540 537
540 559
540 561
540 563
540 573
540 581
540 582
540 584
541 471
541 475
541 493
541 504
541 505
541 512
541 518
541 536
541 544
541 545
541 568
542 478
542 479
542 491
542 492
542 502
542 513
542 514
542 524
542 525
542 526
542 527
542 534
542 548
542 549
542 554
542 558
542 566
542 574
542 577
542 580
542 583
543 473
543 476
543 485
543 496
543 500
543 506
543 507
543 509
543 529
543 535
543 546
543 553
543 557
543 569
543 570
543 576
543 579
544 467
544 475
544 483
544 488
544 493
544 499
544 504
544 505
544 510
544 512
544 518
544 523
544 536
544 541
544 545
544 547
544 551
544 565
544 568
545 471
545 475
545 483
545 493
545 504
545 505
545 510
545 512
545 518
545 536
545 541
545 544
545 547
545 565
545 568
546 473
546 476
546 485
546 496
546 500
546 506
546 507
546 529
546 533
546 535
546 543
546 553
546 569
546 570
546 571
546 576
546 579
547 477
547 483
547 488
547 497
547 499
547 504
547 510
547 512
547 523
547 524
547 536
547 544
547 545
547 548
547 551
547 565
547 580
548 479
548 497
548 499
548 502
548 510
548 513
548 523
548 524
548 525
548 526
548 536
548 542
548 547
548 549
548 551
548 558
548 565
548 574
548 580
549 478
549 479
549 491
549 497
549 502
549 513
549 523
549 524
549 525
549 526
549 527
549 542
549 548
549 551
549 554
549 558
549 574
549 577
549 580
549 583
550 474
550 495
550 500
550 509
550 511
550 515
550 520
550 535
550 538
550 555
550 557
550 562
550 569
550 575
550 576
550 578
550 586
551 477
551 488
551 497
551 499
551 502
551 510
551 523
551 524
551 525
551 536
551 544
551 547
551 548
551 549
551 565
551 574
551 580
552 501
552 503
552 514
552 517
552 527
552 528
552 530
552 534
552 539
552 554
552 559
552 561
552 566
552 567
552 577
552 584
553 485
553 490
553 496
553 506
553 507
553 522
553 529
553 531
553 532
553 533
553 543
553 546
553 564
553 569
553 570
553 571
553 572
553 579
554 491
554 492
554 513
554 514
554 526
554 527
554 528
554 534
554 539
554 542
554 549
554 552
554 558
554 566
554 567
554 574
554 577
554 583
555 484
555 495
555 511
555 515
555 516
555 519
555 520
555 535
555 538
555 550
555 556
555 557
555 562
555 575
555 576
555 578
555 585
555 586
556 484
556 486
556 508
556 511
556 516
556 519
556 520
556 537
556 538
556 555
556 562
556 573
556 575
556 581
556 585
556 586
557 500
557 509
557 515
557 520
557 535
557 538
557 543
557 550
557 555
557 562
557 569
557 576
557 578
557 586
558 491
558 492
558 513
558 514
558 525
558 526
558 527
558 534
558 539
558 542
558 548
558 549
558 554
558 566
558 567
558 574
558 577
558 583
559 480
559 494
559 498
559 503
559 517
559 521
559 528
559 530
559 537
559 540
559 552
559 561
559 563
559 573
559 582
559 584
560 487
560 489
560 522
560 531
560 532
560 533
560 564
560 571
560 572
560 579
561 498
561 501
561 503
561 517
561 528
561 530
561 539
561 540
561 552
561 559
561 563
561 566
561 567
561 582
561 584
562 484
562 495
562 511
562 516
562 519
562 520
562 538
562 550
562 555
562 556
562 557
562 575
562 578
562 581
562 585
562 586
563 494
563 498
563 508
563 517
563 521
563 537
563 540
563 559
563 561
563 573
563 581
563 582
563 584
563 585
564 489
564 522
564 529
564 531
564 532
564 533
564 553
564 560
564 571
564 572
564 579
565 499
565 504
565 510
565 512
565 523
565 524
565 536
565 544
565 545
565 547
565 548
565 551
565 580
566 492
566 501
566 514
566 526
566 527
566 528
566 530
566 534
566 539
566 542
566 552
566 554
566 558
566 561
566 567
566 577
566 583
567 501
567 514
567 527
567 528
567 530
567 534
567 539
567 552
567 554
567 558
567 561
567 566
567 577
567 583
568 493
568 505
568 512
568 518
568 541
568 544
568 545
569 500
569 506
569 507
569 509
569 535
569 543
569 546
569 550
569 553
569 557
569 570
569 576
569 578
570 506
570 507
570 529
570 533
570 535
570 543
570 546
570 553
570 569
570 571
570 576
570 579
571 496
571 522
571 529
571 531
571 532
571 533
571 546
571 553
571 560
571 564
571 570
571 572
571 579
572 522
572 529
572 531
572 532
572 533
572 553
572 560
572 564
572 571
572 579
573 508
573 516
573 521
573 537
573 540
573 556
573 559
573 563
573 575
573 581
573 582
573 584
573 585
574 502
574 513
574 524
574 525
574 526
574 527
574 542
574 548
574 549
574 551
574 554
574 558
574 577
574 580
574 583
575 511
575 516
575 519
575 520
575 537
575 538
575 550
575 555
575 556
575 562
575 573
575 581
575 585
575 586
576 500
576 506
576 509
576 515
576 535
576 543
576 546
576 550
576 555
576 557
576 569
576 570
576 578
577 513
577 514
577 526
577 527
577 528
577 534
577 539
577 542
577 549
577 552
577 554
577 558
577 566
577 567
577 574
577 583
578 509
578 515
578 520
578 535
578 538
578 550
578 555
578 557
578 562
578 569
578 576
578 586
579 522
579 529
579 532
579 533
579 543
579 546
579 553
579 560
579 564
579 570
579 571
579 572
580 523
580 524
580 525
580 536
580 542
580 547
580 548
580 549
580 551
580 565
580 574
581 508
581 516
581 519
581 521
581 537
581 540
581 556
581 562
581 563
581 573
581 575
581 582
581 584
581 585
581 586
582 517
582 521
582 537
582 540
582 559
582 561
582 563
582 573
582 581
582 584
583 513
583 526
583 527
583 534
583 539
583 542
583 549
583 554
583 558
583 566
583 567
583 574
583 577
584 517
584 521
584 530
584 537
584 540
584 552
584 559
584 561
584 563
584 573
584 581
584 582
585 516
585 519
585 537
585 538
585 555
585 556
585 562
585 563
585 573
585 575
585 581
585 586
586 511
586 519
586 520
586 538
586 550
586 555
586 556
586 557
586 562
586 575
586 578
586 581
586 585
