1 20
1 26
1 30
1 33
1 50
1 51
1 55
1 62
1 82
2 7
2 13
2 16
2 22
2 23
2 35
2 36
2 37
2 56
2 58
2 67
2 71
2 81
3 9
3 25
3 40
3 41
3 49
3 66
3 68
3 91
4 7
4 13
4 15
4 21
4 23
4 28
4 37
4 44
4 45
4 53
4 58
4 61
4 65
4 74
5 10
5 12
5 17
5 18
5 27
5 29
5 34
5 42
5 43
5 52
5 57
5 69
5 72
5 78
5 87
5 90
6 9
6 11
6 20
6 25
6 39
6 41
6 46
6 49
6 50
6 59
6 60
6 79
6 89
6 94
7 2
7 4
7 13
7 15
7 21
7 23
7 28
7 37
7 45
7 53
7 56
7 58
7 61
7 65
7 74
7 99
8 12
8 15
8 17
8 18
8 21
8 29
8 32
8 38
8 42
8 44
8 45
8 53
8 70
8 72
8 73
8 76
8 77
9 3
9 6
9 11
9 25
9 39
9 40
9 41
9 46
9 49
9 59
9 60
9 66
9 79
9 92
9 94
10 5
10 14
10 27
10 30
10 33
10 34
10 43
10 52
10 55
10 57
10 64
10 69
10 75
10 101
11 6
11 9
11 20
11 26
11 39
11 46
11 49
11 50
11 59
11 60
11 62
11 80
11 89
11 94
12 5
12 8
12 17
12 18
12 27
12 29
12 32
12 38
12 42
12 43
12 57
12 72
12 73
12 77
12 78
12 87
13 2
13 4
13 7
13 15
13 16
13 23
13 28
13 36
13 37
13 56
13 58
13 61
13 71
13 74
13 81
13 88
13 99
13 105
14 10
14 27
14 30
14 33
14 34
14 52
14 55
14 64
14 69
14 75
14 84
14 101
14 103
15 4
15 7
15 8
15 13
15 21
15 28
15 32
15 37
15 44
15 45
15 53
15 61
15 65
15 70
15 76
15 86
15 98
15 102
16 2
16 13
16 19
16 22
16 23
16 24
16 35
16 36
16 47
16 48
16 56
16 58
16 63
16 67
16 71
16 81
16 83
16 100
17 5
17 8
17 12
17 18
17 21
17 29
17 32
17 38
17 42
17 43
17 44
17 53
17 70
17 72
17 73
17 76
17 77
17 78
17 104
18 5
18 8
18 12
18 17
18 27
18 29
18 32
18 34
18 38
18 42
18 43
18 57
18 69
18 72
18 77
18 78
18 87
18 90
18 104
18 107
19 16
19 22
19 24
19 31
19 35
19 47
19 48
19 54
19 63
19 67
19 83
19 85
19 93
19 109
20 1
20 6
20 11
20 26
20 39
20 46
20 50
20 51
20 60
20 62
20 80
20 89
20 96
20 97
21 4
21 7
21 8
21 15
21 17
21 28
21 32
21 37
21 38
21 44
21 45
21 53
21 61
21 65
21 70
21 73
21 76
21 86
21 98
22 2
22 16
22 19
22 24
22 31
22 35
22 36
22 47
22 48
22 54
22 63
22 67
22 71
22 83
22 85
22 93
22 112
23 2
23 4
23 7
23 13
23 16
23 28
23 35
23 36
23 37
23 56
23 58
23 61
23 67
23 71
23 74
23 81
23 88
23 100
23 105
23 113
24 16
24 19
24 22
24 31
24 35
24 36
24 47
24 48
24 54
24 63
24 67
24 83
24 85
24 93
24 116
25 3
25 6
25 9
25 40
25 41
25 46
25 49
25 59
25 66
25 68
25 79
25 91
25 92
25 95
25 111
25 118
26 1
26 11
26 20
26 30
26 39
26 50
26 51
26 55
26 60
26 62
26 80
26 82
26 96
26 97
27 5
27 10
27 12
27 14
27 18
27 29
27 34
27 42
27 43
27 52
27 57
27 69
27 72
27 75
27 78
27 87
27 90
27 101
27 114
28 4
28 7
28 13
28 15
28 21
28 23
28 37
28 44
28 45
28 53
28 56
28 58
28 61
28 65
28 74
28 76
28 86
28 88
28 98
28 99
28 102
28 105
29 5
29 8
29 12
29 17
29 18
29 27
29 32
29 38
29 42
29 43
29 44
29 57
29 70
29 72
29 73
29 77
29 78
29 87
29 104
29 107
29 115
30 1
30 10
30 14
30 26
30 33
30 51
30 52
30 55
30 62
30 64
30 82
30 84
30 97
30 103
30 106
31 19
31 22
31 24
31 47
31 48
31 54
31 63
31 85
31 93
31 109
32 8
32 12
32 15
32 17
32 18
32 21
32 29
32 38
32 42
32 44
32 45
32 53
32 65
32 70
32 72
32 73
32 76
32 77
32 86
32 104
32 110
32 115
33 1
33 10
33 14
33 30
33 34
33 51
33 52
33 55
33 64
33 75
33 82
33 84
33 101
33 103
33 106
34 5
34 10
34 14
34 18
34 27
34 33
34 43
34 52
34 57
34 64
34 69
34 75
34 78
34 87
34 90
34 101
34 114
34 124
35 2
35 16
35 19
35 22
35 23
35 24
35 36
35 47
35 48
35 56
35 63
35 67
35 71
35 81
35 83
35 93
35 100
35 112
35 116
36 2
36 13
36 16
36 22
36 23
36 24
36 35
36 37
36 47
36 56
36 58
36 67
36 71
36 74
36 81
36 83
36 88
36 100
36 113
36 119
37 2
37 4
37 7
37 13
37 15
37 21
37 23
37 28
37 36
37 45
37 53
37 56
37 58
37 61
37 65
37 74
37 81
37 86
37 88
37 98
37 99
37 102
37 105
37 119
37 127
38 8
38 12
38 17
38 18
38 21
38 29
38 32
38 42
38 43
38 44
38 53
38 70
38 72
38 73
38 76
38 77
38 78
38 86
38 104
38 107
38 110
38 115
39 6
39 9
39 11
39 20
39 26
39 46
39 49
39 50
39 51
39 59
39 60
39 62
39 80
39 89
39 92
39 94
39 96
39 97
39 120
39 122
40 3
40 9
40 25
40 41
40 49
40 59
40 66
40 68
40 79
40 91
40 92
40 95
40 111
40 118
41 3
41 6
41 9
41 25
41 40
41 46
41 49
41 59
41 60
41 66
41 68
41 79
41 89
41 91
41 92
41 94
41 95
41 108
41 111
41 118
42 5
42 8
42 12
42 17
42 18
42 27
42 29
42 32
42 38
42 43
42 57
42 69
42 70
42 72
42 73
42 77
42 78
42 87
42 90
42 104
42 107
42 115
42 123
43 5
43 10
43 12
43 17
43 18
43 27
43 29
43 34
43 38
43 42
43 52
43 57
43 69
43 72
43 75
43 77
43 78
43 87
43 90
43 104
43 107
43 114
43 123
43 124
44 4
44 8
44 15
44 17
44 21
44 28
44 29
44 32
44 38
44 45
44 53
44 61
44 65
44 70
44 73
44 76
44 77
44 86
44 98
44 110
44 115
44 117
44 121
44 132
45 4
45 7
45 8
45 15
45 21
45 28
45 32
45 37
45 44
45 53
45 61
45 65
45 70
45 73
45 74
45 76
45 86
45 98
45 99
45 102
45 105
45 117
45 121
45 126
45 127
46 6
46 9
46 11
46 20
46 25
46 39
46 41
46 49
46 50
46 59
46 60
46 66
46 79
46 80
46 89
46 92
46 94
46 108
46 111
46 120
46 122
47 16
47 19
47 22
47 24
47 31
47 35
47 36
47 48
47 54
47 63
47 67
47 71
47 83
47 85
47 93
47 100
47 109
47 112
47 116
48 16
48 19
48 22
48 24
48 31
48 35
48 47
48 54
48 63
48 67
48 83
48 85
48 93
48 109
48 112
48 116
48 134
49 3
49 6
49 9
49 11
49 25
49 39
49 40
49 41
49 46
49 59
49 60
49 66
49 68
49 79
49 89
49 92
49 94
49 95
49 108
49 111
49 118
49 120
50 1
50 6
50 11
50 20
50 26
50 39
50 46
50 51
50 59
50 60
50 62
50 80
50 82
50 89
50 94
50 96
50 97
50 120
50 122
50 125
51 1
51 20
51 26
51 30
51 33
51 39
51 50
51 55
51 62
51 64
51 80
51 82
51 84
51 96
51 97
51 103
51 106
51 125
51 128
51 142
52 5
52 10
52 14
52 27
52 30
52 33
52 34
52 43
52 55
52 57
52 64
52 69
52 75
52 84
52 87
52 90
52 101
52 103
52 114
52 124
52 129
52 130
53 4
53 7
53 8
53 15
53 17
53 21
53 28
53 32
53 37
53 38
53 44
53 45
53 61
53 65
53 70
53 73
53 76
53 77
53 86
53 98
53 99
53 102
53 110
53 117
53 121
53 126
53 132
54 19
54 22
54 24
54 31
54 47
54 48
54 63
54 83
54 85
54 93
54 109
54 116
54 134
54 136
55 1
55 10
55 14
55 26
55 30
55 33
55 51
55 52
55 62
55 64
55 75
55 82
55 84
55 96
55 97
55 103
55 106
55 128
55 130
55 138
55 140
56 2
56 7
56 13
56 16
56 23
56 28
56 35
56 36
56 37
56 58
56 61
56 67
56 71
56 74
56 81
56 88
56 99
56 100
56 105
56 113
56 119
56 131
56 133
57 5
57 10
57 12
57 18
57 27
57 29
57 34
57 42
57 43
57 52
57 69
57 72
57 75
57 78
57 87
57 90
57 101
57 104
57 107
57 114
57 123
57 124
57 129
57 147
58 2
58 4
58 7
58 13
58 16
58 23
58 28
58 36
58 37
58 56
58 61
58 67
58 71
58 74
58 81
58 88
58 99
58 100
58 102
58 105
58 113
58 119
58 127
58 133
58 135
59 6
59 9
59 11
59 25
59 39
59 40
59 41
59 46
59 49
59 50
59 60
59 66
59 79
59 80
59 89
59 92
59 94
59 95
59 108
59 111
59 120
59 122
59 139
59 144
60 6
60 9
60 11
60 20
60 26
60 39
60 41
60 46
60 49
60 50
60 59
60 62
60 79
60 80
60 89
60 92
60 94
60 96
60 108
60 120
60 122
60 139
60 151
61 4
61 7
61 13
61 15
61 21
61 23
61 28
61 37
61 44
61 45
61 53
61 56
61 58
61 65
61 74
61 76
61 81
61 86
61 88
61 98
61 99
61 102
61 105
61 117
61 119
61 121
61 126
61 127
61 133
61 135
62 1
62 11
62 20
62 26
62 30
62 39
62 50
62 51
62 55
62 60
62 80
62 82
62 84
62 89
62 96
62 97
62 106
62 122
62 125
62 128
62 142
62 146
63 16
63 19
63 22
63 24
63 31
63 35
63 47
63 48
63 54
63 67
63 71
63 83
63 85
63 93
63 109
63 112
63 116
63 134
63 136
63 141
63 154
64 10
64 14
64 30
64 33
64 34
64 51
64 52
64 55
64 69
64 75
64 82
64 84
64 101
64 103
64 106
64 114
64 129
64 130
64 138
64 140
65 4
65 7
65 15
65 21
65 28
65 32
65 37
65 44
65 45
65 53
65 61
65 70
65 73
65 74
65 76
65 86
65 98
65 99
65 102
65 105
65 110
65 117
65 121
65 126
65 127
65 132
65 135
65 148
66 3
66 9
66 25
66 40
66 41
66 46
66 49
66 59
66 68
66 79
66 91
66 92
66 94
66 95
66 108
66 111
66 118
66 143
66 144
66 145
67 2
67 16
67 19
67 22
67 23
67 24
67 35
67 36
67 47
67 48
67 56
67 58
67 63
67 71
67 81
67 83
67 88
67 93
67 100
67 112
67 113
67 116
67 131
67 141
68 3
68 25
68 40
68 41
68 49
68 66
68 79
68 91
68 92
68 95
68 111
68 118
68 143
68 145
69 5
69 10
69 14
69 18
69 27
69 34
69 42
69 43
69 52
69 57
69 64
69 72
69 75
69 78
69 87
69 90
69 101
69 114
69 123
69 124
69 129
69 130
69 147
69 155
70 8
70 15
70 17
70 21
70 29
70 32
70 38
70 42
70 44
70 45
70 53
70 65
70 72
70 73
70 76
70 77
70 86
70 98
70 104
70 107
70 110
70 115
70 117
70 121
70 126
70 132
70 148
70 150
70 159
71 2
71 13
71 16
71 22
71 23
71 35
71 36
71 47
71 56
71 58
71 63
71 67
71 74
71 81
71 83
71 88
71 100
71 105
71 112
71 113
71 116
71 119
71 131
71 141
71 152
71 162
72 5
72 8
72 12
72 17
72 18
72 27
72 29
72 32
72 38
72 42
72 43
72 57
72 69
72 70
72 73
72 77
72 78
72 87
72 90
72 104
72 107
72 110
72 115
72 123
72 124
72 137
72 147
72 149
72 150
72 153
73 8
73 12
73 17
73 21
73 29
73 32
73 38
73 42
73 44
73 45
73 53
73 65
73 70
73 72
73 76
73 77
73 78
73 86
73 104
73 107
73 110
73 115
73 117
73 121
73 132
73 137
73 148
73 149
73 150
73 159
73 160
74 4
74 7
74 13
74 23
74 28
74 36
74 37
74 45
74 56
74 58
74 61
74 65
74 71
74 81
74 86
74 88
74 98
74 99
74 100
74 102
74 105
74 113
74 117
74 119
74 126
74 127
74 133
74 135
74 156
75 10
75 14
75 27
75 33
75 34
75 43
75 52
75 55
75 57
75 64
75 69
75 84
75 87
75 90
75 101
75 103
75 114
75 123
75 124
75 129
75 130
75 155
76 8
76 15
76 17
76 21
76 28
76 32
76 38
76 44
76 45
76 53
76 61
76 65
76 70
76 73
76 77
76 86
76 98
76 102
76 104
76 110
76 115
76 117
76 121
76 126
76 132
76 148
76 150
76 159
77 8
77 12
77 17
77 18
77 29
77 32
77 38
77 42
77 43
77 44
77 53
77 70
77 72
77 73
77 76
77 78
77 87
77 104
77 107
77 110
77 115
77 121
77 132
77 137
77 149
77 150
77 160
78 5
78 12
78 17
78 18
78 27
78 29
78 34
78 38
78 42
78 43
78 57
78 69
78 72
78 73
78 77
78 87
78 90
78 104
78 107
78 114
78 115
78 123
78 124
78 137
78 147
78 149
78 153
79 6
79 9
79 25
79 40
79 41
79 46
79 49
79 59
79 60
79 66
79 68
79 89
79 91
79 92
79 94
79 95
79 108
79 111
79 118
79 120
79 139
79 143
79 144
79 145
79 157
79 165
79 168
80 11
80 20
80 26
80 39
80 46
80 50
80 51
80 59
80 60
80 62
80 82
80 89
80 94
80 96
80 97
80 108
80 120
80 122
80 125
80 128
80 142
80 146
80 151
80 173
81 2
81 13
81 16
81 23
81 35
81 36
81 37
81 56
81 58
81 61
81 67
81 71
81 74
81 88
81 99
81 100
81 105
81 112
81 113
81 119
81 131
81 133
81 135
81 152
81 156
81 161
82 1
82 26
82 30
82 33
82 50
82 51
82 55
82 62
82 64
82 80
82 84
82 96
82 97
82 103
82 106
82 125
82 128
82 130
82 138
82 140
82 142
82 163
82 169
83 16
83 19
83 22
83 24
83 35
83 36
83 47
83 48
83 54
83 63
83 67
83 71
83 85
83 93
83 100
83 109
83 112
83 116
83 131
83 134
83 136
83 141
83 154
83 167
83 170
84 14
84 30
84 33
84 51
84 52
84 55
84 62
84 64
84 75
84 82
84 96
84 97
84 101
84 103
84 106
84 128
84 130
84 138
84 140
84 142
84 163
84 164
84 169
85 19
85 22
85 24
85 31
85 47
85 48
85 54
85 63
85 83
85 93
85 109
85 112
85 116
85 134
85 136
85 141
85 154
85 167
86 15
86 21
86 28
86 32
86 37
86 38
86 44
86 45
86 53
86 61
86 65
86 70
86 73
86 74
86 76
86 98
86 99
86 102
86 105
86 110
86 115
86 117
86 121
86 126
86 127
86 132
86 135
86 148
86 158
86 159
86 166
86 174
87 5
87 12
87 18
87 27
87 29
87 34
87 42
87 43
87 52
87 57
87 69
87 72
87 75
87 77
87 78
87 90
87 101
87 104
87 107
87 114
87 123
87 124
87 129
87 137
87 147
87 149
87 153
87 171
88 13
88 23
88 28
88 36
88 37
88 56
88 58
88 61
88 67
88 71
88 74
88 81
88 99
88 100
88 102
88 105
88 113
88 119
88 127
88 131
88 133
88 135
88 152
88 156
88 161
89 6
89 11
89 20
89 39
89 41
89 46
89 49
89 50
89 59
89 60
89 62
89 79
89 80
89 92
89 94
89 96
89 108
89 111
89 120
89 122
89 125
89 139
89 144
89 146
89 151
89 157
89 168
89 173
90 5
90 18
90 27
90 34
90 42
90 43
90 52
90 57
90 69
90 72
90 75
90 78
90 87
90 101
90 104
90 107
90 114
90 123
90 124
90 129
90 137
90 147
90 153
90 155
90 171
91 3
91 25
91 40
91 41
91 66
91 68
91 79
91 92
91 95
91 111
91 118
91 143
91 144
91 145
91 165
91 175
92 9
92 25
92 39
92 40
92 41
92 46
92 49
92 59
92 60
92 66
92 68
92 79
92 89
92 91
92 94
92 95
92 108
92 111
92 118
92 120
92 122
92 139
92 143
92 144
92 145
92 151
92 157
92 165
92 168
93 19
93 22
93 24
93 31
93 35
93 47
93 48
93 54
93 63
93 67
93 83
93 85
93 109
93 112
93 116
93 134
93 136
93 141
93 154
93 167
93 170
93 176
94 6
94 9
94 11
94 39
94 41
94 46
94 49
94 50
94 59
94 60
94 66
94 79
94 80
94 89
94 92
94 95
94 108
94 111
94 120
94 122
94 139
94 144
94 145
94 146
94 151
94 157
94 165
94 168
94 173
94 180
95 25
95 40
95 41
95 49
95 59
95 66
95 68
95 79
95 91
95 92
95 94
95 108
95 111
95 118
95 139
95 143
95 144
95 145
95 157
95 165
95 175
96 20
96 26
96 39
96 50
96 51
96 55
96 60
96 62
96 80
96 82
96 84
96 89
96 97
96 106
96 120
96 122
96 125
96 128
96 138
96 142
96 146
96 173
96 178
97 20
97 26
97 30
97 39
97 50
97 51
97 55
97 62
97 80
97 82
97 84
97 96
97 103
97 106
97 122
97 125
97 128
97 138
97 140
97 142
97 146
97 163
97 178
97 179
97 185
98 15
98 21
98 28
98 37
98 44
98 45
98 53
98 61
98 65
98 70
98 74
98 76
98 86
98 99
98 102
98 105
98 110
98 117
98 121
98 126
98 127
98 132
98 133
98 135
98 148
98 156
98 158
98 159
98 166
98 174
98 177
99 7
99 13
99 28
99 37
99 45
99 53
99 56
99 58
99 61
99 65
99 74
99 81
99 86
99 88
99 98
99 102
99 105
99 113
99 117
99 119
99 121
99 126
99 127
99 133
99 135
99 156
99 158
99 166
99 177
100 16
100 23
100 35
100 36
100 47
100 56
100 58
100 67
100 71
100 74
100 81
100 83
100 88
100 105
100 112
100 113
100 116
100 119
100 131
100 133
100 141
100 152
100 161
100 162
100 170
100 182
100 183
101 10
101 14
101 27
101 33
101 34
101 52
101 57
101 64
101 69
101 75
101 84
101 87
101 90
101 103
101 114
101 123
101 124
101 129
101 130
101 140
101 147
101 155
101 164
101 171
102 15
102 28
102 37
102 45
102 53
102 58
102 61
102 65
102 74
102 76
102 86
102 88
102 98
102 99
102 105
102 117
102 119
102 121
102 126
102 127
102 133
102 135
102 148
102 156
102 158
102 166
102 174
102 177
103 14
103 30
103 33
103 51
103 52
103 55
103 64
103 75
103 82
103 84
103 97
103 101
103 106
103 114
103 128
103 129
103 130
103 138
103 140
103 142
103 155
103 163
103 164
103 169
104 17
104 18
104 29
104 32
104 38
104 42
104 43
104 57
104 70
104 72
104 73
104 76
104 77
104 78
104 87
104 90
104 107
104 110
104 115
104 121
104 123
104 132
104 137
104 147
104 149
104 150
104 153
104 159
104 160
104 172
105 13
105 23
105 28
105 37
105 45
105 56
105 58
105 61
105 65
105 71
105 74
105 81
105 86
105 88
105 98
105 99
105 100
105 102
105 113
105 117
105 119
105 126
105 127
105 133
105 135
105 152
105 156
105 158
105 161
105 177
106 30
106 33
106 51
106 55
106 62
106 64
106 82
106 84
106 96
106 97
106 103
106 125
106 128
106 130
106 138
106 140
106 142
106 163
106 164
106 169
106 179
107 18
107 29
107 38
107 42
107 43
107 57
107 70
107 72
107 73
107 77
107 78
107 87
107 90
107 104
107 110
107 114
107 115
107 123
107 124
107 132
107 137
107 147
107 149
107 150
107 153
107 160
107 172
107 181
108 41
108 46
108 49
108 59
108 60
108 66
108 79
108 80
108 89
108 92
108 94
108 95
108 111
108 118
108 120
108 122
108 139
108 143
108 144
108 145
108 151
108 157
108 165
108 168
108 180
108 184
108 189
109 19
109 31
109 47
109 48
109 54
109 63
109 83
109 85
109 93
109 112
109 116
109 134
109 136
109 141
109 154
109 167
109 176
109 187
110 32
110 38
110 44
110 53
110 65
110 70
110 72
110 73
110 76
110 77
110 86
110 98
110 104
110 107
110 115
110 117
110 121
110 126
110 132
110 137
110 148
110 149
110 150
110 159
110 160
110 166
110 172
110 174
110 193
110 198
111 25
111 40
111 41
111 46
111 49
111 59
111 66
111 68
111 79
111 89
111 91
111 92
111 94
111 95
111 108
111 118
111 120
111 139
111 143
111 144
111 145
111 151
111 157
111 165
111 168
111 175
111 184
111 188
111 189
112 22
112 35
112 47
112 48
112 63
112 67
112 71
112 81
112 83
112 85
112 93
112 100
112 109
112 113
112 116
112 131
112 134
112 141
112 152
112 154
112 162
112 167
112 170
112 176
112 183
113 23
113 36
113 56
113 58
113 67
113 71
113 74
113 81
113 88
113 99
113 100
113 105
113 112
113 119
113 127
113 131
113 133
113 135
113 141
113 152
113 156
113 161
113 162
113 170
113 182
113 183
113 190
113 196
114 27
114 34
114 43
114 52
114 57
114 64
114 69
114 75
114 78
114 87
114 90
114 101
114 103
114 107
114 123
114 124
114 129
114 130
114 137
114 147
114 153
114 155
114 164
114 171
114 181
114 186
114 197
115 29
115 32
115 38
115 42
115 44
115 70
115 72
115 73
115 76
115 77
115 78
115 86
115 104
115 107
115 110
115 117
115 121
115 132
115 137
115 148
115 149
115 150
115 153
115 159
115 160
115 172
115 174
115 193
115 198
116 24
116 35
116 47
116 48
116 54
116 63
116 67
116 71
116 83
116 85
116 93
116 100
116 109
116 112
116 131
116 134
116 136
116 141
116 154
116 162
116 167
116 170
116 176
116 183
116 187
117 44
117 45
117 53
117 61
117 65
117 70
117 73
117 74
117 76
117 86
117 98
117 99
117 102
117 105
117 110
117 115
117 121
117 126
117 127
117 132
117 133
117 135
117 148
117 150
117 158
117 159
117 166
117 172
117 174
117 177
117 199
118 25
118 40
118 41
118 49
118 66
118 68
118 79
118 91
118 92
118 95
118 108
118 111
118 139
118 143
118 144
118 145
118 157
118 165
118 168
118 175
118 184
118 188
118 189
118 202
119 36
119 37
119 56
119 58
119 61
119 71
119 74
119 81
119 88
119 99
119 100
119 102
119 105
119 113
119 127
119 131
119 133
119 135
119 152
119 156
119 161
119 162
119 177
119 182
119 194
119 196
120 39
120 46
120 49
120 50
120 59
120 60
120 79
120 80
120 89
120 92
120 94
120 96
120 108
120 111
120 122
120 125
120 139
120 144
120 146
120 151
120 157
120 165
120 168
120 173
120 180
120 192
121 44
121 45
121 53
121 61
121 65
121 70
121 73
121 76
121 77
121 86
121 98
121 99
121 102
121 104
121 110
121 115
121 117
121 126
121 127
121 132
121 135
121 148
121 150
121 158
121 159
121 160
121 166
121 172
121 174
121 198
121 199
122 39
122 46
122 50
122 59
122 60
122 62
122 80
122 89
122 92
122 94
122 96
122 97
122 108
122 120
122 125
122 139
122 142
122 146
122 151
122 157
122 168
122 173
122 178
122 180
122 192
122 206
123 42
123 43
123 57
123 69
123 72
123 75
123 78
123 87
123 90
123 101
123 104
123 107
123 114
123 124
123 129
123 137
123 147
123 149
123 153
123 155
123 171
123 181
123 186
123 205
124 34
124 43
124 52
124 57
124 69
124 72
124 75
124 78
124 87
124 90
124 101
124 107
124 114
124 123
124 129
124 130
124 137
124 147
124 149
124 153
124 155
124 164
124 171
124 181
124 186
124 197
124 205
125 50
125 51
125 62
125 80
125 82
125 89
125 96
125 97
125 106
125 120
125 122
125 128
125 138
125 142
125 146
125 151
125 163
125 173
125 178
125 179
125 185
125 203
126 45
126 53
126 61
126 65
126 70
126 74
126 76
126 86
126 98
126 99
126 102
126 105
126 110
126 117
126 121
126 127
126 132
126 133
126 135
126 148
126 156
126 158
126 159
126 166
126 174
126 177
126 199
126 212
127 37
127 45
127 58
127 61
127 65
127 74
127 86
127 88
127 98
127 99
127 102
127 105
127 113
127 117
127 119
127 121
127 126
127 133
127 135
127 148
127 156
127 158
127 161
127 166
127 174
127 177
127 194
128 51
128 55
128 62
128 80
128 82
128 84
128 96
128 97
128 103
128 106
128 125
128 130
128 138
128 140
128 142
128 146
128 163
128 164
128 169
128 178
128 179
128 185
128 191
128 200
129 52
129 57
129 64
129 69
129 75
129 87
129 90
129 101
129 103
129 114
129 123
129 124
129 130
129 140
129 147
129 153
129 155
129 164
129 169
129 171
129 186
129 197
129 204
130 52
130 55
130 64
130 69
130 75
130 82
130 84
130 101
130 103
130 106
130 114
130 124
130 128
130 129
130 138
130 140
130 155
130 163
130 164
130 169
130 171
130 186
130 191
130 197
130 200
130 204
131 56
131 67
131 71
131 81
131 83
131 88
131 100
131 112
131 113
131 116
131 119
131 133
131 141
131 152
131 154
131 161
131 162
131 170
131 176
131 182
131 183
131 190
131 196
132 44
132 53
132 65
132 70
132 73
132 76
132 77
132 86
132 98
132 104
132 107
132 110
132 115
132 117
132 121
132 126
132 137
132 148
132 149
132 150
132 158
132 159
132 160
132 166
132 172
132 174
132 193
132 198
132 199
133 56
133 58
133 61
133 74
133 81
133 88
133 98
133 99
133 100
133 102
133 105
133 113
133 117
133 119
133 126
133 127
133 131
133 135
133 152
133 156
133 158
133 161
133 166
133 177
133 182
133 194
133 196
134 48
134 54
134 63
134 83
134 85
134 93
134 109
134 112
134 116
134 136
134 141
134 154
134 167
134 170
134 176
134 187
134 208
134 211
135 58
135 61
135 65
135 74
135 81
135 86
135 88
135 98
135 99
135 102
135 105
135 113
135 117
135 119
135 121
135 126
135 127
135 133
135 148
135 152
135 156
135 158
135 161
135 166
135 174
135 177
135 182
135 194
135 196
136 54
136 63
136 83
136 85
136 93
136 109
136 116
136 134
136 141
136 154
136 167
136 176
136 187
136 208
136 211
137 72
137 73
137 77
137 78
137 87
137 90
137 104
137 107
137 110
137 114
137 115
137 123
137 124
137 132
137 147
137 149
137 150
137 153
137 159
137 160
137 171
137 172
137 181
137 186
137 193
137 195
137 205
138 55
138 64
138 82
138 84
138 96
138 97
138 103
138 106
138 125
138 128
138 130
138 140
138 142
138 163
138 164
138 169
138 178
138 179
138 185
138 191
138 200
139 59
139 60
139 79
139 89
139 92
139 94
139 95
139 108
139 111
139 118
139 120
139 122
139 143
139 144
139 145
139 146
139 151
139 157
139 165
139 168
139 173
139 180
139 184
139 189
139 192
139 201
139 202
139 207
140 55
140 64
140 82
140 84
140 97
140 101
140 103
140 106
140 128
140 129
140 130
140 138
140 142
140 155
140 163
140 164
140 169
140 179
140 185
140 191
140 200
140 204
141 63
141 67
141 71
141 83
141 85
141 93
141 100
141 109
141 112
141 113
141 116
141 131
141 134
141 136
141 152
141 154
141 161
141 162
141 167
141 170
141 176
141 183
141 187
141 190
141 210
141 215
142 51
142 62
142 80
142 82
142 84
142 96
142 97
142 103
142 106
142 122
142 125
142 128
142 138
142 140
142 146
142 163
142 169
142 173
142 178
142 179
142 185
142 191
142 203
142 214
142 218
143 66
143 68
143 79
143 91
143 92
143 95
143 108
143 111
143 118
143 139
143 144
143 145
143 157
143 165
143 168
143 175
143 184
143 188
143 189
143 202
143 213
143 216
144 59
144 66
144 79
144 89
144 91
144 92
144 94
144 95
144 108
144 111
144 118
144 120
144 139
144 143
144 145
144 151
144 157
144 165
144 168
144 175
144 180
144 184
144 188
144 189
144 201
144 202
144 207
144 216
145 66
145 68
145 79
145 91
145 92
145 94
145 95
145 108
145 111
145 118
145 139
145 143
145 144
145 151
145 157
145 165
145 168
145 175
145 180
145 184
145 188
145 189
145 201
145 202
145 213
145 216
146 62
146 80
146 89
146 94
146 96
146 97
146 120
146 122
146 125
146 128
146 139
146 142
146 151
146 168
146 173
146 178
146 179
146 180
146 185
146 192
146 203
146 206
146 214
147 57
147 69
147 72
147 78
147 87
147 90
147 101
147 104
147 107
147 114
147 123
147 124
147 129
147 137
147 149
147 153
147 155
147 160
147 171
147 181
147 186
147 195
147 197
147 205
147 219
148 65
148 70
148 73
148 76
148 86
148 98
148 102
148 110
148 115
148 117
148 121
148 126
148 127
148 132
148 135
148 150
148 158
148 159
148 160
148 166
148 172
148 174
148 177
148 193
148 198
148 199
148 212
149 72
149 73
149 77
149 78
149 87
149 104
149 107
149 110
149 115
149 123
149 124
149 132
149 137
149 147
149 150
149 153
149 159
149 160
149 172
149 181
149 193
149 195
149 198
149 219
149 221
149 222
149 227
150 70
150 72
150 73
150 76
150 77
150 104
150 107
150 110
150 115
150 117
150 121
150 132
150 137
150 148
150 149
150 153
150 159
150 160
150 166
150 172
150 174
150 193
150 195
150 198
150 199
150 221
150 222
151 60
151 80
151 89
151 92
151 94
151 108
151 111
151 120
151 122
151 125
151 139
151 144
151 145
151 146
151 157
151 165
151 168
151 173
151 178
151 180
151 184
151 189
151 192
151 201
151 203
151 206
151 207
152 71
152 81
152 88
152 100
152 105
152 112
152 113
152 119
152 131
152 133
152 135
152 141
152 156
152 161
152 162
152 170
152 182
152 183
152 190
152 194
152 196
152 209
152 215
153 72
153 78
153 87
153 90
153 104
153 107
153 114
153 115
153 123
153 124
153 129
153 137
153 147
153 149
153 150
153 155
153 160
153 171
153 172
153 181
153 186
153 195
153 205
153 219
153 227
154 63
154 83
154 85
154 93
154 109
154 112
154 116
154 131
154 134
154 136
154 141
154 162
154 167
154 170
154 176
154 183
154 187
154 190
154 210
154 211
154 215
154 217
154 226
155 69
155 75
155 90
155 101
155 103
155 114
155 123
155 124
155 129
155 130
155 140
155 147
155 153
155 164
155 169
155 171
155 181
155 186
155 197
155 200
155 204
155 205
155 232
156 74
156 81
156 88
156 98
156 99
156 102
156 105
156 113
156 119
156 126
156 127
156 133
156 135
156 152
156 158
156 161
156 166
156 177
156 182
156 194
156 196
156 209
156 224
156 225
156 234
157 79
157 89
157 92
157 94
157 95
157 108
157 111
157 118
157 120
157 122
157 139
157 143
157 144
157 145
157 151
157 165
157 168
157 173
157 175
157 180
157 184
157 188
157 189
157 192
157 201
157 202
157 207
157 216
157 223
157 235
158 86
158 98
158 99
158 102
158 105
158 117
158 121
158 126
158 127
158 132
158 133
158 135
158 148
158 156
158 159
158 166
158 174
158 177
158 194
158 199
158 212
158 224
158 229
158 240
159 70
159 73
159 76
159 86
159 98
159 104
159 110
159 115
159 117
159 121
159 126
159 132
159 137
159 148
159 149
159 150
159 158
159 160
159 166
159 172
159 174
159 193
159 195
159 198
159 199
159 212
159 221
159 222
159 228
159 229
159 231
160 73
160 77
160 104
160 107
160 110
160 115
160 121
160 132
160 137
160 147
160 148
160 149
160 150
160 153
160 159
160 172
160 174
160 181
160 193
160 195
160 198
160 199
160 221
160 222
160 227
160 228
161 81
161 88
161 100
161 105
161 113
161 119
161 127
161 131
161 133
161 135
161 141
161 152
161 156
161 162
161 170
161 177
161 182
161 183
161 190
161 194
161 196
161 209
161 215
161 225
161 236
162 71
162 100
162 112
162 113
162 116
162 119
162 131
162 141
162 152
162 154
162 161
162 170
162 176
162 182
162 183
162 190
162 196
162 209
162 210
162 215
162 226
162 236
162 237
163 82
163 84
163 97
163 103
163 106
163 125
163 128
163 130
163 138
163 140
163 142
163 164
163 169
163 178
163 179
163 185
163 191
163 200
163 203
163 204
163 214
163 218
163 220
164 84
164 101
164 103
164 106
164 114
164 124
164 128
164 129
164 130
164 138
164 140
164 155
164 163
164 169
164 171
164 179
164 186
164 191
164 197
164 200
164 204
164 220
164 232
165 79
165 91
165 92
165 94
165 95
165 108
165 111
165 118
165 120
165 139
165 143
165 144
165 145
165 151
165 157
165 168
165 175
165 180
165 184
165 188
165 189
165 201
165 202
165 207
165 213
165 216
165 223
165 243
166 86
166 98
166 99
166 102
166 110
166 117
166 121
166 126
166 127
166 132
166 133
166 135
166 148
166 150
166 156
166 158
166 159
166 172
166 174
166 177
166 193
166 198
166 199
166 212
166 224
166 228
166 229
166 231
166 240
167 83
167 85
167 93
167 109
167 112
167 116
167 134
167 136
167 141
167 154
167 170
167 176
167 187
167 208
167 210
167 211
167 217
167 226
168 79
168 89
168 92
168 94
168 108
168 111
168 118
168 120
168 122
168 139
168 143
168 144
168 145
168 146
168 151
168 157
168 165
168 173
168 180
168 184
168 188
168 189
168 192
168 201
168 202
168 206
168 207
168 216
168 223
168 235
169 82
169 84
169 103
169 106
169 128
169 129
169 130
169 138
169 140
169 142
169 155
169 163
169 164
169 179
169 185
169 191
169 197
169 200
169 204
169 214
169 218
169 220
169 232
170 83
170 93
170 100
170 112
170 113
170 116
170 131
170 134
170 141
170 152
170 154
170 161
170 162
170 167
170 176
170 182
170 183
170 187
170 190
170 209
170 210
170 215
170 217
170 226
170 237
171 87
171 90
171 101
171 114
171 123
171 124
171 129
171 130
171 137
171 147
171 153
171 155
171 164
171 181
171 186
171 197
171 204
171 205
171 219
171 232
171 233
171 245
172 104
172 107
172 110
172 115
172 117
172 121
172 132
172 137
172 148
172 149
172 150
172 153
172 159
172 160
172 166
172 174
172 193
172 195
172 198
172 199
172 221
172 222
172 227
172 228
172 231
172 247
173 80
173 89
173 94
173 96
173 120
173 122
173 125
173 139
173 142
173 146
173 151
173 157
173 168
173 178
173 180
173 185
173 192
173 201
173 203
173 206
173 207
173 214
173 230
173 235
173 239
173 241
173 244
174 86
174 98
174 102
174 110
174 115
174 117
174 121
174 126
174 127
174 132
174 135
174 148
174 150
174 158
174 159
174 160
174 166
174 172
174 177
174 193
174 198
174 199
174 212
174 222
174 224
174 228
174 229
174 231
174 240
175 91
175 95
175 111
175 118
175 143
175 144
175 145
175 157
175 165
175 184
175 188
175 189
175 202
175 213
175 216
175 238
175 243
175 253
176 93
176 109
176 112
176 116
176 131
176 134
176 136
176 141
176 154
176 162
176 167
176 170
176 183
176 187
176 190
176 208
176 210
176 211
176 215
176 217
176 226
176 237
176 246
176 248
177 98
177 99
177 102
177 105
177 117
177 119
177 126
177 127
177 133
177 135
177 148
177 156
177 158
177 161
177 166
177 174
177 182
177 194
177 196
177 199
177 212
177 224
177 225
177 229
177 234
177 240
178 96
178 97
178 122
178 125
178 128
178 138
178 142
178 146
178 151
178 163
178 173
178 179
178 180
178 185
178 191
178 192
178 203
178 206
178 214
178 218
178 230
178 239
178 244
178 256
178 257
179 97
179 106
179 125
179 128
179 138
179 140
179 142
179 146
179 163
179 164
179 169
179 178
179 185
179 191
179 200
179 203
179 204
179 206
179 214
179 218
179 220
179 230
179 250
180 94
180 108
180 120
180 122
180 139
180 144
180 145
180 146
180 151
180 157
180 165
180 168
180 173
180 178
180 184
180 189
180 192
180 201
180 202
180 203
180 206
180 207
180 216
180 223
180 235
180 239
180 241
180 261
181 107
181 114
181 123
181 124
181 137
181 147
181 149
181 153
181 155
181 160
181 171
181 186
181 195
181 197
181 205
181 219
181 221
181 227
181 233
181 245
181 262
182 100
182 113
182 119
182 131
182 133
182 135
182 152
182 156
182 161
182 162
182 170
182 177
182 183
182 190
182 194
182 196
182 209
182 215
182 225
182 234
182 236
182 237
183 100
183 112
183 113
183 116
183 131
183 141
183 152
183 154
183 161
183 162
183 170
183 176
183 182
183 187
183 190
183 194
183 196
183 209
183 210
183 215
183 226
183 236
183 237
183 248
183 265
184 108
184 111
184 118
184 139
184 143
184 144
184 145
184 151
184 157
184 165
184 168
184 175
184 180
184 188
184 189
184 201
184 202
184 207
184 213
184 216
184 223
184 235
184 238
184 243
184 253
184 255
185 97
185 125
185 128
185 138
185 140
185 142
185 146
185 163
185 169
185 173
185 178
185 179
185 191
185 192
185 200
185 203
185 206
185 214
185 218
185 220
185 230
185 244
185 250
185 256
185 257
186 114
186 123
186 124
186 129
186 130
186 137
186 147
186 153
186 155
186 164
186 171
186 181
186 195
186 197
186 204
186 205
186 219
186 232
186 233
186 245
186 264
187 109
187 116
187 134
187 136
187 141
187 154
187 167
187 170
187 176
187 183
187 208
187 210
187 211
187 215
187 217
187 226
187 242
187 246
187 248
187 249
188 111
188 118
188 143
188 144
188 145
188 157
188 165
188 168
188 175
188 184
188 189
188 201
188 202
188 213
188 216
188 223
188 238
188 243
188 253
188 255
189 108
189 111
189 118
189 139
189 143
189 144
189 145
189 151
189 157
189 165
189 168
189 175
189 180
189 184
189 188
189 192
189 201
189 202
189 207
189 213
189 216
189 223
189 235
189 238
189 241
189 243
189 253
189 255
189 261
190 113
190 131
190 141
190 152
190 154
190 161
190 162
190 170
190 176
190 182
190 183
190 194
190 196
190 209
190 210
190 215
190 225
190 226
190 236
190 237
190 248
190 265
191 128
191 130
191 138
191 140
191 142
191 163
191 164
191 169
191 178
191 179
191 185
191 197
191 200
191 203
191 204
191 214
191 218
191 220
191 232
191 250
191 251
191 267
192 120
192 122
192 139
192 146
192 151
192 157
192 168
192 173
192 178
192 180
192 185
192 189
192 201
192 203
192 206
192 207
192 214
192 223
192 230
192 235
192 239
192 241
192 244
192 257
192 261
192 273
193 110
193 115
193 132
193 137
193 148
193 149
193 150
193 159
193 160
193 166
193 172
193 174
193 195
193 198
193 199
193 219
193 221
193 222
193 227
193 228
193 229
193 231
193 247
193 252
193 254
193 268
194 119
194 127
194 133
194 135
194 152
194 156
194 158
194 161
194 177
194 182
194 183
194 190
194 196
194 209
194 212
194 224
194 225
194 234
194 236
194 240
194 258
194 259
194 263
195 137
195 147
195 149
195 150
195 153
195 159
195 160
195 172
195 181
195 186
195 193
195 198
195 205
195 219
195 221
195 222
195 227
195 228
195 233
195 247
195 252
195 254
195 262
196 113
196 119
196 131
196 133
196 135
196 152
196 156
196 161
196 162
196 177
196 182
196 183
196 190
196 194
196 209
196 215
196 224
196 225
196 234
196 236
196 237
196 259
196 263
196 272
197 114
197 124
197 129
197 130
197 147
197 155
197 164
197 169
197 171
197 181
197 186
197 191
197 200
197 204
197 205
197 219
197 232
197 233
197 245
197 264
197 266
198 110
198 115
198 121
198 132
198 148
198 149
198 150
198 159
198 160
198 166
198 172
198 174
198 193
198 195
198 199
198 212
198 221
198 222
198 227
198 228
198 229
198 231
198 247
198 252
198 254
198 260
198 268
198 279
199 117
199 121
199 126
199 132
199 148
199 150
199 158
199 159
199 160
199 166
199 172
199 174
199 177
199 193
199 198
199 212
199 222
199 224
199 228
199 229
199 231
199 240
199 247
199 258
199 260
199 269
200 128
200 130
200 138
200 140
200 155
200 163
200 164
200 169
200 179
200 185
200 191
200 197
200 204
200 214
200 218
200 220
200 232
200 250
200 251
200 266
200 276
201 139
201 144
201 145
201 151
201 157
201 165
201 168
201 173
201 180
201 184
201 188
201 189
201 192
201 202
201 206
201 207
201 213
201 216
201 223
201 235
201 239
201 241
201 243
201 255
201 261
201 274
202 118
202 139
202 143
202 144
202 145
202 157
202 165
202 168
202 175
202 180
202 184
202 188
202 189
202 201
202 207
202 213
202 216
202 223
202 235
202 238
202 243
202 253
202 255
202 261
202 281
203 125
203 142
203 146
203 151
203 163
203 173
203 178
203 179
203 180
203 185
203 191
203 192
203 206
203 207
203 214
203 218
203 220
203 230
203 239
203 241
203 244
203 250
203 256
203 257
203 273
203 289
204 129
204 130
204 140
204 155
204 163
204 164
204 169
204 171
204 179
204 186
204 191
204 197
204 200
204 205
204 218
204 220
204 232
204 245
204 250
204 251
204 264
204 266
204 276
205 123
205 124
205 137
205 147
205 153
205 155
205 171
205 181
205 186
205 195
205 197
205 204
205 219
205 227
205 232
205 233
205 245
205 262
205 264
205 277
205 282
206 122
206 146
206 151
206 168
206 173
206 178
206 179
206 180
206 185
206 192
206 201
206 203
206 207
206 214
206 218
206 223
206 230
206 235
206 239
206 241
206 244
206 256
206 257
206 261
206 273
206 274
207 139
207 144
207 151
207 157
207 165
207 168
207 173
207 180
207 184
207 189
207 192
207 201
207 202
207 203
207 206
207 216
207 223
207 235
207 239
207 241
207 243
207 244
207 255
207 261
207 273
207 274
208 134
208 136
208 167
208 176
208 187
208 210
208 211
208 217
208 242
208 246
208 249
208 271
208 290
209 152
209 156
209 161
209 162
209 170
209 182
209 183
209 190
209 194
209 196
209 215
209 225
209 226
209 234
209 236
209 237
209 259
209 263
209 265
209 272
210 141
210 154
210 162
210 167
210 170
210 176
210 183
210 187
210 190
210 208
210 211
210 215
210 217
210 226
210 237
210 242
210 246
210 248
210 249
210 265
210 270
210 271
210 280
210 286
211 134
211 136
211 154
211 167
211 176
211 187
211 208
211 210
211 217
211 226
211 242
211 246
211 248
211 249
211 270
211 271
211 280
211 290
212 126
212 148
212 158
212 159
212 166
212 174
212 177
212 194
212 198
212 199
212 224
212 225
212 228
212 229
212 231
212 234
212 240
212 247
212 258
212 259
212 260
212 269
212 284
212 291
213 143
213 145
213 165
213 175
213 184
213 188
213 189
213 201
213 202
213 216
213 223
213 238
213 243
213 253
213 255
213 275
213 281
214 142
214 146
214 163
214 169
214 173
214 178
214 179
214 185
214 191
214 192
214 200
214 203
214 206
214 218
214 220
214 230
214 239
214 244
214 250
214 251
214 256
214 257
214 267
214 283
214 288
214 289
215 141
215 152
215 154
215 161
215 162
215 170
215 176
215 182
215 183
215 187
215 190
215 196
215 209
215 210
215 217
215 225
215 226
215 236
215 237
215 246
215 248
215 265
215 270
215 272
215 286
215 294
216 143
216 144
216 145
216 157
216 165
216 168
216 175
216 180
216 184
216 188
216 189
216 201
216 202
216 207
216 213
216 223
216 235
216 238
216 243
216 253
216 255
216 261
216 275
216 281
216 287
217 154
217 167
217 170
217 176
217 187
217 208
217 210
217 211
217 215
217 226
217 237
217 242
217 246
217 248
217 249
217 270
217 271
217 280
217 290
217 300
218 142
218 163
218 169
218 178
218 179
218 185
218 191
218 200
218 203
218 204
218 206
218 214
218 220
218 230
218 244
218 250
218 251
218 256
218 257
218 267
218 276
218 283
218 288
218 289
219 147
219 149
219 153
219 171
219 181
219 186
219 193
219 195
219 197
219 205
219 221
219 222
219 227
219 233
219 245
219 252
219 254
219 262
219 277
219 278
219 282
219 292
219 297
220 163
220 164
220 169
220 179
220 185
220 191
220 200
220 203
220 204
220 214
220 218
220 230
220 232
220 250
220 251
220 256
220 257
220 266
220 267
220 276
220 283
220 288
220 302
220 308
221 149
221 150
221 159
221 160
221 172
221 181
221 193
221 195
221 198
221 219
221 222
221 227
221 228
221 231
221 233
221 247
221 252
221 254
221 262
221 268
221 278
221 279
221 292
221 295
221 297
221 298
222 149
222 150
222 159
222 160
222 172
222 174
222 193
222 195
222 198
222 199
222 219
222 221
222 227
222 228
222 229
222 231
222 247
222 252
222 254
222 260
222 262
222 268
222 278
222 279
222 292
222 295
222 298
222 301
223 157
223 165
223 168
223 180
223 184
223 188
223 189
223 192
223 201
223 202
223 206
223 207
223 213
223 216
223 235
223 239
223 241
223 243
223 253
223 255
223 261
223 274
223 281
223 287
223 303
224 156
224 158
224 166
224 174
224 177
224 194
224 196
224 199
224 212
224 225
224 228
224 229
224 231
224 234
224 240
224 258
224 259
224 260
224 263
224 269
224 284
224 285
224 291
224 311
225 156
225 161
225 177
225 182
225 190
225 194
225 196
225 209
225 212
225 215
225 224
225 234
225 236
225 240
225 258
225 259
225 263
225 265
225 272
225 284
225 285
225 293
226 154
226 162
226 167
226 170
226 176
226 183
226 187
226 190
226 209
226 210
226 211
226 215
226 217
226 236
226 237
226 246
226 248
226 249
226 265
226 270
226 271
226 280
226 286
226 294
226 305
227 149
227 153
227 160
227 172
227 181
227 193
227 195
227 198
227 205
227 219
227 221
227 222
227 228
227 233
227 245
227 247
227 252
227 254
227 262
227 268
227 278
227 282
227 292
227 295
227 297
227 298
228 159
228 160
228 166
228 172
228 174
228 193
228 195
228 198
228 199
228 212
228 221
228 222
228 224
228 227
228 229
228 231
228 240
228 247
228 252
228 254
228 260
228 268
228 269
228 278
228 279
228 291
228 295
228 298
228 301
229 158
229 159
229 166
229 174
229 177
229 193
229 198
229 199
229 212
229 222
229 224
229 228
229 231
229 234
229 240
229 247
229 258
229 259
229 260
229 268
229 269
229 279
229 284
229 291
229 301
230 173
230 178
230 179
230 185
230 192
230 203
230 206
230 214
230 218
230 220
230 235
230 239
230 241
230 244
230 250
230 256
230 257
230 267
230 273
230 288
230 289
231 159
231 166
231 172
231 174
231 193
231 198
231 199
231 212
231 221
231 222
231 224
231 228
231 229
231 240
231 247
231 252
231 258
231 260
231 268
231 269
231 278
231 279
231 284
231 291
231 295
231 301
232 155
232 164
232 169
232 171
232 186
232 191
232 197
232 200
232 204
232 205
232 220
232 233
232 245
232 250
232 251
232 264
232 266
232 276
232 277
232 283
232 296
232 299
232 302
233 171
233 181
233 186
233 195
233 197
233 205
233 219
233 221
233 227
233 232
233 245
233 254
233 262
233 264
233 277
233 282
233 297
233 299
233 307
234 156
234 177
234 182
234 194
234 196
234 209
234 212
234 224
234 225
234 229
234 236
234 240
234 258
234 259
234 260
234 263
234 269
234 272
234 284
234 285
234 293
234 311
235 157
235 168
235 173
235 180
235 184
235 189
235 192
235 201
235 202
235 206
235 207
235 216
235 223
235 230
235 239
235 241
235 243
235 244
235 255
235 257
235 261
235 273
235 274
235 281
235 287
235 303
235 306
235 312
236 161
236 162
236 182
236 183
236 190
236 194
236 196
236 209
236 215
236 225
236 226
236 234
236 237
236 248
236 259
236 263
236 265
236 272
236 285
236 286
236 293
236 294
236 304
237 162
237 170
237 176
237 182
237 183
237 190
237 196
237 209
237 210
237 215
237 217
237 226
237 236
237 246
237 248
237 263
237 265
237 270
237 272
237 280
237 286
237 294
237 304
237 305
237 313
238 175
238 184
238 188
238 189
238 202
238 213
238 216
238 243
238 253
238 255
238 275
238 281
238 287
238 309
238 310
239 173
239 178
239 180
239 192
239 201
239 203
239 206
239 207
239 214
239 223
239 230
239 235
239 241
239 244
239 255
239 256
239 257
239 261
239 273
239 274
239 288
239 289
239 303
239 306
240 158
240 166
240 174
240 177
240 194
240 199
240 212
240 224
240 225
240 228
240 229
240 231
240 234
240 247
240 258
240 259
240 260
240 263
240 269
240 279
240 284
240 285
240 291
240 301
240 311
240 317
241 173
241 180
241 189
241 192
241 201
241 203
241 206
241 207
241 223
241 230
241 235
241 239
241 243
241 244
241 255
241 257
241 261
241 273
241 274
241 287
241 289
241 303
241 306
241 312
242 187
242 208
242 210
242 211
242 217
242 246
242 248
242 249
242 270
242 271
242 280
242 290
242 300
242 314
243 165
243 175
243 184
243 188
243 189
243 201
243 202
243 207
243 213
243 216
243 223
243 235
243 238
243 241
243 253
243 255
243 261
243 274
243 275
243 281
243 287
243 309
243 310
243 312
243 321
243 322
244 173
244 178
244 185
244 192
244 203
244 206
244 207
244 214
244 218
244 230
244 235
244 239
244 241
244 256
244 257
244 261
244 267
244 273
244 274
244 288
244 289
244 303
244 306
244 315
245 171
245 181
245 186
245 197
245 204
245 205
245 219
245 227
245 232
245 233
245 251
245 262
245 264
245 266
245 277
245 282
245 296
245 299
245 307
246 176
246 187
246 208
246 210
246 211
246 215
246 217
246 226
246 237
246 242
246 248
246 249
246 265
246 270
246 271
246 280
246 286
246 290
246 294
246 300
246 305
246 313
246 314
246 318
246 328
247 172
247 193
247 195
247 198
247 199
247 212
247 221
247 222
247 227
247 228
247 229
247 231
247 240
247 252
247 254
247 260
247 262
247 268
247 269
247 278
247 279
247 291
247 292
247 295
247 298
247 301
247 323
247 325
248 176
248 183
248 187
248 190
248 210
248 211
248 215
248 217
248 226
248 236
248 237
248 242
248 246
248 249
248 265
248 270
248 271
248 272
248 280
248 286
248 294
248 300
248 305
248 313
248 318
249 187
249 208
249 210
249 211
249 217
249 226
249 242
249 246
249 248
249 270
249 271
249 280
249 290
249 300
249 305
249 314
249 318
250 179
250 185
250 191
250 200
250 203
250 204
250 214
250 218
250 220
250 230
250 232
250 251
250 256
250 257
250 266
250 267
250 276
250 283
250 288
250 289
250 296
250 302
250 308
250 329
251 191
251 200
251 204
251 214
251 218
251 220
251 232
251 245
251 250
251 256
251 264
251 266
251 267
251 276
251 283
251 288
251 296
251 299
251 302
251 308
251 329
252 193
252 195
252 198
252 219
252 221
252 222
252 227
252 228
252 231
252 247
252 254
252 260
252 262
252 268
252 278
252 279
252 282
252 292
252 295
252 297
252 298
252 301
252 320
252 325
253 175
253 184
253 188
253 189
253 202
253 213
253 216
253 223
253 238
253 243
253 255
253 261
253 275
253 281
253 287
253 309
253 310
253 321
253 322
254 193
254 195
254 198
254 219
254 221
254 222
254 227
254 228
254 233
254 247
254 252
254 262
254 268
254 278
254 279
254 282
254 292
254 295
254 297
254 298
254 320
254 325
254 327
255 184
255 188
255 189
255 201
255 202
255 207
255 213
255 216
255 223
255 235
255 238
255 239
255 241
255 243
255 253
255 261
255 274
255 275
255 281
255 287
255 303
255 309
255 310
255 312
255 321
255 324
255 335
255 336
256 178
256 185
256 203
256 206
256 214
256 218
256 220
256 230
256 239
256 244
256 250
256 251
256 257
256 267
256 273
256 276
256 283
256 288
256 289
256 302
256 306
256 308
256 315
256 334
257 178
257 185
257 192
257 203
257 206
257 214
257 218
257 220
257 230
257 235
257 239
257 241
257 244
257 250
257 256
257 261
257 267
257 273
257 274
257 283
257 288
257 289
257 306
257 315
257 334
258 194
258 199
258 212
258 224
258 225
258 229
258 231
258 234
258 240
258 259
258 260
258 263
258 269
258 279
258 284
258 285
258 291
258 293
258 301
258 311
258 317
258 319
258 332
259 194
259 196
259 209
259 212
259 224
259 225
259 229
259 234
259 236
259 240
259 258
259 260
259 263
259 269
259 272
259 284
259 285
259 293
259 304
259 311
259 316
259 317
259 319
260 198
260 199
260 212
260 222
260 224
260 228
260 229
260 231
260 234
260 240
260 247
260 252
260 258
260 259
260 268
260 269
260 278
260 279
260 284
260 285
260 291
260 295
260 301
260 311
260 317
260 323
260 332
261 180
261 189
261 192
261 201
261 202
261 206
261 207
261 216
261 223
261 235
261 239
261 241
261 243
261 244
261 253
261 255
261 257
261 273
261 274
261 281
261 287
261 303
261 306
261 309
261 312
261 321
261 324
261 336
262 181
262 195
262 205
262 219
262 221
262 222
262 227
262 233
262 245
262 247
262 252
262 254
262 268
262 277
262 278
262 282
262 292
262 295
262 297
262 298
262 307
262 320
262 325
262 327
262 333
263 194
263 196
263 209
263 224
263 225
263 234
263 236
263 237
263 240
263 258
263 259
263 265
263 272
263 284
263 285
263 293
263 294
263 304
263 311
263 316
263 319
263 326
264 186
264 197
264 204
264 205
264 232
264 233
264 245
264 251
264 266
264 276
264 277
264 282
264 296
264 299
264 302
264 307
264 330
264 331
264 337
265 183
265 190
265 209
265 210
265 215
265 225
265 226
265 236
265 237
265 246
265 248
265 263
265 270
265 272
265 280
265 286
265 293
265 294
265 304
265 305
265 313
265 316
265 326
265 339
266 197
266 200
266 204
266 220
266 232
266 245
266 250
266 251
266 264
266 267
266 276
266 277
266 283
266 296
266 299
266 302
266 307
266 308
266 329
266 330
266 331
266 337
266 348
267 191
267 214
267 218
267 220
267 230
267 244
267 250
267 251
267 256
267 257
267 266
267 273
267 276
267 283
267 288
267 289
267 296
267 302
267 308
267 315
267 329
267 334
267 352
268 193
268 198
268 221
268 222
268 227
268 228
268 229
268 231
268 247
268 252
268 254
268 260
268 262
268 269
268 278
268 279
268 291
268 292
268 295
268 297
268 298
268 301
268 320
268 323
268 325
268 347
269 199
269 212
269 224
269 228
269 229
269 231
269 234
269 240
269 247
269 258
269 259
269 260
269 268
269 279
269 284
269 285
269 291
269 293
269 301
269 311
269 317
269 319
269 323
269 332
269 344
270 210
270 211
270 215
270 217
270 226
270 237
270 242
270 246
270 248
270 249
270 265
270 271
270 272
270 280
270 286
270 290
270 294
270 300
270 304
270 305
270 313
270 314
270 318
270 328
270 339
271 208
271 210
271 211
271 217
271 226
271 242
271 246
271 248
271 249
271 270
271 280
271 290
271 300
271 305
271 314
271 318
271 328
271 338
271 351
272 196
272 209
272 215
272 225
272 234
272 236
272 237
272 248
272 259
272 263
272 265
272 270
272 285
272 286
272 293
272 294
272 304
272 313
272 316
272 319
272 326
272 342
272 357
273 192
273 203
273 206
273 207
273 230
273 235
273 239
273 241
273 244
273 256
273 257
273 261
273 267
273 274
273 288
273 289
273 303
273 306
273 312
273 315
273 324
273 340
273 346
273 349
274 201
274 206
274 207
274 223
274 235
274 239
274 241
274 243
274 244
274 255
274 257
274 261
274 273
274 281
274 287
274 289
274 303
274 306
274 309
274 312
274 321
274 324
274 336
274 346
274 358
275 213
275 216
275 238
275 243
275 253
275 255
275 281
275 287
275 309
275 310
275 321
275 322
275 335
276 200
276 204
276 218
276 220
276 232
276 250
276 251
276 256
276 264
276 266
276 267
276 277
276 283
276 288
276 296
276 299
276 302
276 308
276 329
276 330
276 331
276 348
276 352
276 360
277 205
277 219
277 232
277 233
277 245
277 262
277 264
277 266
277 276
277 282
277 296
277 297
277 299
277 307
277 327
277 330
277 331
277 333
277 337
277 341
278 219
278 221
278 222
278 227
278 228
278 231
278 247
278 252
278 254
278 260
278 262
278 268
278 279
278 282
278 291
278 292
278 295
278 297
278 298
278 301
278 320
278 323
278 325
278 327
278 347
278 350
278 354
279 198
279 221
279 222
279 228
279 229
279 231
279 240
279 247
279 252
279 254
279 258
279 260
279 268
279 269
279 278
279 284
279 291
279 292
279 295
279 298
279 301
279 317
279 320
279 323
279 325
279 332
279 347
279 353
280 210
280 211
280 217
280 226
280 237
280 242
280 246
280 248
280 249
280 265
280 270
280 271
280 286
280 290
280 294
280 300
280 305
280 313
280 314
280 318
280 328
280 338
280 339
280 351
280 355
281 202
281 213
281 216
281 223
281 235
281 238
281 243
281 253
281 255
281 261
281 274
281 275
281 287
281 303
281 309
281 310
281 312
281 321
281 322
281 324
281 335
281 336
281 345
281 362
282 205
282 219
282 227
282 233
282 245
282 252
282 254
282 262
282 264
282 277
282 278
282 292
282 297
282 298
282 299
282 307
282 320
282 325
282 327
282 333
282 337
282 341
282 350
282 363
283 214
283 218
283 220
283 232
283 250
283 251
283 256
283 257
283 266
283 267
283 276
283 288
283 289
283 296
283 299
283 302
283 308
283 315
283 329
283 331
283 334
283 348
283 352
283 360
284 212
284 224
284 225
284 229
284 231
284 234
284 240
284 258
284 259
284 260
284 263
284 269
284 279
284 285
284 291
284 293
284 301
284 311
284 316
284 317
284 319
284 323
284 332
284 343
284 344
285 224
285 225
285 234
285 236
285 240
285 258
285 259
285 260
285 263
285 269
285 272
285 284
285 291
285 293
285 304
285 311
285 316
285 317
285 319
285 326
285 342
285 343
285 344
285 361
286 210
286 215
286 226
286 236
286 237
286 246
286 248
286 265
286 270
286 272
286 280
286 294
286 304
286 305
286 313
286 318
286 326
286 328
286 339
286 356
287 216
287 223
287 235
287 238
287 241
287 243
287 253
287 255
287 261
287 274
287 275
287 281
287 303
287 306
287 309
287 310
287 312
287 321
287 322
287 324
287 335
287 336
287 345
287 358
287 359
287 362
288 214
288 218
288 220
288 230
288 239
288 244
288 250
288 251
288 256
288 257
288 267
288 273
288 276
288 283
288 289
288 302
288 306
288 308
288 315
288 329
288 334
288 340
288 349
288 352
289 203
289 214
289 218
289 230
289 239
289 241
289 244
289 250
289 256
289 257
289 267
289 273
289 274
289 283
289 288
289 303
289 306
289 308
289 315
289 334
289 340
289 346
289 349
290 208
290 211
290 217
290 242
290 246
290 249
290 270
290 271
290 280
290 300
290 305
290 314
290 318
290 328
290 338
290 351
290 369
291 212
291 224
291 228
291 229
291 231
291 240
291 247
291 258
291 260
291 268
291 269
291 278
291 279
291 284
291 285
291 295
291 298
291 301
291 311
291 317
291 319
291 323
291 332
291 344
291 347
291 353
292 219
292 221
292 222
292 227
292 247
292 252
292 254
292 262
292 268
292 278
292 279
292 282
292 295
292 297
292 298
292 301
292 307
292 320
292 325
292 327
292 333
292 347
292 350
292 354
292 365
293 225
293 234
293 236
293 258
293 259
293 263
293 265
293 269
293 272
293 284
293 285
293 294
293 304
293 311
293 316
293 317
293 319
293 326
293 342
293 343
293 344
293 357
293 361
294 215
294 226
294 236
294 237
294 246
294 248
294 263
294 265
294 270
294 272
294 280
294 286
294 293
294 304
294 305
294 313
294 316
294 318
294 326
294 339
294 342
294 356
294 357
294 366
295 221
295 222
295 227
295 228
295 231
295 247
295 252
295 254
295 260
295 262
295 268
295 278
295 279
295 291
295 292
295 297
295 298
295 301
295 320
295 323
295 325
295 327
295 332
295 347
295 350
295 353
295 354
296 232
296 245
296 250
296 251
296 264
296 266
296 267
296 276
296 277
296 283
296 299
296 302
296 307
296 308
296 329
296 330
296 331
296 337
296 341
296 348
296 360
296 367
297 219
297 221
297 227
297 233
297 252
297 254
297 262
297 268
297 277
297 278
297 282
297 292
297 295
297 298
297 307
297 320
297 325
297 327
297 333
297 341
297 350
297 354
297 363
297 365
298 221
298 222
298 227
298 228
298 247
298 252
298 254
298 262
298 268
298 278
298 279
298 282
298 291
298 292
298 295
298 297
298 301
298 320
298 323
298 325
298 327
298 333
298 347
298 350
298 353
298 354
299 232
299 233
299 245
299 251
299 264
299 266
299 276
299 277
299 282
299 283
299 296
299 302
299 307
299 308
299 330
299 331
299 333
299 337
299 341
299 348
299 367
299 372
300 217
300 242
300 246
300 248
300 249
300 270
300 271
300 280
300 290
300 305
300 314
300 318
300 328
300 338
300 351
300 355
300 369
301 222
301 228
301 229
301 231
301 240
301 247
301 252
301 258
301 260
301 268
301 269
301 278
301 279
301 284
301 291
301 292
301 295
301 298
301 311
301 317
301 320
301 323
301 325
301 332
301 344
301 347
301 353
301 354
301 376
301 381
302 220
302 232
302 250
302 251
302 256
302 264
302 266
302 267
302 276
302 283
302 288
302 296
302 299
302 308
302 329
302 330
302 331
302 334
302 348
302 352
302 360
302 375
303 223
303 235
303 239
303 241
303 244
303 255
303 261
303 273
303 274
303 281
303 287
303 289
303 306
303 309
303 312
303 315
303 321
303 324
303 335
303 336
303 345
303 346
303 349
303 358
303 359
303 373
304 236
304 237
304 259
304 263
304 265
304 270
304 272
304 285
304 286
304 293
304 294
304 305
304 313
304 316
304 319
304 326
304 339
304 342
304 343
304 356
304 357
304 361
304 366
304 377
305 226
305 237
305 246
305 248
305 249
305 265
305 270
305 271
305 280
305 286
305 290
305 294
305 300
305 304
305 313
305 314
305 318
305 326
305 328
305 338
305 339
305 351
305 355
305 356
305 368
305 378
306 235
306 239
306 241
306 244
306 256
306 257
306 261
306 273
306 274
306 287
306 288
306 289
306 303
306 312
306 315
306 324
306 334
306 336
306 340
306 346
306 349
306 358
306 359
306 371
306 373
307 233
307 245
307 262
307 264
307 266
307 277
307 282
307 292
307 296
307 297
307 299
307 327
307 330
307 331
307 333
307 337
307 341
307 363
307 365
307 367
307 372
307 382
308 220
308 250
308 251
308 256
308 266
308 267
308 276
308 283
308 288
308 289
308 296
308 299
308 302
308 315
308 329
308 331
308 334
308 340
308 348
308 352
308 360
308 374
308 375
308 384
309 238
309 243
309 253
309 255
309 261
309 274
309 275
309 281
309 287
309 303
309 310
309 312
309 321
309 322
309 324
309 335
309 336
309 345
309 359
309 362
309 364
309 370
309 388
310 238
310 243
310 253
310 255
310 275
310 281
310 287
310 309
310 312
310 321
310 322
310 335
310 345
310 362
310 364
310 370
311 224
311 234
311 240
311 258
311 259
311 260
311 263
311 269
311 284
311 285
311 291
311 293
311 301
311 316
311 317
311 319
311 323
311 332
311 342
311 343
311 344
311 361
311 379
311 393
312 235
312 241
312 243
312 255
312 261
312 273
312 274
312 281
312 287
312 303
312 306
312 309
312 310
312 321
312 322
312 324
312 335
312 336
312 345
312 346
312 358
312 359
312 362
312 370
312 373
312 383
312 389
313 237
313 246
313 248
313 265
313 270
313 272
313 280
313 286
313 294
313 304
313 305
313 314
313 316
313 318
313 326
313 328
313 339
313 351
313 355
313 356
313 357
313 366
313 368
313 378
313 390
313 391
314 242
314 246
314 249
314 270
314 271
314 280
314 290
314 300
314 305
314 313
314 318
314 328
314 338
314 339
314 351
314 355
314 369
314 378
314 387
315 244
315 256
315 257
315 267
315 273
315 283
315 288
315 289
315 303
315 306
315 308
315 324
315 329
315 334
315 340
315 346
315 349
315 352
315 371
315 373
315 374
316 259
316 263
316 265
316 272
316 284
316 285
316 293
316 294
316 304
316 311
316 313
316 319
316 326
316 342
316 343
316 344
316 356
316 357
316 361
316 366
316 377
316 397
317 240
317 258
317 259
317 260
317 269
317 279
317 284
317 285
317 291
317 293
317 301
317 311
317 319
317 323
317 332
317 343
317 344
317 347
317 353
317 361
317 376
317 379
317 381
317 393
318 246
318 248
318 249
318 270
318 271
318 280
318 286
318 290
318 294
318 300
318 305
318 313
318 314
318 328
318 338
318 339
318 351
318 355
318 356
318 368
318 369
318 378
318 387
318 395
318 400
319 258
319 259
319 263
319 269
319 272
319 284
319 285
319 291
319 293
319 304
319 311
319 316
319 317
319 326
319 332
319 342
319 343
319 344
319 357
319 361
319 377
319 393
319 399
320 252
320 254
320 262
320 268
320 278
320 279
320 282
320 292
320 295
320 297
320 298
320 301
320 323
320 325
320 327
320 333
320 341
320 347
320 350
320 354
320 363
320 365
320 386
320 392
320 401
321 243
321 253
321 255
321 261
321 274
321 275
321 281
321 287
321 303
321 309
321 310
321 312
321 322
321 324
321 335
321 336
321 345
321 358
321 359
321 362
321 364
321 370
321 383
321 388
322 243
322 253
322 275
322 281
322 287
322 309
322 310
322 312
322 321
322 335
322 336
322 345
322 359
322 362
322 364
322 370
322 388
322 394
323 247
323 260
323 268
323 269
323 278
323 279
323 284
323 291
323 295
323 298
323 301
323 311
323 317
323 320
323 325
323 332
323 344
323 347
323 350
323 353
323 354
323 376
323 379
323 381
323 392
323 396
323 404
324 255
324 261
324 273
324 274
324 281
324 287
324 303
324 306
324 309
324 312
324 315
324 321
324 335
324 336
324 340
324 345
324 346
324 349
324 358
324 359
324 362
324 370
324 373
324 383
324 389
325 247
325 252
325 254
325 262
325 268
325 278
325 279
325 282
325 292
325 295
325 297
325 298
325 301
325 320
325 323
325 327
325 333
325 347
325 350
325 353
325 354
325 363
325 365
325 381
325 386
325 392
325 396
325 401
326 263
326 265
326 272
326 285
326 286
326 293
326 294
326 304
326 305
326 313
326 316
326 319
326 339
326 342
326 343
326 356
326 357
326 361
326 366
326 368
326 377
326 390
326 391
326 397
327 254
327 262
327 277
327 278
327 282
327 292
327 295
327 297
327 298
327 307
327 320
327 325
327 333
327 337
327 341
327 347
327 350
327 354
327 363
327 365
327 372
327 382
327 386
327 392
327 401
328 246
328 270
328 271
328 280
328 286
328 290
328 300
328 305
328 313
328 314
328 318
328 338
328 339
328 351
328 355
328 356
328 368
328 369
328 378
328 387
328 395
328 400
329 250
329 251
329 266
329 267
329 276
329 283
329 288
329 296
329 302
329 308
329 315
329 330
329 331
329 334
329 340
329 348
329 352
329 360
329 374
329 375
329 380
329 384
329 385
329 403
330 264
330 266
330 276
330 277
330 296
330 299
330 302
330 307
330 329
330 331
330 333
330 337
330 341
330 348
330 360
330 363
330 367
330 372
330 380
330 382
330 385
330 402
330 410
331 264
331 266
331 276
331 277
331 283
331 296
331 299
331 302
331 307
331 308
331 329
331 330
331 337
331 341
331 348
331 352
331 360
331 367
331 372
331 375
331 380
331 385
331 402
331 413
332 258
332 260
332 269
332 279
332 284
332 291
332 295
332 301
332 311
332 317
332 319
332 323
332 343
332 344
332 347
332 353
332 376
332 379
332 381
332 393
332 396
332 404
332 416
333 262
333 277
333 282
333 292
333 297
333 298
333 299
333 307
333 320
333 325
333 327
333 330
333 337
333 341
333 350
333 354
333 363
333 365
333 367
333 372
333 382
333 386
333 401
333 411
333 412
334 256
334 257
334 267
334 283
334 288
334 289
334 302
334 306
334 308
334 315
334 329
334 340
334 346
334 348
334 349
334 352
334 360
334 371
334 374
334 375
334 384
334 398
334 408
334 409
335 255
335 275
335 281
335 287
335 303
335 309
335 310
335 312
335 321
335 322
335 324
335 336
335 345
335 358
335 359
335 362
335 364
335 370
335 383
335 388
335 394
335 406
335 418
336 255
336 261
336 274
336 281
336 287
336 303
336 306
336 309
336 312
336 321
336 322
336 324
336 335
336 345
336 346
336 349
336 358
336 359
336 362
336 364
336 370
336 373
336 383
336 388
336 389
336 405
336 406
337 264
337 266
337 277
337 282
337 296
337 299
337 307
337 327
337 330
337 331
337 333
337 341
337 348
337 363
337 365
337 367
337 372
337 380
337 382
337 402
337 410
337 411
338 271
338 280
338 290
338 300
338 305
338 314
338 318
338 328
338 351
338 355
338 368
338 369
338 378
338 387
338 400
338 415
338 417
339 265
339 270
339 280
339 286
339 294
339 304
339 305
339 313
339 314
339 318
339 326
339 328
339 342
339 351
339 355
339 356
339 357
339 366
339 368
339 378
339 390
339 391
339 395
339 400
340 273
340 288
340 289
340 306
340 308
340 315
340 324
340 329
340 334
340 346
340 349
340 352
340 371
340 373
340 374
340 375
340 384
340 398
340 408
340 409
341 277
341 282
341 296
341 297
341 299
341 307
341 320
341 327
341 330
341 331
341 333
341 337
341 350
341 363
341 365
341 367
341 372
341 380
341 382
341 401
341 402
341 410
341 411
341 412
342 272
342 285
342 293
342 294
342 304
342 311
342 316
342 319
342 326
342 339
342 343
342 344
342 356
342 357
342 361
342 366
342 377
342 391
342 397
342 399
342 419
342 421
343 284
343 285
343 293
343 304
343 311
343 316
343 317
343 319
343 326
343 332
343 342
343 344
343 357
343 361
343 366
343 377
343 379
343 393
343 397
343 399
343 407
343 419
343 428
344 269
344 284
344 285
344 291
344 293
344 301
344 311
344 316
344 317
344 319
344 323
344 332
344 342
344 343
344 347
344 353
344 361
344 376
344 377
344 379
344 381
344 393
344 399
344 404
344 407
344 416
345 281
345 287
345 303
345 309
345 310
345 312
345 321
345 322
345 324
345 335
345 336
345 346
345 358
345 359
345 362
345 364
345 370
345 373
345 383
345 388
345 389
345 394
345 405
345 406
345 418
346 273
346 274
346 289
346 303
346 306
346 312
346 315
346 324
346 334
346 336
346 340
346 345
346 349
346 358
346 359
346 371
346 373
346 374
346 383
346 389
346 398
346 405
346 408
346 422
347 268
347 278
347 279
347 291
347 292
347 295
347 298
347 301
347 317
347 320
347 323
347 325
347 327
347 332
347 344
347 350
347 353
347 354
347 376
347 379
347 381
347 386
347 392
347 396
347 404
347 414
347 429
348 266
348 276
348 283
348 296
348 299
348 302
348 308
348 329
348 330
348 331
348 334
348 337
348 352
348 360
348 367
348 372
348 374
348 375
348 380
348 384
348 385
348 402
348 403
348 413
348 420
349 273
349 288
349 289
349 303
349 306
349 315
349 324
349 334
349 336
349 340
349 346
349 358
349 359
349 371
349 373
349 374
349 384
349 389
349 398
349 408
349 409
349 422
350 278
350 282
350 292
350 295
350 297
350 298
350 320
350 323
350 325
350 327
350 333
350 341
350 347
350 353
350 354
350 363
350 365
350 382
350 386
350 392
350 396
350 401
350 412
350 425
350 433
351 271
351 280
351 290
351 300
351 305
351 313
351 314
351 318
351 328
351 338
351 339
351 355
351 356
351 368
351 369
351 378
351 387
351 390
351 395
351 400
351 415
351 417
351 427
352 267
352 276
352 283
352 288
352 302
352 308
352 315
352 329
352 331
352 334
352 340
352 348
352 360
352 371
352 374
352 375
352 380
352 384
352 385
352 403
352 409
352 420
352 423
353 279
353 291
353 295
353 298
353 301
353 317
353 323
353 325
353 332
353 344
353 347
353 350
353 354
353 376
353 379
353 381
353 386
353 392
353 393
353 396
353 404
353 414
353 416
353 429
354 278
354 292
354 295
354 297
354 298
354 301
354 320
354 323
354 325
354 327
354 333
354 347
354 350
354 353
354 363
354 365
354 376
354 381
354 386
354 392
354 396
354 401
354 414
354 425
354 429
355 280
355 300
355 305
355 313
355 314
355 318
355 328
355 338
355 339
355 351
355 356
355 366
355 368
355 369
355 378
355 387
355 390
355 391
355 395
355 400
355 415
355 417
355 427
355 430
356 286
356 294
356 304
356 305
356 313
356 316
356 318
356 326
356 328
356 339
356 342
356 351
356 355
356 357
356 366
356 368
356 377
356 378
356 390
356 391
356 395
356 397
356 400
356 421
356 426
356 427
356 430
357 272
357 293
357 294
357 304
357 313
357 316
357 319
357 326
357 339
357 342
357 343
357 356
357 361
357 366
357 368
357 377
357 390
357 391
357 395
357 397
357 399
357 419
357 421
357 426
357 434
358 274
358 287
358 303
358 306
358 312
358 321
358 324
358 335
358 336
358 345
358 346
358 349
358 359
358 362
358 370
358 371
358 373
358 383
358 388
358 389
358 398
358 405
358 406
358 422
358 431
358 435
358 439
359 287
359 303
359 306
359 309
359 312
359 321
359 322
359 324
359 335
359 336
359 345
359 346
359 349
359 358
359 362
359 364
359 370
359 373
359 383
359 388
359 389
359 405
359 406
359 418
359 422
359 431
359 435
360 276
360 283
360 296
360 302
360 308
360 329
360 330
360 331
360 334
360 348
360 352
360 367
360 374
360 375
360 380
360 384
360 385
360 402
360 403
360 409
360 413
360 420
360 423
361 285
361 293
361 304
361 311
361 316
361 317
361 319
361 326
361 342
361 343
361 344
361 357
361 366
361 377
361 379
361 391
361 393
361 397
361 399
361 407
361 419
361 421
361 428
361 434
362 281
362 287
362 309
362 310
362 312
362 321
362 322
362 324
362 335
362 336
362 345
362 358
362 359
362 364
362 370
362 383
362 388
362 389
362 394
362 405
362 406
362 418
362 424
362 431
362 432
363 282
363 297
363 307
363 320
363 325
363 327
363 330
363 333
363 337
363 341
363 350
363 354
363 365
363 367
363 372
363 382
363 386
363 392
363 401
363 402
363 410
363 411
363 412
363 425
363 433
363 444
364 309
364 310
364 321
364 322
364 335
364 336
364 345
364 359
364 362
364 370
364 383
364 388
364 394
364 405
364 406
364 418
364 424
364 432
365 292
365 297
365 307
365 320
365 325
365 327
365 333
365 337
365 341
365 350
365 354
365 363
365 367
365 372
365 382
365 386
365 392
365 401
365 410
365 411
365 412
365 425
365 433
366 294
366 304
366 313
366 316
366 326
366 339
366 342
366 343
366 355
366 356
366 357
366 361
366 368
366 377
366 378
366 390
366 391
366 395
366 397
366 400
366 419
366 421
366 426
366 430
366 434
366 445
367 296
367 299
367 307
367 330
367 331
367 333
367 337
367 341
367 348
367 360
367 363
367 365
367 372
367 380
367 382
367 385
367 402
367 410
367 411
367 412
367 413
367 437
367 444
368 305
368 313
368 318
368 326
368 328
368 338
368 339
368 351
368 355
368 356
368 357
368 366
368 369
368 378
368 387
368 390
368 391
368 395
368 397
368 400
368 415
368 417
368 421
368 426
368 427
368 430
368 448
369 290
369 300
369 314
369 318
369 328
369 338
369 351
369 355
369 368
369 378
369 387
369 400
369 415
369 417
369 427
369 436
369 440
370 309
370 310
370 312
370 321
370 322
370 324
370 335
370 336
370 345
370 358
370 359
370 362
370 364
370 383
370 388
370 389
370 394
370 405
370 406
370 418
370 424
370 431
370 432
370 435
370 452
371 306
371 315
371 334
371 340
371 346
371 349
371 352
371 358
371 373
371 374
371 375
371 384
371 389
371 398
371 408
371 409
371 422
371 423
371 438
371 442
371 453
371 459
372 299
372 307
372 327
372 330
372 331
372 333
372 337
372 341
372 348
372 363
372 365
372 367
372 380
372 382
372 401
372 402
372 410
372 411
372 412
372 413
372 437
372 444
373 303
373 306
373 312
373 315
373 324
373 336
373 340
373 345
373 346
373 349
373 358
373 359
373 371
373 374
373 383
373 389
373 398
373 405
373 408
373 422
373 431
373 435
373 438
373 439
373 442
374 308
374 315
374 329
374 334
374 340
374 346
374 348
374 349
374 352
374 360
374 371
374 373
374 375
374 384
374 385
374 398
374 403
374 408
374 409
374 420
374 423
374 438
374 442
374 446
374 453
375 302
375 308
375 329
375 331
375 334
375 340
375 348
375 352
375 360
375 371
375 374
375 380
375 384
375 385
375 403
375 409
375 413
375 420
375 423
375 446
375 454
376 301
376 317
376 323
376 332
376 344
376 347
376 353
376 354
376 379
376 381
376 392
376 393
376 396
376 404
376 407
376 414
376 416
376 429
376 441
376 443
377 304
377 316
377 319
377 326
377 342
377 343
377 344
377 356
377 357
377 361
377 366
377 390
377 391
377 393
377 397
377 399
377 407
377 419
377 421
377 426
377 428
377 434
377 445
377 451
378 305
378 313
378 314
378 318
378 328
378 338
378 339
378 351
378 355
378 356
378 366
378 368
378 369
378 387
378 390
378 391
378 395
378 400
378 415
378 417
378 426
378 427
378 430
378 436
378 440
378 448
378 461
379 311
379 317
379 323
379 332
379 343
379 344
379 347
379 353
379 361
379 376
379 381
379 393
379 396
379 399
379 404
379 407
379 414
379 416
379 428
379 429
379 441
379 443
379 447
380 329
380 330
380 331
380 337
380 341
380 348
380 352
380 360
380 367
380 372
380 375
380 382
380 384
380 385
380 402
380 403
380 410
380 411
380 413
380 420
380 437
380 450
380 454
381 301
381 317
381 323
381 325
381 332
381 344
381 347
381 353
381 354
381 376
381 379
381 386
381 392
381 393
381 396
381 404
381 407
381 414
381 416
381 425
381 429
381 441
381 443
381 458
381 464
382 307
382 327
382 330
382 333
382 337
382 341
382 350
382 363
382 365
382 367
382 372
382 380
382 386
382 401
382 402
382 410
382 411
382 412
382 413
382 425
382 433
382 437
382 444
382 462
383 312
383 321
383 324
383 335
383 336
383 345
383 346
383 358
383 359
383 362
383 364
383 370
383 373
383 388
383 389
383 394
383 398
383 405
383 406
383 418
383 422
383 431
383 432
383 435
383 439
383 452
383 456
383 460
384 308
384 329
384 334
384 340
384 348
384 349
384 352
384 360
384 371
384 374
384 375
384 380
384 385
384 398
384 403
384 408
384 409
384 420
384 423
384 438
384 446
384 453
384 454
384 474
385 329
385 330
385 331
385 348
385 352
385 360
385 367
385 374
385 375
385 380
385 384
385 402
385 403
385 409
385 410
385 413
385 420
385 423
385 437
385 446
385 450
385 454
386 320
386 325
386 327
386 333
386 347
386 350
386 353
386 354
386 363
386 365
386 381
386 382
386 392
386 396
386 401
386 411
386 412
386 414
386 425
386 429
386 433
386 449
386 457
386 458
386 467
387 314
387 318
387 328
387 338
387 351
387 355
387 368
387 369
387 378
387 395
387 400
387 415
387 417
387 427
387 436
387 440
387 448
387 465
387 466
388 309
388 321
388 322
388 335
388 336
388 345
388 358
388 359
388 362
388 364
388 370
388 383
388 389
388 394
388 405
388 406
388 418
388 424
388 431
388 432
388 435
388 452
388 455
388 456
389 312
389 324
389 336
389 345
389 346
389 349
389 358
389 359
389 362
389 370
389 371
389 373
389 383
389 388
389 398
389 405
389 406
389 408
389 418
389 422
389 431
389 435
389 439
389 442
389 456
389 460
389 473
390 313
390 326
390 339
390 351
390 355
390 356
390 357
390 366
390 368
390 377
390 378
390 391
390 395
390 397
390 400
390 417
390 421
390 426
390 427
390 430
390 434
390 445
390 448
390 461
390 463
391 313
391 326
391 339
391 342
391 355
391 356
391 357
391 361
391 366
391 368
391 377
391 378
391 390
391 395
391 397
391 400
391 419
391 421
391 426
391 427
391 430
391 434
391 445
391 461
391 463
391 468
392 320
392 323
392 325
392 327
392 347
392 350
392 353
392 354
392 363
392 365
392 376
392 381
392 386
392 396
392 401
392 404
392 412
392 414
392 425
392 429
392 433
392 443
392 449
392 457
392 458
392 464
393 311
393 317
393 319
393 332
393 343
393 344
393 353
393 361
393 376
393 377
393 379
393 381
393 399
393 404
393 407
393 414
393 416
393 419
393 428
393 441
393 443
393 447
393 451
393 472
394 322
394 335
394 345
394 362
394 364
394 370
394 383
394 388
394 405
394 406
394 418
394 424
394 432
394 452
394 455
395 318
395 328
395 339
395 351
395 355
395 356
395 357
395 366
395 368
395 378
395 387
395 390
395 391
395 397
395 400
395 415
395 417
395 421
395 426
395 427
395 430
395 436
395 440
395 445
395 448
395 461
395 463
395 465
395 475
396 323
396 325
396 332
396 347
396 350
396 353
396 354
396 376
396 379
396 381
396 386
396 392
396 401
396 404
396 414
396 416
396 425
396 429
396 433
396 441
396 443
396 449
396 457
396 458
396 464
397 316
397 326
397 342
397 343
397 356
397 357
397 361
397 366
397 368
397 377
397 390
397 391
397 395
397 399
397 407
397 419
397 421
397 426
397 428
397 430
397 434
397 445
397 451
397 463
397 468
397 471
397 476
398 334
398 340
398 346
398 349
398 358
398 371
398 373
398 374
398 383
398 384
398 389
398 405
398 408
398 409
398 422
398 423
398 431
398 435
398 438
398 439
398 442
398 453
398 459
398 460
398 470
398 473
399 319
399 342
399 343
399 344
399 357
399 361
399 377
399 379
399 393
399 397
399 407
399 416
399 419
399 421
399 428
399 434
399 441
399 447
399 451
399 471
399 476
399 482
400 318
400 328
400 338
400 339
400 351
400 355
400 356
400 366
400 368
400 369
400 378
400 387
400 390
400 391
400 395
400 415
400 417
400 426
400 427
400 430
400 436
400 440
400 448
400 461
400 463
400 465
400 466
400 475
401 320
401 325
401 327
401 333
401 341
401 350
401 354
401 363
401 365
401 372
401 382
401 386
401 392
401 396
401 410
401 411
401 412
401 425
401 429
401 433
401 444
401 449
401 457
401 462
401 467
402 330
402 331
402 337
402 341
402 348
402 360
402 363
402 367
402 372
402 380
402 382
402 385
402 403
402 410
402 411
402 412
402 413
402 420
402 437
402 444
402 450
402 469
403 329
403 348
403 352
403 360
403 374
403 375
403 380
403 384
403 385
403 402
403 408
403 409
403 413
403 420
403 423
403 438
403 446
403 450
403 453
403 454
403 474
403 484
404 323
404 332
404 344
404 347
404 353
404 376
404 379
404 381
404 392
404 393
404 396
404 407
404 414
404 416
404 429
404 441
404 443
404 447
404 449
404 458
404 464
404 472
404 478
404 488
405 336
405 345
405 346
405 358
405 359
405 362
405 364
405 370
405 373
405 383
405 388
405 389
405 394
405 398
405 406
405 418
405 422
405 431
405 432
405 435
405 439
405 452
405 456
405 460
405 473
405 479
405 481
405 487
406 335
406 336
406 345
406 358
406 359
406 362
406 364
406 370
406 383
406 388
406 389
406 394
406 405
406 418
406 422
406 424
406 431
406 432
406 435
406 439
406 452
406 455
406 456
406 460
406 479
406 480
406 481
407 343
407 344
407 361
407 376
407 377
407 379
407 381
407 393
407 397
407 399
407 404
407 414
407 416
407 419
407 428
407 434
407 441
407 443
407 447
407 451
407 471
407 472
407 482
408 334
408 340
408 346
408 349
408 371
408 373
408 374
408 384
408 389
408 398
408 403
408 409
408 422
408 423
408 435
408 438
408 439
408 442
408 446
408 453
408 459
408 470
408 473
408 474
408 483
408 491
409 334
409 340
409 349
409 352
409 360
409 371
409 374
409 375
409 384
409 385
409 398
409 403
409 408
409 420
409 422
409 423
409 438
409 442
409 446
409 453
409 454
409 459
409 470
409 474
409 483
409 489
410 330
410 337
410 341
410 363
410 365
410 367
410 372
410 380
410 382
410 385
410 401
410 402
410 411
410 412
410 413
410 420
410 433
410 437
410 444
410 450
410 462
410 469
410 477
410 493
411 333
411 337
411 341
411 363
411 365
411 367
411 372
411 380
411 382
411 386
411 401
411 402
411 410
411 412
411 413
411 425
411 433
411 437
411 444
411 457
411 462
411 467
411 469
411 477
412 333
412 341
412 350
412 363
412 365
412 367
412 372
412 382
412 386
412 392
412 401
412 402
412 410
412 411
412 425
412 433
412 437
412 444
412 449
412 457
412 462
412 467
412 469
412 477
412 498
413 331
413 348
413 360
413 367
413 372
413 375
413 380
413 382
413 385
413 402
413 403
413 410
413 411
413 420
413 423
413 437
413 444
413 446
413 450
413 454
413 469
413 484
414 347
414 353
414 354
414 376
414 379
414 381
414 386
414 392
414 393
414 396
414 404
414 407
414 416
414 425
414 429
414 441
414 443
414 447
414 449
414 458
414 464
414 472
414 478
414 485
414 488
414 492
415 338
415 351
415 355
415 368
415 369
415 378
415 387
415 395
415 400
415 417
415 427
415 436
415 440
415 448
415 461
415 465
415 466
415 475
415 499
416 332
416 344
416 353
416 376
416 379
416 381
416 393
416 396
416 399
416 404
416 407
416 414
416 419
416 428
416 429
416 441
416 443
416 447
416 451
416 458
416 464
416 472
416 478
416 488
416 496
417 338
417 351
417 355
417 368
417 369
417 378
417 387
417 390
417 395
417 400
417 415
417 427
417 430
417 436
417 440
417 448
417 461
417 465
417 466
417 475
417 495
418 335
418 345
418 359
418 362
418 364
418 370
418 383
418 388
418 389
418 394
418 405
418 406
418 424
418 431
418 432
418 435
418 452
418 455
418 456
418 460
418 479
418 480
418 481
419 342
419 343
419 357
419 361
419 366
419 377
419 391
419 393
419 397
419 399
419 407
419 416
419 421
419 426
419 428
419 434
419 445
419 447
419 451
419 468
419 471
419 476
419 482
420 348
420 352
420 360
420 374
420 375
420 380
420 384
420 385
420 402
420 403
420 409
420 410
420 413
420 423
420 437
420 446
420 450
420 453
420 454
420 474
420 484
421 342
421 356
421 357
421 361
421 366
421 368
421 377
421 390
421 391
421 395
421 397
421 399
421 419
421 426
421 427
421 428
421 430
421 434
421 445
421 451
421 461
421 463
421 468
421 471
421 476
422 346
422 349
422 358
422 359
422 371
422 373
422 383
422 389
422 398
422 405
422 406
422 408
422 409
422 431
422 435
422 438
422 439
422 442
422 453
422 456
422 459
422 460
422 470
422 473
422 481
422 483
422 487
422 491
423 352
423 360
423 371
423 374
423 375
423 384
423 385
423 398
423 403
423 408
423 409
423 413
423 420
423 438
423 442
423 446
423 450
423 453
423 454
423 459
423 474
423 483
423 484
423 489
424 362
424 364
424 370
424 388
424 394
424 406
424 418
424 432
424 452
424 455
424 479
424 480
425 350
425 354
425 363
425 365
425 381
425 382
425 386
425 392
425 396
425 401
425 411
425 412
425 414
425 429
425 433
425 449
425 457
425 458
425 462
425 464
425 467
425 485
425 490
425 494
425 497
426 356
426 357
426 366
426 368
426 377
426 378
426 390
426 391
426 395
426 397
426 400
426 419
426 421
426 427
426 430
426 434
426 445
426 448
426 461
426 463
426 468
426 475
426 476
426 486
426 505
427 351
427 355
427 356
427 368
427 369
427 378
427 387
427 390
427 391
427 395
427 400
427 415
427 417
427 421
427 426
427 430
427 436
427 440
427 445
427 448
427 461
427 463
427 465
427 466
427 475
427 486
427 495
427 501
428 343
428 361
428 377
428 379
428 393
428 397
428 399
428 407
428 416
428 419
428 421
428 434
428 441
428 447
428 451
428 468
428 471
428 472
428 476
428 482
428 496
429 347
429 353
429 354
429 376
429 379
429 381
429 386
429 392
429 396
429 401
429 404
429 414
429 416
429 425
429 433
429 441
429 443
429 449
429 457
429 458
429 464
429 472
429 478
429 485
429 492
429 494
430 355
430 356
430 366
430 368
430 378
430 390
430 391
430 395
430 397
430 400
430 417
430 421
430 426
430 427
430 434
430 440
430 445
430 448
430 461
430 463
430 465
430 468
430 475
430 486
430 495
430 501
430 505
431 358
431 359
431 362
431 370
431 373
431 383
431 388
431 389
431 398
431 405
431 406
431 418
431 422
431 432
431 435
431 439
431 442
431 452
431 456
431 460
431 470
431 473
431 479
431 480
431 481
431 487
431 500
431 507
432 362
432 364
432 370
432 383
432 388
432 394
432 405
432 406
432 418
432 424
432 431
432 435
432 452
432 455
432 456
432 479
432 480
432 481
432 504
433 350
433 363
433 365
433 382
433 386
433 392
433 396
433 401
433 410
433 411
433 412
433 425
433 429
433 444
433 449
433 457
433 458
433 462
433 467
433 469
433 477
433 490
433 494
433 497
433 498
434 357
434 361
434 366
434 377
434 390
434 391
434 397
434 399
434 407
434 419
434 421
434 426
434 428
434 430
434 445
434 447
434 451
434 463
434 468
434 471
434 476
434 482
434 502
434 513
435 358
435 359
435 370
435 373
435 383
435 388
435 389
435 398
435 405
435 406
435 408
435 418
435 422
435 431
435 432
435 438
435 439
435 442
435 452
435 456
435 460
435 470
435 473
435 479
435 480
435 481
435 487
435 491
435 500
436 369
436 378
436 387
436 395
436 400
436 415
436 417
436 427
436 440
436 448
436 461
436 465
436 466
436 475
436 495
436 499
436 506
437 367
437 372
437 380
437 382
437 385
437 402
437 410
437 411
437 412
437 413
437 420
437 444
437 450
437 454
437 462
437 469
437 477
437 484
437 493
437 509
437 512
438 371
438 373
438 374
438 384
438 398
438 403
438 408
438 409
438 422
438 423
438 435
438 439
438 442
438 446
438 453
438 459
438 460
438 470
438 473
438 474
438 483
438 489
438 491
438 503
438 517
439 358
439 373
439 383
439 389
439 398
439 405
439 406
439 408
439 422
439 431
439 435
439 438
439 442
439 453
439 456
439 459
439 460
439 470
439 473
439 479
439 481
439 483
439 487
439 491
439 500
439 510
439 517
440 369
440 378
440 387
440 395
440 400
440 415
440 417
440 427
440 430
440 436
440 448
440 461
440 463
440 465
440 466
440 475
440 486
440 495
440 499
440 506
440 521
441 376
441 379
441 381
441 393
441 396
441 399
441 404
441 407
441 414
441 416
441 428
441 429
441 443
441 447
441 451
441 458
441 464
441 471
441 472
441 478
441 482
441 485
441 488
441 492
441 496
441 515
441 525
442 371
442 373
442 374
442 389
442 398
442 408
442 409
442 422
442 423
442 431
442 435
442 438
442 439
442 446
442 453
442 456
442 459
442 460
442 470
442 473
442 474
442 483
442 487
442 489
442 491
442 503
442 510
442 517
443 376
443 379
443 381
443 392
443 393
443 396
443 404
443 407
443 414
443 416
443 429
443 441
443 447
443 449
443 458
443 464
443 472
443 478
443 485
443 488
443 492
443 496
444 363
444 367
444 372
444 382
444 401
444 402
444 410
444 411
444 412
444 413
444 433
444 437
444 450
444 457
444 462
444 467
444 469
444 477
444 490
444 493
444 497
444 498
444 509
445 366
445 377
445 390
445 391
445 395
445 397
445 419
445 421
445 426
445 427
445 430
445 434
445 448
445 451
445 461
445 463
445 468
445 471
445 475
445 476
445 486
445 501
445 502
445 505
445 513
446 374
446 375
446 384
446 385
446 403
446 408
446 409
446 413
446 420
446 423
446 438
446 442
446 450
446 453
446 454
446 459
446 474
446 483
446 484
446 489
446 503
446 511
446 518
446 519
447 379
447 393
447 399
447 404
447 407
447 414
447 416
447 419
447 428
447 434
447 441
447 443
447 451
447 464
447 471
447 472
447 476
447 478
447 482
447 488
447 496
447 515
447 516
447 520
447 525
448 368
448 378
448 387
448 390
448 395
448 400
448 415
448 417
448 426
448 427
448 430
448 436
448 440
448 445
448 461
448 463
448 465
448 466
448 475
448 486
448 495
448 499
448 501
448 506
448 521
449 386
449 392
449 396
449 401
449 404
449 412
449 414
449 425
449 429
449 433
449 443
449 457
449 458
449 462
449 464
449 467
449 478
449 485
449 490
449 492
449 494
449 497
449 522
449 523
449 527
450 380
450 385
450 402
450 403
450 410
450 413
450 420
450 423
450 437
450 444
450 446
450 454
450 469
450 474
450 484
450 493
450 508
450 509
450 511
450 512
451 377
451 393
451 397
451 399
451 407
451 416
451 419
451 421
451 428
451 434
451 441
451 445
451 447
451 468
451 471
451 472
451 476
451 482
451 488
451 496
451 502
451 513
451 515
451 516
451 520
452 370
452 383
452 388
452 394
452 405
452 406
452 418
452 424
452 431
452 432
452 435
452 455
452 456
452 460
452 479
452 480
452 481
452 487
452 500
452 504
452 507
452 514
452 528
453 371
453 374
453 384
453 398
453 403
453 408
453 409
453 420
453 422
453 423
453 438
453 439
453 442
453 446
453 454
453 459
453 470
453 473
453 474
453 483
453 489
453 491
453 503
453 517
453 518
453 519
453 529
454 375
454 380
454 384
454 385
454 403
454 409
454 413
454 420
454 423
454 437
454 446
454 450
454 453
454 474
454 484
454 489
454 508
454 511
454 512
454 518
454 519
455 388
455 394
455 406
455 418
455 424
455 432
455 452
455 456
455 479
455 480
455 504
455 507
455 514
455 528
456 383
456 388
456 389
456 405
456 406
456 418
456 422
456 431
456 432
456 435
456 439
456 442
456 452
456 455
456 460
456 470
456 473
456 479
456 480
456 481
456 487
456 500
456 504
456 507
456 510
456 528
456 530
457 386
457 392
457 396
457 401
457 411
457 412
457 425
457 429
457 433
457 444
457 449
457 458
457 462
457 464
457 467
457 477
457 485
457 490
457 492
457 494
457 497
457 498
457 522
457 523
457 527
458 381
458 386
458 392
458 396
458 404
458 414
458 416
458 425
458 429
458 433
458 441
458 443
458 449
458 457
458 464
458 467
458 472
458 478
458 485
458 488
458 490
458 492
458 494
458 497
458 522
458 524
458 527
459 371
459 398
459 408
459 409
459 422
459 423
459 438
459 439
459 442
459 446
459 453
459 460
459 470
459 473
459 474
459 483
459 489
459 491
459 503
459 510
459 517
459 518
459 519
459 529
460 383
460 389
460 398
460 405
460 406
460 418
460 422
460 431
460 435
460 438
460 439
460 442
460 452
460 456
460 459
460 470
460 473
460 479
460 480
460 481
460 487
460 491
460 500
460 504
460 507
460 510
460 517
460 530
460 535
461 378
461 390
461 391
461 395
461 400
461 415
461 417
461 421
461 426
461 427
461 430
461 436
461 440
461 445
461 448
461 463
461 465
461 466
461 468
461 475
461 486
461 495
461 499
461 501
461 502
461 505
461 506
461 521
461 532
461 542
462 382
462 401
462 410
462 411
462 412
462 425
462 433
462 437
462 444
462 449
462 457
462 467
462 469
462 477
462 490
462 493
462 494
462 497
462 498
462 509
462 523
462 526
462 540
463 390
463 391
463 395
463 397
463 400
463 421
463 426
463 427
463 430
463 434
463 440
463 445
463 448
463 461
463 465
463 468
463 475
463 476
463 486
463 495
463 501
463 502
463 505
463 532
463 541
463 542
464 381
464 392
464 396
464 404
464 414
464 416
464 425
464 429
464 441
464 443
464 447
464 449
464 457
464 458
464 472
464 478
464 485
464 488
464 492
464 494
464 496
464 522
464 524
464 525
464 531
465 387
465 395
465 400
465 415
465 417
465 427
465 430
465 436
465 440
465 448
465 461
465 463
465 466
465 475
465 486
465 495
465 499
465 501
465 506
465 521
465 532
465 533
466 387
466 400
466 415
466 417
466 427
466 436
466 440
466 448
466 461
466 465
466 475
466 486
466 495
466 499
466 506
466 521
466 533
466 544
467 386
467 401
467 411
467 412
467 425
467 433
467 444
467 449
467 457
467 458
467 462
467 469
467 477
467 485
467 490
467 494
467 497
467 498
467 509
467 523
467 526
467 527
467 540
468 391
468 397
468 419
468 421
468 426
468 428
468 430
468 434
468 445
468 451
468 461
468 463
468 471
468 476
468 482
468 486
468 501
468 502
468 505
468 513
468 516
468 534
468 541
469 402
469 410
469 411
469 412
469 413
469 433
469 437
469 444
469 450
469 462
469 467
469 477
469 484
469 493
469 497
469 498
469 508
469 509
469 512
469 526
469 539
470 398
470 408
470 409
470 422
470 431
470 435
470 438
470 439
470 442
470 453
470 456
470 459
470 460
470 473
470 481
470 483
470 487
470 489
470 491
470 500
470 503
470 510
470 517
470 529
470 537
470 543
471 397
471 399
471 407
471 419
471 421
471 428
471 434
471 441
471 445
471 447
471 451
471 468
471 472
471 476
471 482
471 488
471 496
471 502
471 513
471 515
471 516
471 520
472 393
472 404
472 407
472 414
472 416
472 428
472 429
472 441
472 443
472 447
472 451
472 458
472 464
472 471
472 478
472 482
472 485
472 488
472 492
472 496
472 515
472 520
472 524
472 525
472 531
473 389
473 398
473 405
473 408
473 422
473 431
473 435
473 438
473 439
473 442
473 453
473 456
473 459
473 460
473 470
473 479
473 481
473 483
473 487
473 491
473 500
473 503
473 507
473 510
473 517
473 530
473 535
473 537
474 384
474 403
474 408
474 409
474 420
474 423
474 438
474 442
474 446
474 450
474 453
474 454
474 459
474 483
474 484
474 489
474 503
474 508
474 511
474 518
474 519
474 529
474 536
474 538
475 395
475 400
475 415
475 417
475 426
475 427
475 430
475 436
475 440
475 445
475 448
475 461
475 463
475 465
475 466
475 486
475 495
475 499
475 501
475 505
475 506
475 521
475 532
475 533
475 542
475 547
476 397
476 399
476 419
476 421
476 426
476 428
476 434
476 445
476 447
476 451
476 463
476 468
476 471
476 482
476 496
476 502
476 505
476 513
476 515
476 516
476 520
476 534
477 410
477 411
477 412
477 433
477 437
477 444
477 457
477 462
477 467
477 469
477 490
477 493
477 494
477 497
477 498
477 509
477 512
477 523
477 526
477 539
477 540
477 551
478 404
478 414
478 416
478 429
478 441
478 443
478 447
478 449
478 458
478 464
478 472
478 485
478 488
478 492
478 494
478 496
478 515
478 522
478 524
478 525
478 531
478 550
479 405
479 406
479 418
479 424
479 431
479 432
479 435
479 439
479 452
479 455
479 456
479 460
479 473
479 480
479 481
479 487
479 500
479 504
479 507
479 514
479 528
479 530
479 535
479 552
479 554
480 406
480 418
480 424
480 431
480 432
480 435
480 452
480 455
480 456
480 460
480 479
480 481
480 487
480 500
480 504
480 507
480 514
480 528
480 530
480 554
481 405
481 406
481 418
481 422
481 431
481 432
481 435
481 439
481 452
481 456
481 460
481 470
481 473
481 479
481 480
481 487
481 491
481 500
481 504
481 507
481 510
481 528
481 530
481 535
481 537
481 552
481 554
482 399
482 407
482 419
482 428
482 434
482 441
482 447
482 451
482 468
482 471
482 472
482 476
482 488
482 496
482 502
482 513
482 515
482 516
482 520
482 525
482 549
482 555
483 408
483 409
483 422
483 423
483 438
483 439
483 442
483 446
483 453
483 459
483 470
483 473
483 474
483 487
483 489
483 491
483 503
483 510
483 517
483 518
483 519
483 529
483 537
483 538
483 543
483 556
483 564
484 403
484 413
484 420
484 423
484 437
484 446
484 450
484 454
484 469
484 474
484 489
484 493
484 508
484 509
484 511
484 512
484 518
484 519
484 536
484 545
484 546
485 414
485 425
485 429
485 441
485 443
485 449
485 457
485 458
485 464
485 467
485 472
485 478
485 488
485 490
485 492
485 494
485 497
485 522
485 523
485 524
485 527
485 531
485 548
485 550
485 558
486 426
486 427
486 430
486 440
486 445
486 448
486 461
486 463
486 465
486 466
486 468
486 475
486 495
486 499
486 501
486 502
486 505
486 506
486 521
486 532
486 533
486 541
486 542
486 547
487 405
487 422
487 431
487 435
487 439
487 442
487 452
487 456
487 460
487 470
487 473
487 479
487 480
487 481
487 483
487 491
487 500
487 504
487 507
487 510
487 517
487 528
487 530
487 535
487 537
487 543
487 552
487 559
488 404
488 414
488 416
488 441
488 443
488 447
488 451
488 458
488 464
488 471
488 472
488 478
488 482
488 485
488 492
488 496
488 515
488 520
488 522
488 524
488 525
488 531
488 549
488 550
488 553
489 409
489 423
489 438
489 442
489 446
489 453
489 454
489 459
489 470
489 474
489 483
489 484
489 491
489 503
489 508
489 511
489 517
489 518
489 519
489 529
489 536
489 538
489 543
489 556
489 563
489 565
490 425
490 433
490 444
490 449
490 457
490 458
490 462
490 467
490 477
490 485
490 492
490 494
490 497
490 498
490 522
490 523
490 526
490 527
490 540
490 548
490 551
490 562
491 408
491 422
491 435
491 438
491 439
491 442
491 453
491 459
491 460
491 470
491 473
491 481
491 483
491 487
491 489
491 500
491 503
491 510
491 517
491 518
491 529
491 535
491 537
491 538
491 543
491 556
491 564
492 414
492 429
492 441
492 443
492 449
492 457
492 458
492 464
492 472
492 478
492 485
492 488
492 490
492 494
492 496
492 515
492 522
492 524
492 525
492 527
492 531
492 548
492 550
492 558
493 410
493 437
493 444
493 450
493 462
493 469
493 477
493 484
493 497
493 498
493 508
493 509
493 511
493 512
493 526
493 539
493 545
493 546
493 551
493 557
493 560
494 425
494 429
494 433
494 449
494 457
494 458
494 462
494 464
494 467
494 477
494 478
494 485
494 490
494 492
494 497
494 498
494 522
494 523
494 524
494 526
494 527
494 540
494 548
494 558
494 562
495 417
495 427
495 430
495 436
495 440
495 448
495 461
495 463
495 465
495 466
495 475
495 486
495 499
495 501
495 505
495 506
495 521
495 532
495 533
495 541
495 542
495 544
495 547
496 416
496 428
496 441
496 443
496 447
496 451
496 464
496 471
496 472
496 476
496 478
496 482
496 488
496 492
496 513
496 515
496 516
496 520
496 524
496 525
496 531
496 549
496 550
496 553
496 555
497 425
497 433
497 444
497 449
497 457
497 458
497 462
497 467
497 469
497 477
497 485
497 490
497 493
497 494
497 498
497 509
497 522
497 523
497 526
497 527
497 539
497 540
497 548
497 551
497 557
497 562
497 570
498 412
498 433
498 444
498 457
498 462
498 467
498 469
498 477
498 490
498 493
498 494
498 497
498 509
498 523
498 526
498 527
498 539
498 540
498 551
498 557
498 560
498 570
499 415
499 436
499 440
499 448
499 461
499 465
499 466
499 475
499 486
499 495
499 501
499 506
499 521
499 532
499 533
499 544
499 547
499 573
499 578
500 431
500 435
500 439
500 452
500 456
500 460
500 470
500 473
500 479
500 480
500 481
500 487
500 491
500 504
500 507
500 510
500 514
500 517
500 528
500 530
500 535
500 537
500 552
500 554
500 559
500 561
501 427
501 430
501 445
501 448
501 461
501 463
501 465
501 468
501 475
501 486
501 495
501 499
501 502
501 505
501 506
501 513
501 521
501 532
501 533
501 534
501 541
501 542
501 547
501 566
501 576
501 579
502 434
502 445
502 451
502 461
502 463
502 468
502 471
502 476
502 482
502 486
502 501
502 505
502 513
502 516
502 520
502 532
502 534
502 541
502 542
502 566
502 568
502 569
503 438
503 442
503 446
503 453
503 459
503 470
503 473
503 474
503 483
503 489
503 491
503 510
503 517
503 518
503 519
503 529
503 537
503 538
503 543
503 556
503 563
503 564
503 565
503 585
504 432
504 452
504 455
504 456
504 460
504 479
504 480
504 481
504 487
504 500
504 507
504 514
504 528
504 530
504 535
504 552
504 554
504 561
505 426
505 430
505 445
505 461
505 463
505 468
505 475
505 476
505 486
505 495
505 501
505 502
505 513
505 516
505 521
505 532
505 534
505 541
505 542
505 566
505 568
505 579
506 436
506 440
506 448
506 461
506 465
506 466
506 475
506 486
506 495
506 499
506 501
506 521
506 532
506 533
506 542
506 544
506 547
506 573
506 576
506 578
507 431
507 452
507 455
507 456
507 460
507 473
507 479
507 480
507 481
507 487
507 500
507 504
507 510
507 514
507 528
507 530
507 535
507 552
507 554
507 559
507 561
508 450
508 454
508 469
508 474
508 484
508 489
508 493
508 509
508 511
508 512
508 518
508 519
508 536
508 538
508 539
508 545
508 546
508 560
508 563
508 571
508 575
508 581
509 437
509 444
509 450
509 462
509 467
509 469
509 477
509 484
509 493
509 497
509 498
509 508
509 512
509 526
509 539
509 540
509 545
509 546
509 551
509 557
509 560
509 580
509 581
509 582
510 439
510 442
510 456
510 459
510 460
510 470
510 473
510 481
510 483
510 487
510 491
510 500
510 503
510 507
510 517
510 518
510 529
510 530
510 535
510 537
510 543
510 552
510 556
510 559
510 564
510 577
510 584
511 446
511 450
511 454
511 474
511 484
511 489
511 493
511 508
511 512
511 518
511 519
511 536
511 538
511 545
511 546
511 563
511 565
511 571
511 575
512 437
512 450
512 454
512 469
512 477
512 484
512 493
512 508
512 509
512 511
512 519
512 536
512 539
512 545
512 546
512 557
512 560
512 571
512 575
512 581
513 434
513 445
513 451
513 468
513 471
513 476
513 482
513 496
513 501
513 502
513 505
513 515
513 516
513 520
513 534
513 541
513 549
513 555
513 566
513 567
513 568
513 569
513 591
514 452
514 455
514 479
514 480
514 500
514 504
514 507
514 528
514 530
514 552
514 554
514 561
514 586
514 590
515 441
515 447
515 451
515 471
515 472
515 476
515 478
515 482
515 488
515 492
515 496
515 513
515 516
515 520
515 524
515 525
515 531
515 549
515 550
515 553
515 555
515 567
515 569
515 572
516 447
516 451
516 468
516 471
516 476
516 482
516 496
516 502
516 505
516 513
516 515
516 520
516 525
516 534
516 541
516 549
516 553
516 555
516 567
516 568
516 569
517 438
517 439
517 442
517 453
517 459
517 460
517 470
517 473
517 483
517 487
517 489
517 491
517 500
517 503
517 510
517 518
517 529
517 535
517 537
517 538
517 543
517 556
517 559
517 564
517 565
517 577
517 584
517 585
517 592
518 446
518 453
518 454
518 459
518 474
518 483
518 484
518 489
518 491
518 503
518 508
518 510
518 511
518 517
518 519
518 529
518 536
518 538
518 543
518 556
518 563
518 564
518 565
518 571
518 585
518 587
519 446
519 453
519 454
519 459
519 474
519 483
519 484
519 489
519 503
519 508
519 511
519 512
519 518
519 529
519 536
519 538
519 545
519 546
519 556
519 563
519 564
519 565
519 571
519 575
519 587
520 447
520 451
520 471
520 472
520 476
520 482
520 488
520 496
520 502
520 513
520 515
520 516
520 525
520 531
520 534
520 549
520 553
520 555
520 567
520 568
520 569
520 593
521 440
521 448
521 461
521 465
521 466
521 475
521 486
521 495
521 499
521 501
521 505
521 506
521 532
521 533
521 541
521 542
521 544
521 547
521 573
521 576
521 578
521 579
521 596
522 449
522 457
522 458
522 464
522 478
522 485
522 488
522 490
522 492
522 494
522 497
522 523
522 524
522 525
522 527
522 531
522 540
522 548
522 550
522 558
522 562
522 572
522 574
522 583
522 599
523 449
523 457
523 462
523 467
523 477
523 485
523 490
523 494
523 497
523 498
523 522
523 524
523 526
523 527
523 539
523 540
523 548
523 551
523 557
523 558
523 562
523 570
523 574
523 580
524 458
524 464
524 472
524 478
524 485
524 488
524 492
524 494
524 496
524 515
524 522
524 523
524 525
524 527
524 531
524 548
524 549
524 550
524 553
524 558
524 562
524 572
524 574
524 583
525 441
525 447
525 464
525 472
525 478
525 482
525 488
525 492
525 496
525 515
525 516
525 520
525 522
525 524
525 531
525 549
525 550
525 553
525 555
525 558
525 567
525 572
525 597
525 600
526 462
526 467
526 469
526 477
526 490
526 493
526 494
526 497
526 498
526 509
526 523
526 527
526 539
526 540
526 551
526 557
526 560
526 562
526 570
526 580
526 582
527 449
527 457
527 458
527 467
527 485
527 490
527 492
527 494
527 497
527 498
527 522
527 523
527 524
527 526
527 540
527 548
527 550
527 551
527 558
527 562
527 570
527 574
527 580
527 583
527 599
528 452
528 455
528 456
528 479
528 480
528 481
528 487
528 500
528 504
528 507
528 514
528 530
528 535
528 552
528 554
528 559
528 561
528 586
528 588
528 590
529 453
529 459
529 470
529 474
529 483
529 489
529 491
529 503
529 510
529 517
529 518
529 519
529 537
529 538
529 543
529 556
529 563
529 564
529 565
529 577
529 585
529 587
529 592
530 456
530 460
530 473
530 479
530 480
530 481
530 487
530 500
530 504
530 507
530 510
530 514
530 528
530 535
530 537
530 552
530 554
530 559
530 561
530 584
530 586
530 588
530 607
531 464
531 472
531 478
531 485
531 488
531 492
531 496
531 515
531 520
531 522
531 524
531 525
531 548
531 549
531 550
531 553
531 555
531 558
531 572
531 574
531 583
531 600
531 604
532 461
532 463
532 465
532 475
532 486
532 495
532 499
532 501
532 502
532 505
532 506
532 521
532 533
532 534
532 541
532 542
532 544
532 547
532 566
532 573
532 576
532 578
532 579
532 589
532 596
532 601
532 603
533 465
533 466
533 475
533 486
533 495
533 499
533 501
533 506
533 521
533 532
533 542
533 544
533 547
533 573
533 576
533 578
533 596
533 609
534 468
534 476
534 501
534 502
534 505
534 513
534 516
534 520
534 532
534 541
534 542
534 555
534 566
534 567
534 568
534 569
534 579
534 589
534 591
534 595
534 598
535 460
535 473
535 479
535 481
535 487
535 491
535 500
535 504
535 507
535 510
535 517
535 528
535 530
535 537
535 543
535 552
535 554
535 559
535 561
535 564
535 577
535 584
535 588
535 611
536 474
536 484
536 489
536 508
536 511
536 512
536 518
536 519
536 538
536 545
536 546
536 556
536 560
536 563
536 565
536 571
536 575
536 581
536 587
536 594
536 602
536 610
537 470
537 473
537 481
537 483
537 487
537 491
537 500
537 503
537 510
537 517
537 529
537 530
537 535
537 538
537 543
537 552
537 556
537 559
537 564
537 577
537 584
537 585
537 588
537 592
537 605
537 611
538 474
538 483
538 489
538 491
538 503
538 508
538 511
538 517
538 518
538 519
538 529
538 536
538 537
538 543
538 546
538 556
538 563
538 564
538 565
538 571
538 577
538 585
538 587
538 592
538 594
538 610
538 619
539 469
539 477
539 493
539 497
539 498
539 508
539 509
539 512
539 523
539 526
539 540
539 545
539 546
539 551
539 557
539 560
539 570
539 575
539 580
539 581
539 582
539 606
539 612
540 462
540 467
540 477
540 490
540 494
540 497
540 498
540 509
540 522
540 523
540 526
540 527
540 539
540 548
540 551
540 557
540 560
540 562
540 570
540 574
540 580
540 582
540 608
540 612
540 614
540 616
541 463
541 468
541 486
541 495
541 501
541 502
541 505
541 513
541 516
541 521
541 532
541 534
541 542
541 547
541 566
541 568
541 569
541 576
541 579
541 589
541 591
541 598
541 603
542 461
542 463
542 475
542 486
542 495
542 501
542 502
542 505
542 506
542 521
542 532
542 533
542 534
542 541
542 547
542 566
542 568
542 573
542 576
542 579
542 589
542 591
542 601
542 603
543 470
543 483
543 487
543 489
543 491
543 503
543 510
543 517
543 518
543 529
543 535
543 537
543 538
543 556
543 559
543 564
543 565
543 577
543 584
543 585
543 587
543 592
543 605
543 611
543 620
544 466
544 495
544 499
544 506
544 521
544 532
544 533
544 547
544 573
544 576
544 578
544 596
544 601
544 609
544 623
545 484
545 493
545 508
545 509
545 511
545 512
545 519
545 536
545 539
545 546
545 551
545 557
545 560
545 563
545 571
545 575
545 581
545 582
545 594
545 602
545 606
545 613
546 484
546 493
546 508
546 509
546 511
546 512
546 519
546 536
546 538
546 539
546 545
546 557
546 560
546 563
546 565
546 571
546 575
546 581
546 594
546 602
546 613
547 475
547 486
547 495
547 499
547 501
547 506
547 521
547 532
547 533
547 541
547 542
547 544
547 566
547 573
547 576
547 578
547 579
547 596
547 601
547 603
547 609
547 623
548 485
548 490
548 492
548 494
548 497
548 522
548 523
548 524
548 527
548 531
548 540
548 550
548 558
548 562
548 570
548 572
548 574
548 583
548 599
548 604
548 608
548 614
548 615
548 629
549 482
549 488
549 496
549 513
549 515
549 516
549 520
549 524
549 525
549 531
549 550
549 553
549 555
549 567
549 569
549 572
549 593
549 595
549 597
549 600
549 617
549 625
550 478
550 485
550 488
550 492
550 496
550 515
550 522
550 524
550 525
550 527
550 531
550 548
550 549
550 553
550 558
550 572
550 574
550 583
550 597
550 599
550 600
550 604
550 615
550 617
551 477
551 490
551 493
551 497
551 498
551 509
551 523
551 526
551 527
551 539
551 540
551 545
551 557
551 560
551 562
551 570
551 580
551 581
551 582
551 606
551 612
551 614
551 616
552 479
552 481
552 487
552 500
552 504
552 507
552 510
552 514
552 528
552 530
552 535
552 537
552 554
552 559
552 561
552 577
552 584
552 586
552 588
552 590
552 607
552 611
552 618
552 630
552 635
553 488
553 496
553 515
553 516
553 520
553 524
553 525
553 531
553 549
553 550
553 555
553 558
553 567
553 569
553 572
553 583
553 593
553 597
553 600
553 604
553 617
553 625
554 479
554 480
554 481
554 500
554 504
554 507
554 514
554 528
554 530
554 535
554 552
554 559
554 561
554 584
554 586
554 588
554 590
554 607
554 618
554 624
554 630
554 635
555 482
555 496
555 513
555 515
555 516
555 520
555 525
555 531
555 534
555 549
555 553
555 567
555 568
555 569
555 572
555 591
555 593
555 595
555 597
555 598
555 617
555 625
555 628
556 483
556 489
556 491
556 503
556 510
556 517
556 518
556 519
556 529
556 536
556 537
556 538
556 543
556 563
556 564
556 565
556 577
556 585
556 587
556 592
556 605
556 610
556 619
556 620
556 621
557 493
557 497
557 498
557 509
557 512
557 523
557 526
557 539
557 540
557 545
557 546
557 551
557 560
557 562
557 570
557 575
557 580
557 581
557 582
557 606
557 612
557 613
557 616
557 636
558 485
558 492
558 494
558 522
558 523
558 524
558 525
558 527
558 531
558 548
558 550
558 553
558 562
558 572
558 574
558 583
558 599
558 600
558 604
558 608
558 615
558 629
559 487
559 500
559 507
559 510
559 517
559 528
559 530
559 535
559 537
559 543
559 552
559 554
559 561
559 564
559 577
559 584
559 588
559 592
559 605
559 607
559 611
559 622
559 630
559 639
560 493
560 498
560 508
560 509
560 512
560 526
560 536
560 539
560 540
560 545
560 546
560 551
560 557
560 570
560 571
560 575
560 580
560 581
560 582
560 602
560 606
560 612
560 613
560 636
561 500
561 504
561 507
561 514
561 528
561 530
561 535
561 552
561 554
561 559
561 586
561 588
561 590
561 607
561 618
561 624
561 635
562 490
562 494
562 497
562 522
562 523
562 524
562 526
562 527
562 540
562 548
562 551
562 557
562 558
562 570
562 574
562 580
562 582
562 583
562 599
562 608
562 612
562 614
562 615
562 616
562 629
562 637
563 489
563 503
563 508
563 511
563 518
563 519
563 529
563 536
563 538
563 545
563 546
563 556
563 564
563 565
563 571
563 575
563 581
563 585
563 587
563 592
563 594
563 602
563 610
563 619
563 621
563 626
564 483
564 491
564 503
564 510
564 517
564 518
564 519
564 529
564 535
564 537
564 538
564 543
564 556
564 559
564 563
564 565
564 577
564 584
564 585
564 587
564 592
564 605
564 611
564 619
564 620
564 621
564 622
564 631
565 489
565 503
565 511
565 517
565 518
565 519
565 529
565 536
565 538
565 543
565 546
565 556
565 563
565 564
565 571
565 575
565 577
565 585
565 587
565 592
565 594
565 605
565 610
565 619
565 620
565 621
566 501
566 502
566 505
566 513
566 532
566 534
566 541
566 542
566 547
566 568
566 569
566 576
566 579
566 589
566 591
566 595
566 598
566 601
566 603
566 627
566 632
566 633
567 513
567 515
567 516
567 520
567 525
567 534
567 549
567 553
567 555
567 568
567 569
567 572
567 591
567 593
567 595
567 597
567 598
567 617
567 625
567 628
567 632
568 502
568 505
568 513
568 516
568 520
568 534
568 541
568 542
568 555
568 566
568 567
568 569
568 579
568 589
568 591
568 593
568 595
568 598
568 603
568 628
568 632
568 633
569 502
569 513
569 515
569 516
569 520
569 534
569 541
569 549
569 553
569 555
569 566
569 567
569 568
569 589
569 591
569 593
569 595
569 597
569 598
569 625
569 628
569 632
570 497
570 498
570 523
570 526
570 527
570 539
570 540
570 548
570 551
570 557
570 560
570 562
570 574
570 580
570 582
570 599
570 606
570 608
570 612
570 614
570 616
570 637
571 508
571 511
571 512
571 518
571 519
571 536
571 538
571 545
571 546
571 560
571 563
571 565
571 575
571 581
571 585
571 587
571 594
571 602
571 610
571 613
571 619
571 626
571 638
571 640
572 515
572 522
572 524
572 525
572 531
572 548
572 549
572 550
572 553
572 555
572 558
572 567
572 574
572 583
572 593
572 597
572 599
572 600
572 604
572 615
572 617
572 625
572 634
572 641
573 499
573 506
573 521
573 532
573 533
573 542
573 544
573 547
573 576
573 578
573 579
573 596
573 601
573 609
573 623
573 627
573 642
574 522
574 523
574 524
574 527
574 531
574 540
574 548
574 550
574 558
574 562
574 570
574 572
574 583
574 599
574 600
574 604
574 608
574 614
574 615
574 616
574 629
574 644
575 508
575 511
575 512
575 519
575 536
575 539
575 545
575 546
575 557
575 560
575 563
575 565
575 571
575 581
575 582
575 587
575 594
575 602
575 606
575 610
575 613
575 626
575 638
575 640
576 501
576 506
576 521
576 532
576 533
576 541
576 542
576 544
576 547
576 566
576 573
576 578
576 579
576 589
576 596
576 601
576 603
576 609
576 623
576 627
576 633
576 642
576 643
577 510
577 517
577 529
577 535
577 537
577 538
577 543
577 552
577 556
577 559
577 564
577 565
577 584
577 585
577 587
577 588
577 592
577 605
577 611
577 620
577 621
577 622
577 631
577 639
578 499
578 506
578 521
578 532
578 533
578 544
578 547
578 573
578 576
578 596
578 601
578 609
578 623
578 627
578 642
579 501
579 505
579 521
579 532
579 534
579 541
579 542
579 547
579 566
579 568
579 573
579 576
579 589
579 591
579 596
579 598
579 601
579 603
579 627
579 632
579 633
579 643
580 509
580 523
580 526
580 527
580 539
580 540
580 551
580 557
580 560
580 562
580 570
580 581
580 582
580 606
580 608
580 612
580 614
580 616
580 636
580 637
580 645
581 508
581 509
581 512
581 536
581 539
581 545
581 546
581 551
581 557
581 560
581 563
581 571
581 575
581 580
581 582
581 594
581 602
581 606
581 610
581 613
581 626
581 636
581 638
581 640
582 509
582 526
582 539
582 540
582 545
582 551
582 557
582 560
582 562
582 570
582 575
582 580
582 581
582 602
582 606
582 612
582 613
582 614
582 616
582 636
582 637
582 645
583 522
583 524
583 527
583 531
583 548
583 550
583 553
583 558
583 562
583 572
583 574
583 599
583 600
583 604
583 608
583 614
583 615
583 617
583 629
583 634
583 644
584 510
584 517
584 530
584 535
584 537
584 543
584 552
584 554
584 559
584 564
584 577
584 588
584 592
584 605
584 607
584 611
584 618
584 620
584 622
584 630
584 631
584 635
584 639
585 503
585 517
585 518
585 529
585 537
585 538
585 543
585 556
585 563
585 564
585 565
585 571
585 577
585 587
585 592
585 594
585 605
585 610
585 619
585 620
585 621
585 622
585 631
586 514
586 528
586 530
586 552
586 554
586 561
586 588
586 590
586 607
586 618
586 624
586 630
586 635
586 646
586 647
587 518
587 519
587 529
587 536
587 538
587 543
587 556
587 563
587 564
587 565
587 571
587 575
587 577
587 585
587 592
587 594
587 602
587 605
587 610
587 619
587 620
587 621
587 626
587 631
588 528
588 530
588 535
588 537
588 552
588 554
588 559
588 561
588 577
588 584
588 586
588 590
588 605
588 607
588 611
588 618
588 622
588 624
588 630
588 631
588 635
588 639
588 647
589 532
589 534
589 541
589 542
589 566
589 568
589 569
589 576
589 579
589 591
589 595
589 598
589 601
589 603
589 627
589 628
589 632
589 633
589 643
590 514
590 528
590 552
590 554
590 561
590 586
590 588
590 607
590 618
590 624
590 630
590 635
590 646
590 647
591 513
591 534
591 541
591 542
591 555
591 566
591 567
591 568
591 569
591 579
591 589
591 593
591 595
591 598
591 603
591 625
591 628
591 632
591 633
591 643
592 517
592 529
592 537
592 538
592 543
592 556
592 559
592 563
592 564
592 565
592 577
592 584
592 585
592 587
592 605
592 610
592 611
592 619
592 620
592 621
592 622
592 631
592 639
593 520
593 549
593 553
593 555
593 567
593 568
593 569
593 572
593 591
593 595
593 597
593 598
593 600
593 617
593 625
593 628
593 632
593 641
594 536
594 538
594 545
594 546
594 563
594 565
594 571
594 575
594 581
594 585
594 587
594 602
594 610
594 613
594 619
594 621
594 626
594 638
594 640
595 534
595 549
595 555
595 566
595 567
595 568
595 569
595 589
595 591
595 593
595 597
595 598
595 617
595 625
595 628
595 632
595 633
595 641
596 521
596 532
596 533
596 544
596 547
596 573
596 576
596 578
596 579
596 601
596 603
596 609
596 623
596 627
596 642
596 643
597 525
597 549
597 550
597 553
597 555
597 567
597 569
597 572
597 593
597 595
597 598
597 600
597 604
597 617
597 625
597 628
597 634
597 641
598 534
598 541
598 555
598 566
598 567
598 568
598 569
598 579
598 589
598 591
598 593
598 595
598 597
598 603
598 625
598 628
598 632
598 633
599 522
599 527
599 548
599 550
599 558
599 562
599 570
599 572
599 574
599 583
599 600
599 604
599 608
599 612
599 614
599 615
599 616
599 629
599 634
599 637
599 644
600 525
600 531
600 549
600 550
600 553
600 558
600 572
600 574
600 583
600 593
600 597
600 599
600 604
600 615
600 617
600 625
600 629
600 634
600 641
601 532
601 542
601 544
601 547
601 566
601 573
601 576
601 578
601 579
601 589
601 596
601 603
601 609
601 623
601 627
601 633
601 642
601 643
602 536
602 545
602 546
602 560
602 563
602 571
602 575
602 581
602 582
602 587
602 594
602 606
602 610
602 613
602 619
602 626
602 636
602 638
602 640
603 532
603 541
603 542
603 547
603 566
603 568
603 576
603 579
603 589
603 591
603 596
603 598
603 601
603 623
603 627
603 632
603 633
603 643
604 531
604 548
604 550
604 553
604 558
604 572
604 574
604 583
604 597
604 599
604 600
604 608
604 615
604 617
604 629
604 634
604 641
604 644
605 537
605 543
605 556
605 559
605 564
605 565
605 577
605 584
605 585
605 587
605 588
605 592
605 611
605 619
605 620
605 621
605 622
605 630
605 631
605 639
606 539
606 545
606 551
606 557
606 560
606 570
606 575
606 580
606 581
606 582
606 602
606 612
606 613
606 616
606 626
606 636
606 637
606 638
606 640
606 645
607 530
607 552
607 554
607 559
607 561
607 584
607 586
607 588
607 590
607 611
607 618
607 622
607 624
607 630
607 635
607 639
607 646
607 647
608 540
608 548
608 558
608 562
608 570
608 574
608 580
608 583
608 599
608 604
608 612
608 614
608 615
608 616
608 629
608 637
608 644
609 533
609 544
609 547
609 573
609 576
609 578
609 596
609 601
609 623
609 627
609 642
610 536
610 538
610 556
610 563
610 565
610 571
610 575
610 581
610 585
610 587
610 592
610 594
610 602
610 613
610 619
610 620
610 621
610 626
610 638
610 640
611 535
611 537
611 543
611 552
611 559
611 564
611 577
611 584
611 588
611 592
611 605
611 607
611 618
611 620
611 622
611 630
611 631
611 635
611 639
611 647
612 539
612 540
612 551
612 557
612 560
612 562
612 570
612 580
612 582
612 599
612 606
612 608
612 614
612 616
612 629
612 636
612 637
612 644
612 645
613 545
613 546
613 557
613 560
613 571
613 575
613 581
613 582
613 594
613 602
613 606
613 610
613 626
613 636
613 638
613 640
613 645
614 540
614 548
614 551
614 562
614 570
614 574
614 580
614 582
614 583
614 599
614 608
614 612
614 615
614 616
614 629
614 637
614 644
614 645
615 548
615 550
615 558
615 562
615 572
615 574
615 583
615 599
615 600
615 604
615 608
615 614
615 617
615 629
615 634
615 641
615 644
616 540
616 551
616 557
616 562
616 570
616 574
616 580
616 582
616 599
616 606
616 608
616 612
616 614
616 629
616 636
616 637
616 644
616 645
617 549
617 550
617 553
617 555
617 567
617 572
617 583
617 593
617 595
617 597
617 600
617 604
617 615
617 625
617 628
617 634
617 641
618 552
618 554
618 561
618 584
618 586
618 588
618 590
618 607
618 611
618 624
618 630
618 635
618 639
618 646
618 647
619 538
619 556
619 563
619 564
619 565
619 571
619 585
619 587
619 592
619 594
619 602
619 605
619 610
619 620
619 621
619 626
619 631
619 640
620 543
620 556
620 564
620 565
620 577
620 584
620 585
620 587
620 592
620 605
620 610
620 611
620 619
620 621
620 622
620 631
620 639
621 556
621 563
621 564
621 565
621 577
621 585
621 587
621 592
621 594
621 605
621 610
621 619
621 620
621 622
621 626
621 631
622 559
622 564
622 577
622 584
622 585
622 588
622 592
622 605
622 607
622 611
622 620
622 621
622 630
622 631
622 635
622 639
623 544
623 547
623 573
623 576
623 578
623 596
623 601
623 603
623 609
623 627
623 642
623 643
624 554
624 561
624 586
624 588
624 590
624 607
624 618
624 630
624 635
624 646
624 647
625 549
625 553
625 555
625 567
625 569
625 572
625 591
625 593
625 595
625 597
625 598
625 600
625 617
625 628
625 632
625 634
625 641
626 563
626 571
626 575
626 581
626 587
626 594
626 602
626 606
626 610
626 613
626 619
626 621
626 636
626 638
626 640
627 566
627 573
627 576
627 578
627 579
627 589
627 596
627 601
627 603
627 609
627 623
627 633
627 642
627 643
628 555
628 567
628 568
628 569
628 589
628 591
628 593
628 595
628 597
628 598
628 617
628 625
628 632
628 633
628 641
629 548
629 558
629 562
629 574
629 583
629 599
629 600
629 604
629 608
629 612
629 614
629 615
629 616
629 634
629 637
629 644
630 552
630 554
630 559
630 584
630 586
630 588
630 590
630 605
630 607
630 611
630 618
630 622
630 624
630 631
630 635
630 639
630 646
630 647
631 564
631 577
631 584
631 585
631 587
631 588
631 592
631 605
631 611
631 619
631 620
631 621
631 622
631 630
631 639
632 566
632 567
632 568
632 569
632 579
632 589
632 591
632 593
632 595
632 598
632 603
632 625
632 628
632 633
632 643
633 566
633 568
633 576
633 579
633 589
633 591
633 595
633 598
633 601
633 603
633 627
633 628
633 632
633 643
634 572
634 583
634 597
634 599
634 600
634 604
634 615
634 617
634 625
634 629
634 641
635 552
635 554
635 561
635 584
635 586
635 588
635 590
635 607
635 611
635 618
635 622
635 624
635 630
635 639
635 646
635 647
636 557
636 560
636 580
636 581
636 582
636 602
636 606
636 612
636 613
636 616
636 626
636 637
636 638
636 640
636 645
637 562
637 570
637 580
637 582
637 599
637 606
637 608
637 612
637 614
637 616
637 629
637 636
637 644
637 645
638 571
638 575
638 581
638 594
638 602
638 606
638 610
638 613
638 626
638 636
638 640
638 645
639 559
639 577
639 584
639 588
639 592
639 605
639 607
639 611
639 618
639 620
639 622
639 630
639 631
639 635
639 647
640 571
640 575
640 581
640 594
640 602
640 606
640 610
640 613
640 619
640 626
640 636
640 638
641 572
641 593
641 595
641 597
641 600
641 604
641 615
641 617
641 625
641 628
641 634
642 573
642 576
642 578
642 596
642 601
642 609
642 623
642 627
642 643
643 576
643 579
643 589
643 591
643 596
643 601
643 603
643 623
643 627
643 632
643 633
643 642
644 574
644 583
644 599
644 604
644 608
644 612
644 614
644 615
644 616
644 629
644 637
644 645
645 580
645 582
645 606
645 612
645 613
645 614
645 616
645 636
645 637
645 638
645 644
646 586
646 590
646 607
646 618
646 624
646 630
646 635
646 647
647 586
647 588
647 590
647 607
647 611
647 618
647 624
647 630
647 635
647 639
647 646
