1 8
1 9
1 17
1 33
1 36
1 38
1 47
1 66
2 6
2 20
2 22
2 23
2 27
2 40
2 48
2 50
2 52
2 59
3 10
3 12
3 13
3 18
3 28
3 30
3 37
3 42
3 53
3 56
4 12
4 14
4 30
4 32
4 34
4 54
4 57
4 58
5 7
5 19
5 24
5 25
5 26
5 31
5 39
5 46
5 51
5 55
6 2
6 23
6 27
6 29
6 31
6 40
6 44
6 52
7 5
7 14
7 19
7 25
7 26
7 32
7 39
7 46
7 49
7 54
7 61
7 70
8 1
8 9
8 11
8 17
8 33
8 36
8 43
8 47
8 66
8 69
9 1
9 8
9 11
9 16
9 33
9 43
9 47
9 63
9 69
10 3
10 13
10 18
10 21
10 28
10 37
10 41
10 53
10 56
11 8
11 9
11 15
11 16
11 43
11 45
11 47
11 63
11 65
12 3
12 4
12 18
12 30
12 34
12 42
12 53
12 58
12 62
13 3
13 10
13 21
13 28
13 37
13 41
13 56
13 60
14 4
14 7
14 19
14 26
14 32
14 34
14 46
14 49
14 54
14 57
14 61
14 70
14 75
15 11
15 16
15 20
15 22
15 35
15 43
15 45
15 48
15 64
15 65
15 68
15 77
16 9
16 11
16 15
16 35
16 43
16 45
16 47
16 63
16 64
16 65
17 1
17 8
17 33
17 36
17 38
17 66
17 67
18 3
18 10
18 12
18 28
18 30
18 42
18 53
18 56
18 62
18 73
19 5
19 7
19 14
19 24
19 25
19 26
19 39
19 46
19 49
19 55
19 61
19 70
19 80
20 2
20 15
20 22
20 23
20 35
20 40
20 45
20 48
20 50
20 59
20 68
20 76
21 10
21 13
21 37
21 41
21 60
21 79
22 2
22 15
22 20
22 23
22 27
22 35
22 40
22 48
22 50
22 59
22 68
22 76
23 2
23 6
23 20
23 22
23 27
23 29
23 40
23 44
23 48
23 50
23 52
23 59
23 74
23 83
24 5
24 19
24 25
24 29
24 31
24 39
24 44
24 51
24 55
24 71
24 72
24 85
25 5
25 7
25 19
25 24
25 26
25 31
25 39
25 46
25 51
25 55
25 61
25 72
25 80
25 85
26 5
26 7
26 14
26 19
26 25
26 32
26 39
26 46
26 49
26 54
26 55
26 61
26 70
26 75
26 80
26 84
27 2
27 6
27 22
27 23
27 29
27 31
27 40
27 44
27 50
27 52
27 59
27 71
27 74
27 83
27 88
28 3
28 10
28 13
28 18
28 30
28 37
28 41
28 42
28 53
28 56
28 73
28 82
29 6
29 23
29 24
29 27
29 31
29 40
29 44
29 51
29 52
29 71
29 72
29 74
29 88
29 92
30 3
30 4
30 12
30 18
30 28
30 34
30 42
30 53
30 57
30 58
30 62
30 73
31 5
31 6
31 24
31 25
31 27
31 29
31 44
31 51
31 52
31 55
31 71
31 72
31 88
31 92
31 95
32 4
32 7
32 14
32 26
32 34
32 46
32 49
32 54
32 57
32 58
32 70
32 75
32 94
32 98
33 1
33 8
33 9
33 17
33 36
33 38
33 43
33 47
33 66
33 67
33 69
33 78
33 90
33 99
34 4
34 12
34 14
34 30
34 32
34 42
34 49
34 54
34 57
34 58
34 62
34 75
34 93
35 15
35 16
35 20
35 22
35 45
35 48
35 50
35 64
35 65
35 68
35 76
35 77
36 1
36 8
36 17
36 33
36 38
36 47
36 66
36 67
36 69
36 90
37 3
37 10
37 13
37 21
37 28
37 41
37 53
37 56
37 60
37 79
37 82
37 87
37 91
37 96
38 1
38 17
38 33
38 36
38 66
38 67
38 81
38 90
39 5
39 7
39 19
39 24
39 25
39 26
39 46
39 49
39 51
39 55
39 61
39 70
39 72
39 80
39 84
39 85
39 101
40 2
40 6
40 20
40 22
40 23
40 27
40 29
40 44
40 48
40 50
40 52
40 59
40 74
40 76
40 83
40 88
41 10
41 13
41 21
41 28
41 37
41 56
41 60
41 79
41 87
41 91
41 96
42 3
42 12
42 18
42 28
42 30
42 34
42 53
42 56
42 58
42 62
42 73
42 82
42 97
42 100
42 105
43 8
43 9
43 11
43 15
43 16
43 33
43 45
43 47
43 63
43 64
43 65
43 69
43 78
43 89
43 109
44 6
44 23
44 24
44 27
44 29
44 31
44 40
44 51
44 52
44 71
44 72
44 74
44 88
44 92
44 95
45 11
45 15
45 16
45 20
45 35
45 43
45 48
45 63
45 64
45 65
45 68
45 77
45 89
45 103
45 104
46 5
46 7
46 14
46 19
46 25
46 26
46 32
46 39
46 49
46 54
46 55
46 61
46 70
46 75
46 80
46 84
46 94
46 101
46 107
47 1
47 8
47 9
47 11
47 16
47 33
47 36
47 43
47 63
47 65
47 66
47 69
47 78
47 99
47 112
48 2
48 15
48 20
48 22
48 23
48 35
48 40
48 45
48 50
48 59
48 64
48 68
48 76
48 77
48 83
48 106
48 108
49 7
49 14
49 19
49 26
49 32
49 34
49 39
49 46
49 54
49 57
49 61
49 70
49 75
49 84
49 94
49 98
49 107
49 117
50 2
50 20
50 22
50 23
50 27
50 35
50 40
50 48
50 52
50 59
50 68
50 74
50 76
50 77
50 83
50 106
50 108
50 111
51 5
51 24
51 25
51 29
51 31
51 39
51 44
51 55
51 71
51 72
51 80
51 85
51 88
51 92
51 95
52 2
52 6
52 23
52 27
52 29
52 31
52 40
52 44
52 50
52 59
52 71
52 74
52 83
52 88
52 92
52 114
52 115
53 3
53 10
53 12
53 18
53 28
53 30
53 37
53 42
53 56
53 62
53 73
53 82
53 91
53 100
53 105
54 4
54 7
54 14
54 26
54 32
54 34
54 46
54 49
54 57
54 58
54 61
54 70
54 75
54 84
54 93
54 94
54 98
54 116
54 117
54 121
55 5
55 19
55 24
55 25
55 26
55 31
55 39
55 46
55 51
55 61
55 72
55 80
55 84
55 85
55 95
55 101
55 124
56 3
56 10
56 13
56 18
56 28
56 37
56 41
56 42
56 53
56 73
56 82
56 87
56 91
56 96
56 105
56 118
57 4
57 14
57 30
57 32
57 34
57 49
57 54
57 58
57 62
57 70
57 75
57 93
57 94
57 97
57 98
57 116
57 119
57 121
58 4
58 12
58 30
58 32
58 34
58 42
58 54
58 57
58 62
58 73
58 75
58 93
58 97
58 98
58 100
58 116
58 119
59 2
59 20
59 22
59 23
59 27
59 40
59 48
59 50
59 52
59 68
59 74
59 76
59 83
59 88
59 108
59 111
59 114
59 115
60 13
60 21
60 37
60 41
60 79
60 87
60 91
60 96
60 102
61 7
61 14
61 19
61 25
61 26
61 39
61 46
61 49
61 54
61 55
61 70
61 75
61 80
61 84
61 85
61 94
61 101
61 107
61 117
62 12
62 18
62 30
62 34
62 42
62 53
62 57
62 58
62 73
62 82
62 93
62 97
62 100
62 105
62 119
62 123
62 129
63 9
63 11
63 16
63 43
63 45
63 47
63 64
63 65
63 69
63 77
63 78
63 89
63 99
63 104
63 109
63 112
63 132
64 15
64 16
64 35
64 43
64 45
64 48
64 63
64 65
64 68
64 77
64 89
64 103
64 104
64 106
64 109
65 11
65 15
65 16
65 35
65 43
65 45
65 47
65 63
65 64
65 68
65 77
65 78
65 89
65 103
65 104
65 109
65 112
66 1
66 8
66 17
66 33
66 36
66 38
66 47
66 67
66 69
66 78
66 90
66 99
66 112
66 113
66 122
66 131
67 17
67 33
67 36
67 38
67 66
67 69
67 81
67 90
67 99
67 110
67 113
67 120
67 122
68 15
68 20
68 22
68 35
68 45
68 48
68 50
68 59
68 64
68 65
68 76
68 77
68 89
68 103
68 104
68 106
68 108
68 126
69 8
69 9
69 33
69 36
69 43
69 47
69 63
69 66
69 67
69 78
69 90
69 99
69 112
69 113
69 131
69 133
70 7
70 14
70 19
70 26
70 32
70 39
70 46
70 49
70 54
70 57
70 61
70 75
70 80
70 84
70 94
70 98
70 101
70 107
70 117
70 121
71 24
71 27
71 29
71 31
71 44
71 51
71 52
71 72
71 74
71 85
71 88
71 92
71 95
71 114
71 125
71 128
71 130
72 24
72 25
72 29
72 31
72 39
72 44
72 51
72 55
72 71
72 80
72 85
72 88
72 92
72 95
72 124
72 128
72 130
73 18
73 28
73 30
73 42
73 53
73 56
73 58
73 62
73 82
73 91
73 93
73 97
73 100
73 105
73 118
73 119
73 123
73 129
74 23
74 27
74 29
74 40
74 44
74 50
74 52
74 59
74 71
74 76
74 83
74 88
74 92
74 111
74 114
74 115
74 125
75 14
75 26
75 32
75 34
75 46
75 49
75 54
75 57
75 58
75 61
75 70
75 84
75 93
75 94
75 98
75 107
75 116
75 117
75 121
76 20
76 22
76 35
76 40
76 48
76 50
76 59
76 68
76 74
76 77
76 83
76 103
76 106
76 108
76 111
76 115
76 126
76 138
76 141
76 142
77 15
77 35
77 45
77 48
77 50
77 63
77 64
77 65
77 68
77 76
77 89
77 103
77 104
77 106
77 108
77 109
77 126
77 134
77 136
77 138
78 33
78 43
78 47
78 63
78 65
78 66
78 69
78 89
78 90
78 99
78 109
78 112
78 113
78 131
78 132
78 133
79 21
79 37
79 41
79 60
79 87
79 91
79 96
79 102
79 127
79 137
80 19
80 25
80 26
80 39
80 46
80 51
80 55
80 61
80 70
80 72
80 84
80 85
80 95
80 101
80 107
80 124
80 140
81 38
81 67
81 86
81 90
81 110
81 113
81 120
81 122
82 28
82 37
82 42
82 53
82 56
82 62
82 73
82 91
82 96
82 97
82 100
82 105
82 118
82 123
82 127
82 129
82 139
83 23
83 27
83 40
83 48
83 50
83 52
83 59
83 74
83 76
83 88
83 106
83 108
83 111
83 114
83 115
83 125
83 142
83 143
84 26
84 39
84 46
84 49
84 54
84 55
84 61
84 70
84 75
84 80
84 85
84 94
84 98
84 101
84 107
84 117
84 124
84 140
84 144
85 24
85 25
85 39
85 51
85 55
85 61
85 71
85 72
85 80
85 84
85 92
85 95
85 101
85 124
85 128
85 130
85 140
86 81
86 110
86 120
86 152
87 37
87 41
87 56
87 60
87 79
87 91
87 96
87 102
87 118
87 127
87 137
87 151
88 27
88 29
88 31
88 40
88 44
88 51
88 52
88 59
88 71
88 72
88 74
88 83
88 92
88 95
88 114
88 115
88 125
88 128
88 130
88 143
88 146
88 149
89 43
89 45
89 63
89 64
89 65
89 68
89 77
89 78
89 103
89 104
89 109
89 112
89 126
89 132
89 134
89 135
89 136
90 33
90 36
90 38
90 66
90 67
90 69
90 78
90 81
90 99
90 110
90 113
90 120
90 122
90 131
90 147
90 148
91 37
91 41
91 53
91 56
91 60
91 73
91 79
91 82
91 87
91 96
91 102
91 105
91 118
91 127
91 137
91 139
91 145
91 151
92 29
92 31
92 44
92 51
92 52
92 71
92 72
92 74
92 85
92 88
92 95
92 114
92 125
92 128
92 130
92 146
92 149
93 34
93 54
93 57
93 58
93 62
93 73
93 75
93 94
93 97
93 98
93 100
93 116
93 117
93 119
93 121
93 123
93 153
94 32
94 46
94 49
94 54
94 57
94 61
94 70
94 75
94 84
94 93
94 98
94 101
94 107
94 116
94 117
94 121
94 144
94 150
95 31
95 44
95 51
95 55
95 71
95 72
95 80
95 85
95 88
95 92
95 101
95 124
95 125
95 128
95 130
95 149
95 154
96 37
96 41
96 56
96 60
96 79
96 82
96 87
96 91
96 102
96 118
96 127
96 137
96 145
96 151
96 157
97 42
97 57
97 58
97 62
97 73
97 82
97 93
97 98
97 100
97 105
97 116
97 119
97 121
97 123
97 129
97 153
97 156
98 32
98 49
98 54
98 57
98 58
98 70
98 75
98 84
98 93
98 94
98 97
98 107
98 116
98 117
98 119
98 121
98 150
99 33
99 47
99 63
99 66
99 67
99 69
99 78
99 90
99 109
99 112
99 113
99 122
99 131
99 132
99 133
99 147
99 148
100 42
100 53
100 58
100 62
100 73
100 82
100 93
100 97
100 105
100 116
100 118
100 119
100 123
100 129
100 139
100 153
100 156
100 158
101 39
101 46
101 55
101 61
101 70
101 80
101 84
101 85
101 94
101 95
101 107
101 117
101 124
101 130
101 140
101 144
101 154
101 159
101 161
102 60
102 79
102 87
102 91
102 96
102 127
102 137
102 151
102 157
103 45
103 64
103 65
103 68
103 76
103 77
103 89
103 104
103 106
103 108
103 109
103 126
103 134
103 135
103 136
103 138
103 141
103 164
103 165
103 166
104 45
104 63
104 64
104 65
104 68
104 77
104 89
104 103
104 106
104 109
104 112
104 126
104 132
104 134
104 135
104 136
104 138
104 162
104 165
104 166
105 42
105 53
105 56
105 62
105 73
105 82
105 91
105 97
105 100
105 118
105 119
105 123
105 127
105 129
105 139
105 145
105 153
105 156
105 158
106 48
106 50
106 64
106 68
106 76
106 77
106 83
106 103
106 104
106 108
106 111
106 115
106 126
106 134
106 136
106 138
106 141
106 142
106 164
106 166
107 46
107 49
107 61
107 70
107 75
107 80
107 84
107 94
107 98
107 101
107 117
107 121
107 124
107 140
107 144
107 150
107 159
107 161
107 172
108 48
108 50
108 59
108 68
108 76
108 77
108 83
108 103
108 106
108 111
108 114
108 115
108 126
108 136
108 138
108 141
108 142
108 143
109 43
109 63
109 64
109 65
109 77
109 78
109 89
109 99
109 103
109 104
109 112
109 132
109 133
109 134
109 135
109 136
109 160
109 162
109 165
109 175
110 67
110 81
110 86
110 90
110 113
110 120
110 122
110 131
110 148
110 152
110 155
110 169
111 50
111 59
111 74
111 76
111 83
111 106
111 108
111 114
111 115
111 125
111 126
111 138
111 141
111 142
111 143
111 146
112 47
112 63
112 65
112 66
112 69
112 78
112 89
112 99
112 104
112 109
112 113
112 131
112 132
112 133
112 135
112 147
112 160
112 162
112 168
113 66
113 67
113 69
113 78
113 81
113 90
113 99
113 110
113 112
113 120
113 122
113 131
113 133
113 147
113 148
113 168
113 169
114 52
114 59
114 71
114 74
114 83
114 88
114 92
114 108
114 111
114 115
114 125
114 128
114 142
114 143
114 146
114 149
114 174
114 177
115 52
115 59
115 74
115 76
115 83
115 88
115 106
115 108
115 111
115 114
115 125
115 141
115 142
115 143
115 146
115 174
116 54
116 57
116 58
116 75
116 93
116 94
116 97
116 98
116 100
116 117
116 119
116 121
116 123
116 150
116 153
116 163
116 167
116 171
117 49
117 54
117 61
117 70
117 75
117 84
117 93
117 94
117 98
117 101
117 107
117 116
117 121
117 140
117 144
117 150
117 161
117 163
117 172
118 56
118 73
118 82
118 87
118 91
118 96
118 100
118 105
118 123
118 127
118 129
118 137
118 139
118 145
118 151
118 158
119 57
119 58
119 62
119 73
119 93
119 97
119 98
119 100
119 105
119 116
119 121
119 123
119 129
119 153
119 156
119 167
119 171
120 67
120 81
120 86
120 90
120 110
120 113
120 122
120 148
120 152
120 155
120 169
120 181
121 54
121 57
121 70
121 75
121 93
121 94
121 97
121 98
121 107
121 116
121 117
121 119
121 144
121 150
121 153
121 163
121 167
121 172
122 66
122 67
122 81
122 90
122 99
122 110
122 113
122 120
122 131
122 147
122 148
122 155
122 169
122 182
123 62
123 73
123 82
123 93
123 97
123 100
123 105
123 116
123 118
123 119
123 129
123 139
123 153
123 156
123 158
123 167
123 171
123 179
124 55
124 72
124 80
124 84
124 85
124 95
124 101
124 107
124 128
124 130
124 140
124 144
124 149
124 154
124 159
124 161
124 170
124 173
125 71
125 74
125 83
125 88
125 92
125 95
125 111
125 114
125 115
125 128
125 130
125 143
125 146
125 149
125 174
125 177
125 178
126 68
126 76
126 77
126 89
126 103
126 104
126 106
126 108
126 111
126 134
126 136
126 138
126 141
126 142
126 164
126 165
126 166
126 180
127 79
127 82
127 87
127 91
127 96
127 102
127 105
127 118
127 137
127 139
127 145
127 151
127 157
127 158
127 176
128 71
128 72
128 85
128 88
128 92
128 95
128 114
128 124
128 125
128 130
128 143
128 146
128 149
128 154
128 170
128 177
128 178
129 62
129 73
129 82
129 97
129 100
129 105
129 118
129 119
129 123
129 139
129 145
129 153
129 156
129 158
129 171
129 179
129 186
130 71
130 72
130 85
130 88
130 92
130 95
130 101
130 124
130 125
130 128
130 140
130 146
130 149
130 154
130 159
130 170
130 173
130 178
130 193
131 66
131 69
131 78
131 90
131 99
131 110
131 112
131 113
131 122
131 132
131 133
131 147
131 148
131 168
131 169
131 182
131 185
132 63
132 78
132 89
132 99
132 104
132 109
132 112
132 131
132 133
132 134
132 135
132 147
132 160
132 162
132 165
132 168
132 175
132 194
133 69
133 78
133 99
133 109
133 112
133 113
133 131
133 132
133 135
133 147
133 148
133 160
133 162
133 168
133 175
133 185
133 194
133 195
134 77
134 89
134 103
134 104
134 106
134 109
134 126
134 132
134 135
134 136
134 138
134 160
134 162
134 164
134 165
134 166
134 175
135 89
135 103
135 104
135 109
135 112
135 132
135 133
135 134
135 136
135 160
135 162
135 165
135 166
135 175
135 200
136 77
136 89
136 103
136 104
136 106
136 108
136 109
136 126
136 134
136 135
136 138
136 141
136 162
136 164
136 165
136 166
136 180
136 197
137 79
137 87
137 91
137 96
137 102
137 118
137 127
137 145
137 151
137 157
137 176
137 183
137 203
138 76
138 77
138 103
138 104
138 106
138 108
138 111
138 126
138 134
138 136
138 141
138 142
138 164
138 165
138 166
138 180
138 184
138 197
138 199
139 82
139 91
139 100
139 105
139 118
139 123
139 127
139 129
139 145
139 151
139 153
139 156
139 158
139 179
139 186
139 192
140 80
140 84
140 85
140 101
140 107
140 117
140 124
140 130
140 144
140 150
140 154
140 159
140 161
140 172
140 173
140 191
140 196
140 202
141 76
141 103
141 106
141 108
141 111
141 115
141 126
141 136
141 138
141 142
141 143
141 164
141 166
141 174
141 180
141 184
141 187
141 199
142 76
142 83
142 106
142 108
142 111
142 114
142 115
142 126
142 138
142 141
142 143
142 146
142 164
142 174
142 180
142 184
142 187
143 83
143 88
143 108
143 111
143 114
143 115
143 125
143 128
143 141
143 142
143 146
143 149
143 174
143 177
143 184
143 187
144 84
144 94
144 101
144 107
144 117
144 121
144 124
144 140
144 150
144 154
144 159
144 161
144 163
144 172
144 191
144 196
145 91
145 96
145 105
145 118
145 127
145 129
145 137
145 139
145 151
145 157
145 158
145 176
145 186
145 192
145 204
146 88
146 92
146 111
146 114
146 115
146 125
146 128
146 130
146 142
146 143
146 149
146 170
146 174
146 177
146 178
146 187
146 214
147 90
147 99
147 112
147 113
147 122
147 131
147 132
147 133
147 148
147 160
147 168
147 169
147 182
147 185
147 194
147 195
147 210
148 90
148 99
148 110
148 113
148 120
148 122
148 131
148 133
148 147
148 155
148 168
148 169
148 181
148 182
148 185
148 195
148 201
148 210
149 88
149 92
149 95
149 114
149 124
149 125
149 128
149 130
149 143
149 146
149 154
149 170
149 173
149 177
149 178
149 193
149 207
150 94
150 98
150 107
150 116
150 117
150 121
150 140
150 144
150 161
150 163
150 167
150 172
150 196
150 198
150 205
150 208
151 87
151 91
151 96
151 102
151 118
151 127
151 137
151 139
151 145
151 157
151 158
151 176
151 183
151 192
151 203
151 204
151 206
152 86
152 110
152 120
152 155
152 169
152 181
152 188
152 189
152 190
152 213
153 93
153 97
153 100
153 105
153 116
153 119
153 121
153 123
153 129
153 139
153 156
153 158
153 163
153 167
153 171
153 179
153 186
153 211
153 218
154 95
154 101
154 124
154 128
154 130
154 140
154 144
154 149
154 159
154 161
154 170
154 173
154 178
154 191
154 193
154 202
154 217
155 110
155 120
155 122
155 148
155 152
155 169
155 181
155 182
155 189
155 190
155 201
155 213
156 97
156 100
156 105
156 119
156 123
156 129
156 139
156 153
156 158
156 167
156 171
156 179
156 186
156 211
156 218
157 96
157 102
157 127
157 137
157 145
157 151
157 176
157 183
157 192
157 203
157 206
158 100
158 105
158 118
158 123
158 127
158 129
158 139
158 145
158 151
158 153
158 156
158 171
158 179
158 186
158 192
158 204
159 101
159 107
159 124
159 130
159 140
159 144
159 154
159 161
159 170
159 172
159 173
159 191
159 193
159 196
159 202
159 217
159 223
160 109
160 112
160 132
160 133
160 134
160 135
160 147
160 162
160 165
160 168
160 175
160 185
160 194
160 195
160 200
160 209
160 215
161 101
161 107
161 117
161 124
161 140
161 144
161 150
161 154
161 159
161 163
161 172
161 173
161 191
161 196
161 198
161 202
161 208
161 223
162 104
162 109
162 112
162 132
162 133
162 134
162 135
162 136
162 160
162 165
162 166
162 168
162 175
162 194
162 197
162 200
162 209
162 212
163 116
163 117
163 121
163 144
163 150
163 153
163 161
163 167
163 171
163 172
163 198
163 205
163 208
163 211
163 222
164 103
164 106
164 126
164 134
164 136
164 138
164 141
164 142
164 165
164 166
164 180
164 184
164 197
164 199
164 212
164 216
164 221
165 103
165 104
165 109
165 126
165 132
165 134
165 135
165 136
165 138
165 160
165 162
165 164
165 166
165 175
165 180
165 197
165 199
165 200
165 209
165 212
166 103
166 104
166 106
166 126
166 134
166 135
166 136
166 138
166 141
166 162
166 164
166 165
166 175
166 180
166 184
166 197
166 199
166 200
166 209
166 212
166 221
167 116
167 119
167 121
167 123
167 150
167 153
167 156
167 163
167 171
167 172
167 179
167 198
167 205
167 211
167 218
167 222
167 229
168 112
168 113
168 131
168 132
168 133
168 147
168 148
168 160
168 162
168 169
168 175
168 182
168 185
168 194
168 195
168 200
168 201
168 210
168 215
168 227
169 110
169 113
169 120
169 122
169 131
169 147
169 148
169 152
169 155
169 168
169 181
169 182
169 185
169 190
169 201
169 210
169 213
169 224
169 228
170 124
170 128
170 130
170 146
170 149
170 154
170 159
170 173
170 177
170 178
170 191
170 193
170 202
170 207
170 217
170 231
170 232
171 116
171 119
171 123
171 129
171 153
171 156
171 158
171 163
171 167
171 179
171 186
171 205
171 211
171 218
171 229
172 107
172 117
172 121
172 140
172 144
172 150
172 159
172 161
172 163
172 167
172 191
172 196
172 198
172 205
172 208
172 222
172 230
173 124
173 130
173 140
173 149
173 154
173 159
173 161
173 170
173 178
173 191
173 193
173 196
173 202
173 207
173 217
173 223
173 232
174 114
174 115
174 125
174 141
174 142
174 143
174 146
174 177
174 178
174 184
174 187
174 214
174 216
174 219
174 225
175 109
175 132
175 133
175 134
175 135
175 160
175 162
175 165
175 166
175 168
175 185
175 194
175 195
175 200
175 209
175 212
175 215
175 233
175 235
176 127
176 137
176 145
176 151
176 157
176 183
176 192
176 203
176 204
176 206
176 238
177 114
177 125
177 128
177 143
177 146
177 149
177 170
177 174
177 178
177 184
177 187
177 207
177 214
177 219
177 225
178 125
178 128
178 130
178 146
178 149
178 154
178 170
178 173
178 174
178 177
178 193
178 207
178 214
178 217
178 225
178 231
178 232
179 123
179 129
179 139
179 153
179 156
179 158
179 167
179 171
179 186
179 204
179 211
179 218
179 226
179 243
180 126
180 136
180 138
180 141
180 142
180 164
180 165
180 166
180 184
180 187
180 197
180 199
180 212
180 216
180 221
180 242
181 120
181 148
181 152
181 155
181 169
181 182
181 189
181 190
181 201
181 213
181 220
181 224
181 236
181 237
182 122
182 131
182 147
182 148
182 155
182 168
182 169
182 181
182 185
182 194
182 195
182 201
182 210
182 215
182 224
182 227
182 228
183 137
183 151
183 157
183 176
183 192
183 203
183 206
184 138
184 141
184 142
184 143
184 164
184 166
184 174
184 177
184 180
184 187
184 197
184 199
184 214
184 216
184 219
184 221
184 244
185 131
185 133
185 147
185 148
185 160
185 168
185 169
185 175
185 182
185 194
185 195
185 201
185 210
185 215
185 224
185 227
185 228
186 129
186 139
186 145
186 153
186 156
186 158
186 171
186 179
186 192
186 204
186 218
186 226
186 234
186 239
187 141
187 142
187 143
187 146
187 174
187 177
187 180
187 184
187 199
187 214
187 216
187 219
187 225
187 247
188 152
188 189
188 190
188 213
188 220
188 236
189 152
189 155
189 181
189 188
189 190
189 213
189 220
189 236
189 237
190 152
190 155
190 169
190 181
190 188
190 189
190 201
190 213
190 220
190 224
190 236
190 237
191 140
191 144
191 154
191 159
191 161
191 170
191 172
191 173
191 193
191 196
191 202
191 208
191 217
191 223
191 230
191 232
191 245
191 248
192 139
192 145
192 151
192 157
192 158
192 176
192 183
192 186
192 203
192 204
192 206
192 226
192 234
192 238
192 239
193 130
193 149
193 154
193 159
193 170
193 173
193 178
193 191
193 202
193 207
193 217
193 223
193 225
193 231
193 232
193 245
194 132
194 133
194 147
194 160
194 162
194 168
194 175
194 182
194 185
194 195
194 200
194 209
194 210
194 215
194 227
194 233
194 235
194 240
195 133
195 147
195 148
195 160
195 168
195 175
195 182
195 185
195 194
195 200
195 201
195 210
195 215
195 224
195 227
195 228
195 233
195 235
195 256
196 140
196 144
196 150
196 159
196 161
196 172
196 173
196 191
196 198
196 202
196 205
196 208
196 217
196 223
196 230
196 245
196 248
197 136
197 138
197 162
197 164
197 165
197 166
197 180
197 184
197 199
197 200
197 209
197 212
197 216
197 221
197 240
197 241
197 242
197 244
198 150
198 161
198 163
198 167
198 172
198 196
198 205
198 208
198 211
198 222
198 229
198 230
198 246
198 250
199 138
199 141
199 164
199 165
199 166
199 180
199 184
199 187
199 197
199 212
199 216
199 219
199 221
199 241
199 242
199 244
199 254
200 135
200 160
200 162
200 165
200 166
200 168
200 175
200 194
200 195
200 197
200 209
200 212
200 215
200 227
200 233
200 235
200 240
200 241
201 148
201 155
201 168
201 169
201 181
201 182
201 185
201 190
201 195
201 210
201 213
201 224
201 227
201 228
201 237
201 251
201 253
202 140
202 154
202 159
202 161
202 170
202 173
202 191
202 193
202 196
202 207
202 217
202 223
202 230
202 231
202 232
202 245
202 248
203 137
203 151
203 157
203 176
203 183
203 192
203 204
203 206
203 234
203 238
203 249
204 145
204 151
204 158
204 176
204 179
204 186
204 192
204 203
204 226
204 234
204 238
204 239
204 259
205 150
205 163
205 167
205 171
205 172
205 196
205 198
205 208
205 211
205 218
205 222
205 229
205 230
205 246
205 250
205 252
206 151
206 157
206 176
206 183
206 192
206 203
206 238
206 249
207 149
207 170
207 173
207 177
207 178
207 193
207 202
207 214
207 217
207 225
207 231
207 232
207 258
207 260
207 261
208 150
208 161
208 163
208 172
208 191
208 196
208 198
208 205
208 222
208 223
208 229
208 230
208 246
208 248
208 250
209 160
209 162
209 165
209 166
209 175
209 194
209 197
209 200
209 212
209 215
209 221
209 233
209 235
209 240
209 241
209 242
209 263
209 267
210 147
210 148
210 168
210 169
210 182
210 185
210 194
210 195
210 201
210 215
210 224
210 227
210 228
210 233
210 251
210 253
210 256
211 153
211 156
211 163
211 167
211 171
211 179
211 198
211 205
211 218
211 222
211 226
211 229
211 243
211 250
211 252
212 162
212 164
212 165
212 166
212 175
212 180
212 197
212 199
212 200
212 209
212 221
212 235
212 240
212 241
212 242
212 264
212 267
213 152
213 155
213 169
213 181
213 188
213 189
213 190
213 201
213 220
213 224
213 236
213 237
213 251
214 146
214 174
214 177
214 178
214 184
214 187
214 207
214 216
214 219
214 225
214 231
214 247
214 255
214 258
215 160
215 168
215 175
215 182
215 185
215 194
215 195
215 200
215 209
215 210
215 227
215 228
215 233
215 235
215 240
215 256
215 257
215 263
216 164
216 174
216 180
216 184
216 187
216 197
216 199
216 214
216 219
216 221
216 242
216 244
216 247
216 254
216 262
217 154
217 159
217 170
217 173
217 178
217 191
217 193
217 196
217 202
217 207
217 223
217 231
217 232
217 245
217 248
217 260
217 261
217 265
218 153
218 156
218 167
218 171
218 179
218 186
218 205
218 211
218 222
218 226
218 229
218 239
218 243
218 250
218 252
219 174
219 177
219 184
219 187
219 199
219 214
219 216
219 225
219 244
219 247
219 254
219 255
219 262
220 181
220 188
220 189
220 190
220 213
220 236
220 237
221 164
221 166
221 180
221 184
221 197
221 199
221 209
221 212
221 216
221 240
221 241
221 242
221 244
221 254
221 264
221 272
221 273
222 163
222 167
222 172
222 198
222 205
222 208
222 211
222 218
222 229
222 230
222 246
222 250
222 252
222 274
223 159
223 161
223 173
223 191
223 193
223 196
223 202
223 208
223 217
223 230
223 232
223 245
223 248
223 260
223 265
223 268
224 169
224 181
224 182
224 185
224 190
224 195
224 201
224 210
224 213
224 227
224 228
224 237
224 251
224 253
224 256
225 174
225 177
225 178
225 187
225 193
225 207
225 214
225 219
225 231
225 232
225 247
225 255
225 258
225 261
225 281
226 179
226 186
226 192
226 204
226 211
226 218
226 234
226 239
226 243
226 252
226 259
226 266
226 275
227 168
227 182
227 185
227 194
227 195
227 200
227 201
227 210
227 215
227 224
227 228
227 233
227 235
227 253
227 256
227 257
227 263
228 169
228 182
228 185
228 195
228 201
228 210
228 215
228 224
228 227
228 233
228 251
228 253
228 256
228 286
229 167
229 171
229 198
229 205
229 208
229 211
229 218
229 222
229 243
229 246
229 250
229 252
229 274
230 172
230 191
230 196
230 198
230 202
230 205
230 208
230 222
230 223
230 245
230 246
230 248
230 265
230 268
230 271
231 170
231 178
231 193
231 202
231 207
231 214
231 217
231 225
231 232
231 245
231 255
231 258
231 260
231 261
231 277
232 170
232 173
232 178
232 191
232 193
232 202
232 207
232 217
232 223
232 225
232 231
232 245
232 258
232 260
232 261
232 265
232 277
233 175
233 194
233 195
233 200
233 209
233 210
233 215
233 227
233 228
233 235
233 240
233 256
233 257
233 263
233 267
233 291
234 186
234 192
234 203
234 204
234 226
234 238
234 239
234 249
234 259
234 266
234 269
234 270
234 275
234 288
234 290
235 175
235 194
235 195
235 200
235 209
235 212
235 215
235 227
235 233
235 240
235 241
235 256
235 257
235 263
235 267
236 181
236 188
236 189
236 190
236 213
236 220
236 237
236 251
236 279
236 283
237 181
237 189
237 190
237 201
237 213
237 220
237 224
237 236
237 251
237 253
237 279
237 283
238 176
238 192
238 203
238 204
238 206
238 234
238 239
238 249
238 259
238 266
238 269
238 270
239 186
239 192
239 204
239 218
239 226
239 234
239 238
239 243
239 259
239 266
239 269
239 275
239 284
239 288
239 290
240 194
240 197
240 200
240 209
240 212
240 215
240 221
240 233
240 235
240 241
240 242
240 257
240 263
240 264
240 267
241 197
241 199
241 200
241 209
241 212
241 221
241 235
241 240
241 242
241 244
241 254
241 263
241 264
241 267
241 272
242 180
242 197
242 199
242 209
242 212
242 216
242 221
242 240
242 241
242 244
242 254
242 264
242 267
242 272
242 273
243 179
243 211
243 218
243 226
243 229
243 239
243 250
243 252
243 259
243 275
243 282
243 284
244 184
244 197
244 199
244 216
244 219
244 221
244 241
244 242
244 247
244 254
244 262
244 264
244 272
244 273
244 276
245 191
245 193
245 196
245 202
245 217
245 223
245 230
245 231
245 232
245 248
245 260
245 261
245 265
245 268
245 271
245 280
245 287
245 295
246 198
246 205
246 208
246 222
246 229
246 230
246 248
246 250
246 252
246 268
246 271
246 274
246 285
246 297
247 187
247 214
247 216
247 219
247 225
247 244
247 254
247 255
247 258
247 262
247 273
247 276
247 278
247 281
248 191
248 196
248 202
248 208
248 217
248 223
248 230
248 245
248 246
248 265
248 268
248 271
248 280
248 285
248 287
248 294
249 203
249 206
249 234
249 238
249 269
249 270
250 198
250 205
250 208
250 211
250 218
250 222
250 229
250 243
250 246
250 252
250 271
250 274
250 282
250 285
250 293
251 201
251 210
251 213
251 224
251 228
251 236
251 237
251 253
251 283
251 286
251 298
251 302
252 205
252 211
252 218
252 222
252 226
252 229
252 243
252 246
252 250
252 274
252 282
252 284
252 293
253 201
253 210
253 224
253 227
253 228
253 237
253 251
253 256
253 286
253 289
253 302
254 199
254 216
254 219
254 221
254 241
254 242
254 244
254 247
254 262
254 264
254 272
254 273
254 276
254 304
255 214
255 219
255 225
255 231
255 247
255 258
255 261
255 262
255 276
255 277
255 278
255 281
256 195
256 210
256 215
256 224
256 227
256 228
256 233
256 235
256 253
256 257
256 263
256 286
256 289
256 291
256 305
256 307
257 215
257 227
257 233
257 235
257 240
257 256
257 263
257 267
257 289
257 291
257 301
257 305
258 207
258 214
258 225
258 231
258 232
258 247
258 255
258 260
258 261
258 277
258 278
258 281
258 292
258 320
259 204
259 226
259 234
259 238
259 239
259 243
259 266
259 269
259 275
259 284
259 288
259 290
259 300
259 317
260 207
260 217
260 223
260 231
260 232
260 245
260 258
260 261
260 265
260 277
260 280
260 281
260 292
260 295
260 323
261 207
261 217
261 225
261 231
261 232
261 245
261 255
261 258
261 260
261 277
261 280
261 281
261 292
261 321
262 216
262 219
262 244
262 247
262 254
262 255
262 272
262 273
262 276
262 278
262 281
262 304
262 308
263 209
263 215
263 227
263 233
263 235
263 240
263 241
263 256
263 257
263 264
263 267
263 291
263 301
263 305
263 309
264 212
264 221
264 240
264 241
264 242
264 244
264 254
264 263
264 267
264 272
264 273
264 303
264 304
264 309
264 318
265 217
265 223
265 230
265 232
265 245
265 248
265 260
265 268
265 271
265 280
265 287
265 292
265 294
265 295
266 226
266 234
266 238
266 239
266 259
266 269
266 270
266 275
266 288
266 290
266 296
266 299
266 300
266 316
266 317
267 209
267 212
267 233
267 235
267 240
267 241
267 242
267 257
267 263
267 264
267 272
267 291
267 301
267 303
267 309
267 318
268 223
268 230
268 245
268 246
268 248
268 265
268 271
268 280
268 285
268 287
268 294
268 295
268 297
269 234
269 238
269 239
269 249
269 259
269 266
269 270
269 288
269 290
269 296
269 299
269 316
270 234
270 238
270 249
270 266
270 269
270 290
270 296
270 299
270 316
270 319
271 230
271 245
271 246
271 248
271 250
271 265
271 268
271 274
271 280
271 285
271 287
271 294
271 297
271 313
271 329
272 221
272 241
272 242
272 244
272 254
272 262
272 264
272 267
272 273
272 276
272 303
272 304
272 309
272 318
272 333
273 221
273 242
273 244
273 247
273 254
273 262
273 264
273 272
273 276
273 278
273 303
273 304
273 318
273 326
273 333
274 222
274 229
274 246
274 250
274 252
274 271
274 282
274 285
274 293
274 294
274 297
274 313
274 315
275 226
275 234
275 239
275 243
275 259
275 266
275 282
275 284
275 288
275 290
275 300
275 311
275 317
276 244
276 247
276 254
276 255
276 262
276 272
276 273
276 278
276 281
276 304
276 308
276 326
276 331
277 231
277 232
277 255
277 258
277 260
277 261
277 280
277 281
277 292
277 295
277 320
277 321
277 323
277 341
278 247
278 255
278 258
278 262
278 273
278 276
278 281
278 308
278 320
278 331
279 236
279 237
279 283
279 298
279 306
279 310
279 312
279 314
279 328
279 344
280 245
280 248
280 260
280 261
280 265
280 268
280 271
280 277
280 287
280 292
280 294
280 295
280 323
280 330
280 334
281 225
281 247
281 255
281 258
281 260
281 261
281 262
281 276
281 277
281 278
281 292
281 308
281 320
281 321
281 331
281 347
282 243
282 250
282 252
282 274
282 275
282 284
282 293
282 300
282 311
282 313
282 315
282 342
283 236
283 237
283 251
283 279
283 286
283 298
283 302
283 306
283 312
283 314
283 322
283 328
283 340
284 239
284 243
284 252
284 259
284 275
284 282
284 288
284 290
284 293
284 300
284 311
284 315
284 317
284 342
285 246
285 248
285 250
285 268
285 271
285 274
285 287
285 293
285 294
285 297
285 313
285 329
285 343
286 228
286 251
286 253
286 256
286 283
286 289
286 291
286 298
286 302
286 305
286 307
286 314
286 322
286 324
286 332
286 338
287 245
287 248
287 265
287 268
287 271
287 280
287 285
287 294
287 295
287 297
287 329
287 330
287 334
287 348
288 234
288 239
288 259
288 266
288 269
288 275
288 284
288 290
288 296
288 300
288 311
288 316
288 317
288 336
288 352
289 253
289 256
289 257
289 286
289 291
289 302
289 305
289 307
289 322
289 324
289 327
289 332
290 234
290 239
290 259
290 266
290 269
290 270
290 275
290 284
290 288
290 296
290 299
290 300
290 316
290 317
290 336
290 352
291 233
291 256
291 257
291 263
291 267
291 286
291 289
291 301
291 305
291 307
291 309
291 324
291 327
291 332
291 349
292 258
292 260
292 261
292 265
292 277
292 280
292 281
292 295
292 320
292 321
292 323
292 330
292 341
292 345
292 357
293 250
293 252
293 274
293 282
293 284
293 285
293 297
293 300
293 311
293 313
293 315
293 342
293 343
293 346
293 353
294 248
294 265
294 268
294 271
294 274
294 280
294 285
294 287
294 295
294 297
294 313
294 329
294 334
294 343
294 348
295 245
295 260
295 265
295 268
295 277
295 280
295 287
295 292
295 294
295 321
295 323
295 329
295 330
295 334
295 345
295 348
295 357
295 363
296 266
296 269
296 270
296 288
296 290
296 299
296 316
296 317
296 319
296 336
296 339
296 364
296 371
297 246
297 268
297 271
297 274
297 285
297 287
297 293
297 294
297 313
297 315
297 329
297 343
297 346
297 348
297 362
298 251
298 279
298 283
298 286
298 302
298 306
298 307
298 312
298 314
298 322
298 328
298 338
298 340
298 344
298 359
298 360
299 266
299 269
299 270
299 290
299 296
299 316
299 317
299 319
299 336
299 339
299 371
299 374
300 259
300 266
300 275
300 282
300 284
300 288
300 290
300 293
300 311
300 315
300 317
300 342
300 352
300 356
301 257
301 263
301 267
301 291
301 303
301 305
301 309
301 318
301 327
301 332
301 335
301 349
301 354
301 355
301 370
302 251
302 253
302 283
302 286
302 289
302 298
302 307
302 314
302 322
302 324
302 328
302 332
302 338
302 340
302 359
302 366
303 264
303 267
303 272
303 273
303 301
303 304
303 309
303 318
303 326
303 333
303 335
303 337
303 350
303 355
303 358
304 254
304 262
304 264
304 272
304 273
304 276
304 303
304 308
304 318
304 326
304 331
304 333
304 337
304 350
304 351
304 358
304 365
305 256
305 257
305 263
305 286
305 289
305 291
305 301
305 307
305 309
305 324
305 327
305 332
305 349
305 354
305 361
305 370
306 279
306 283
306 298
306 310
306 312
306 314
306 325
306 328
306 340
306 344
306 360
307 256
307 286
307 289
307 291
307 298
307 302
307 305
307 314
307 322
307 324
307 332
307 338
307 359
307 361
307 366
308 262
308 276
308 278
308 281
308 304
308 320
308 321
308 326
308 331
308 347
308 350
308 351
308 367
308 369
308 376
309 263
309 264
309 267
309 272
309 291
309 301
309 303
309 305
309 318
309 327
309 333
309 335
309 337
309 349
309 354
309 355
309 358
309 370
310 279
310 306
310 312
310 325
310 328
310 344
310 377
311 275
311 282
311 284
311 288
311 293
311 300
311 315
311 317
311 342
311 352
311 353
311 356
312 279
312 283
312 298
312 306
312 310
312 314
312 325
312 328
312 340
312 344
312 360
312 377
313 271
313 274
313 282
313 285
313 293
313 294
313 297
313 315
313 329
313 343
313 346
313 353
313 362
314 279
314 283
314 286
314 298
314 302
314 306
314 307
314 312
314 322
314 328
314 338
314 340
314 344
314 359
314 360
314 381
315 274
315 282
315 284
315 293
315 297
315 300
315 311
315 313
315 342
315 343
315 346
315 353
315 362
315 379
316 266
316 269
316 270
316 288
316 290
316 296
316 299
316 317
316 319
316 336
316 339
316 352
316 364
316 371
316 374
317 259
317 266
317 275
317 284
317 288
317 290
317 296
317 299
317 300
317 311
317 316
317 336
317 342
317 352
317 356
317 364
317 371
318 264
318 267
318 272
318 273
318 301
318 303
318 304
318 309
318 326
318 333
318 335
318 337
318 354
318 355
318 358
318 365
319 270
319 296
319 299
319 316
319 336
319 339
319 371
319 374
320 258
320 277
320 278
320 281
320 292
320 308
320 321
320 323
320 331
320 341
320 345
320 347
320 351
320 367
320 372
320 373
320 376
320 382
321 261
321 277
321 281
321 292
321 295
321 308
321 320
321 323
321 330
321 341
321 345
321 347
321 357
321 367
321 372
321 373
322 283
322 286
322 289
322 298
322 302
322 307
322 314
322 324
322 328
322 332
322 338
322 340
322 359
322 360
322 366
322 385
323 260
323 277
323 280
323 292
323 295
323 320
323 321
323 330
323 334
323 341
323 345
323 357
323 363
323 372
323 373
323 380
324 286
324 289
324 291
324 302
324 305
324 307
324 322
324 327
324 332
324 338
324 349
324 359
324 361
324 366
324 378
324 385
325 306
325 310
325 312
325 344
325 377
325 391
326 273
326 276
326 303
326 304
326 308
326 318
326 331
326 333
326 337
326 350
326 351
326 365
326 369
326 376
326 393
326 395
327 289
327 291
327 301
327 305
327 309
327 324
327 332
327 335
327 349
327 354
327 355
327 361
327 370
327 383
327 388
328 279
328 283
328 298
328 302
328 306
328 310
328 312
328 314
328 322
328 338
328 340
328 344
328 359
328 360
328 377
328 381
328 389
329 271
329 285
329 287
329 294
329 295
329 297
329 313
329 330
329 334
329 343
329 346
329 348
329 362
329 363
329 368
329 375
329 390
329 396
330 280
330 287
330 292
330 295
330 321
330 323
330 329
330 334
330 341
330 345
330 348
330 357
330 363
330 368
330 373
330 380
330 386
331 276
331 278
331 281
331 304
331 308
331 320
331 326
331 333
331 347
331 350
331 351
331 365
331 367
331 369
331 376
332 286
332 289
332 291
332 301
332 302
332 305
332 307
332 322
332 324
332 327
332 338
332 349
332 354
332 361
332 366
332 370
332 378
332 388
333 272
333 273
333 303
333 304
333 309
333 318
333 326
333 331
333 335
333 337
333 350
333 351
333 355
333 358
333 365
333 369
333 393
334 280
334 287
334 294
334 295
334 323
334 329
334 330
334 345
334 348
334 357
334 363
334 368
334 375
334 380
334 386
334 390
335 301
335 303
335 309
335 318
335 327
335 333
335 337
335 349
335 354
335 355
335 358
335 370
335 383
335 397
336 288
336 290
336 296
336 299
336 316
336 317
336 319
336 339
336 352
336 364
336 371
336 374
336 394
336 398
337 303
337 304
337 309
337 318
337 326
337 333
337 335
337 350
337 354
337 355
337 358
337 365
337 383
337 393
337 397
338 286
338 298
338 302
338 307
338 314
338 322
338 324
338 328
338 332
338 340
338 359
338 360
338 366
338 378
338 381
338 385
338 399
339 296
339 299
339 316
339 319
339 336
339 364
339 371
339 374
339 398
340 283
340 298
340 302
340 306
340 312
340 314
340 322
340 328
340 338
340 344
340 359
340 360
340 366
340 377
340 381
340 389
340 399
341 277
341 292
341 320
341 321
341 323
341 330
341 345
341 347
341 357
341 367
341 372
341 373
341 380
341 382
341 406
342 282
342 284
342 293
342 300
342 311
342 315
342 317
342 346
342 352
342 353
342 356
342 379
342 384
342 392
342 402
342 404
343 285
343 293
343 294
343 297
343 313
343 315
343 329
343 346
343 348
343 353
343 362
343 368
343 375
343 379
343 387
343 396
343 400
344 279
344 298
344 306
344 310
344 312
344 314
344 325
344 328
344 340
344 360
344 377
344 381
344 389
344 391
345 292
345 295
345 320
345 321
345 323
345 330
345 334
345 341
345 347
345 357
345 363
345 367
345 372
345 373
345 380
345 382
345 386
345 408
345 410
346 293
346 297
346 313
346 315
346 329
346 342
346 343
346 353
346 362
346 375
346 379
346 387
346 400
346 402
347 281
347 308
347 320
347 321
347 331
347 341
347 345
347 351
347 367
347 369
347 372
347 373
347 376
347 382
347 401
347 406
348 287
348 294
348 295
348 297
348 329
348 330
348 334
348 343
348 357
348 362
348 363
348 368
348 375
348 386
348 390
348 396
348 412
349 291
349 301
349 305
349 309
349 324
349 327
349 332
349 335
349 354
349 355
349 361
349 370
349 378
349 383
349 388
349 405
349 407
350 303
350 304
350 308
350 326
350 331
350 333
350 337
350 351
350 358
350 365
350 369
350 376
350 393
350 395
350 403
350 414
351 304
351 308
351 320
351 326
351 331
351 333
351 347
351 350
351 365
351 367
351 369
351 376
351 382
351 393
351 395
351 401
351 403
351 414
352 288
352 290
352 300
352 311
352 316
352 317
352 336
352 342
352 356
352 364
352 371
352 384
352 392
352 394
352 411
352 416
353 293
353 311
353 313
353 315
353 342
353 343
353 346
353 356
353 362
353 379
353 384
353 387
353 400
353 402
353 404
354 301
354 305
354 309
354 318
354 327
354 332
354 335
354 337
354 349
354 355
354 358
354 361
354 370
354 383
354 388
354 397
354 405
355 301
355 303
355 309
355 318
355 327
355 333
355 335
355 337
355 349
355 354
355 358
355 370
355 383
355 388
355 397
355 405
356 300
356 311
356 317
356 342
356 352
356 353
356 364
356 384
356 392
356 394
356 404
356 411
356 416
357 292
357 295
357 321
357 323
357 330
357 334
357 341
357 345
357 348
357 363
357 368
357 372
357 373
357 380
357 386
357 390
357 408
357 410
358 303
358 304
358 309
358 318
358 333
358 335
358 337
358 350
358 354
358 355
358 365
358 370
358 383
358 393
358 397
358 405
358 419
359 298
359 302
359 307
359 314
359 322
359 324
359 328
359 338
359 340
359 360
359 366
359 381
359 385
359 399
359 409
359 413
359 417
360 298
360 306
360 312
360 314
360 322
360 328
360 338
360 340
360 344
360 359
360 366
360 377
360 381
360 389
360 399
360 413
361 305
361 307
361 324
361 327
361 332
361 349
361 354
361 366
361 370
361 378
361 385
361 388
361 407
361 409
361 415
362 297
362 313
362 315
362 329
362 343
362 346
362 348
362 353
362 368
362 375
362 379
362 387
362 396
362 400
362 402
362 420
362 429
363 295
363 323
363 329
363 330
363 334
363 345
363 348
363 357
363 368
363 373
363 375
363 380
363 386
363 390
363 396
363 410
363 412
363 431
364 296
364 316
364 317
364 336
364 339
364 352
364 356
364 371
364 374
364 392
364 394
364 398
364 411
364 416
365 304
365 318
365 326
365 331
365 333
365 337
365 350
365 351
365 358
365 369
365 376
365 393
365 395
365 397
365 403
365 414
365 419
366 302
366 307
366 322
366 324
366 332
366 338
366 340
366 359
366 360
366 361
366 378
366 381
366 385
366 399
366 409
366 415
366 417
366 432
367 308
367 320
367 321
367 331
367 341
367 345
367 347
367 351
367 369
367 372
367 373
367 376
367 382
367 401
367 403
367 406
367 408
367 421
368 329
368 330
368 334
368 343
368 348
368 357
368 362
368 363
368 375
368 380
368 386
368 387
368 390
368 396
368 412
368 424
368 431
369 308
369 326
369 331
369 333
369 347
369 350
369 351
369 365
369 367
369 376
369 382
369 393
369 395
369 401
369 403
369 414
369 425
370 301
370 305
370 309
370 327
370 332
370 335
370 349
370 354
370 355
370 358
370 361
370 378
370 383
370 388
370 405
370 407
370 415
370 428
371 296
371 299
371 316
371 317
371 319
371 336
371 339
371 352
371 364
371 374
371 394
371 398
371 416
371 418
372 320
372 321
372 323
372 341
372 345
372 347
372 357
372 367
372 373
372 376
372 380
372 382
372 401
372 406
372 408
372 410
372 421
372 430
373 320
373 321
373 323
373 330
373 341
373 345
373 347
373 357
373 363
373 367
373 372
373 380
373 382
373 386
373 406
373 408
373 410
373 430
373 434
374 299
374 316
374 319
374 336
374 339
374 364
374 371
374 394
374 398
374 418
374 423
375 329
375 334
375 343
375 346
375 348
375 362
375 363
375 368
375 386
375 387
375 390
375 396
375 400
375 412
375 424
375 429
375 441
376 308
376 320
376 326
376 331
376 347
376 350
376 351
376 365
376 367
376 369
376 372
376 382
376 395
376 401
376 403
376 406
376 414
376 421
376 425
377 310
377 312
377 325
377 328
377 340
377 344
377 360
377 381
377 389
377 391
377 422
377 426
377 436
378 324
378 332
378 338
378 349
378 361
378 366
378 370
378 385
378 388
378 399
378 407
378 409
378 415
378 432
378 437
378 444
379 315
379 342
379 343
379 346
379 353
379 362
379 384
379 387
379 400
379 402
379 404
379 420
379 427
379 429
379 449
380 323
380 330
380 334
380 341
380 345
380 357
380 363
380 368
380 372
380 373
380 386
380 390
380 406
380 408
380 410
380 412
380 430
380 431
380 434
380 439
381 314
381 328
381 338
381 340
381 344
381 359
381 360
381 366
381 377
381 385
381 389
381 399
381 413
381 417
381 436
381 448
382 320
382 341
382 345
382 347
382 351
382 367
382 369
382 372
382 373
382 376
382 401
382 403
382 406
382 408
382 421
382 425
382 430
382 450
383 327
383 335
383 337
383 349
383 354
383 355
383 358
383 370
383 388
383 393
383 397
383 405
383 407
383 428
383 438
384 342
384 352
384 353
384 356
384 379
384 392
384 400
384 402
384 404
384 411
384 427
384 433
384 435
384 451
384 452
385 322
385 324
385 338
385 359
385 361
385 366
385 378
385 381
385 399
385 407
385 409
385 413
385 415
385 417
385 432
385 437
386 330
386 334
386 345
386 348
386 357
386 363
386 368
386 373
386 375
386 380
386 390
386 396
386 408
386 410
386 412
386 424
386 431
386 434
386 439
387 343
387 346
387 353
387 362
387 368
387 375
387 379
387 396
387 400
387 402
387 420
387 424
387 429
387 441
387 449
388 327
388 332
388 349
388 354
388 355
388 361
388 370
388 378
388 383
388 405
388 407
388 415
388 428
388 437
388 444
389 328
389 340
389 344
389 360
389 377
389 381
389 391
389 413
389 422
389 426
389 436
389 448
389 455
390 329
390 334
390 348
390 357
390 363
390 368
390 375
390 380
390 386
390 396
390 410
390 412
390 424
390 429
390 431
390 434
390 439
390 441
390 446
391 325
391 344
391 377
391 389
391 422
391 426
391 436
392 342
392 352
392 356
392 364
392 384
392 394
392 404
392 411
392 416
392 427
392 433
392 435
392 440
392 452
392 456
393 326
393 333
393 337
393 350
393 351
393 358
393 365
393 369
393 383
393 395
393 397
393 403
393 414
393 419
393 438
393 442
393 445
393 447
394 336
394 352
394 356
394 364
394 371
394 374
394 392
394 398
394 411
394 416
394 418
394 433
394 435
394 440
394 443
394 456
394 458
394 462
395 326
395 350
395 351
395 365
395 369
395 376
395 393
395 397
395 401
395 403
395 414
395 419
395 425
395 442
395 445
396 329
396 343
396 348
396 362
396 363
396 368
396 375
396 386
396 387
396 390
396 400
396 412
396 420
396 424
396 429
396 431
396 441
396 446
396 459
397 335
397 337
397 354
397 355
397 358
397 365
397 383
397 393
397 395
397 405
397 414
397 419
397 428
397 438
397 442
397 447
397 461
397 467
398 336
398 339
398 364
398 371
398 374
398 394
398 416
398 418
398 423
398 440
398 443
398 458
398 462
398 463
399 338
399 340
399 359
399 360
399 366
399 378
399 381
399 385
399 409
399 413
399 417
399 432
399 448
399 471
400 343
400 346
400 353
400 362
400 375
400 379
400 384
400 387
400 396
400 402
400 404
400 420
400 427
400 429
400 441
400 449
400 451
400 459
401 347
401 351
401 367
401 369
401 372
401 376
401 382
401 395
401 403
401 406
401 408
401 414
401 421
401 425
401 445
401 450
401 453
401 457
402 342
402 346
402 353
402 362
402 379
402 384
402 387
402 400
402 404
402 420
402 427
402 429
402 433
402 449
402 451
402 452
402 473
403 350
403 351
403 365
403 367
403 369
403 376
403 382
403 393
403 395
403 401
403 406
403 414
403 419
403 421
403 425
403 442
403 445
403 453
403 457
403 469
403 472
404 342
404 353
404 356
404 379
404 384
404 392
404 400
404 402
404 411
404 416
404 420
404 427
404 433
404 435
404 449
404 451
404 452
404 456
404 473
405 349
405 354
405 355
405 358
405 370
405 383
405 388
405 397
405 407
405 415
405 428
405 438
405 444
405 454
405 461
406 341
406 347
406 367
406 372
406 373
406 376
406 380
406 382
406 401
406 403
406 408
406 410
406 421
406 425
406 430
406 434
406 450
406 453
406 457
406 466
407 349
407 361
407 370
407 378
407 383
407 385
407 388
407 405
407 409
407 415
407 428
407 432
407 437
407 444
407 454
407 476
408 345
408 357
408 367
408 372
408 373
408 380
408 382
408 386
408 401
408 406
408 410
408 421
408 430
408 434
408 439
408 450
408 457
408 466
409 359
409 361
409 366
409 378
409 385
409 399
409 407
409 413
409 415
409 417
409 432
409 437
409 444
409 468
409 471
410 345
410 357
410 363
410 372
410 373
410 380
410 386
410 390
410 406
410 408
410 412
410 430
410 431
410 434
410 439
410 450
410 460
410 466
410 480
411 352
411 356
411 364
411 384
411 392
411 394
411 404
411 416
411 427
411 433
411 435
411 440
411 452
411 456
411 458
411 462
411 477
412 348
412 363
412 368
412 375
412 380
412 386
412 390
412 396
412 410
412 424
412 429
412 431
412 434
412 439
412 441
412 446
412 460
412 465
412 482
413 359
413 360
413 381
413 385
413 389
413 399
413 409
413 417
413 426
413 432
413 436
413 448
413 455
413 464
413 471
413 478
414 350
414 351
414 365
414 369
414 376
414 393
414 395
414 397
414 401
414 403
414 419
414 425
414 442
414 445
414 447
414 453
414 469
414 472
414 474
415 361
415 366
415 370
415 378
415 385
415 388
415 405
415 407
415 409
415 428
415 432
415 437
415 444
415 454
415 468
415 476
416 352
416 356
416 364
416 371
416 392
416 394
416 398
416 404
416 411
416 418
416 433
416 435
416 440
416 443
416 452
416 456
416 458
416 462
416 477
417 359
417 366
417 381
417 385
417 399
417 409
417 413
417 432
417 436
417 437
417 448
417 464
417 468
417 471
417 478
418 371
418 374
418 394
418 398
418 416
418 423
418 440
418 443
418 462
418 463
418 470
419 358
419 365
419 393
419 395
419 397
419 403
419 414
419 438
419 442
419 445
419 447
419 461
419 467
419 469
419 474
420 362
420 379
420 387
420 396
420 400
420 402
420 404
420 424
420 427
420 429
420 441
420 449
420 451
420 459
420 473
420 479
420 481
420 483
421 367
421 372
421 376
421 382
421 401
421 403
421 406
421 408
421 425
421 430
421 450
421 453
421 457
421 466
421 472
421 486
421 488
422 377
422 389
422 391
422 426
422 436
422 455
422 475
423 374
423 398
423 418
423 443
423 462
423 463
423 470
424 368
424 375
424 386
424 387
424 390
424 396
424 412
424 420
424 429
424 431
424 439
424 441
424 446
424 459
424 460
424 465
424 479
424 482
424 484
425 369
425 376
425 382
425 395
425 401
425 403
425 406
425 414
425 421
425 442
425 445
425 450
425 453
425 457
425 469
425 472
426 377
426 389
426 391
426 413
426 422
426 436
426 448
426 455
426 464
426 475
426 487
427 379
427 384
427 392
427 400
427 402
427 404
427 411
427 420
427 433
427 435
427 449
427 451
427 452
427 456
427 473
427 483
427 494
428 370
428 383
428 388
428 397
428 405
428 407
428 415
428 437
428 438
428 444
428 454
428 461
428 476
428 485
428 489
429 362
429 375
429 379
429 387
429 390
429 396
429 400
429 402
429 412
429 420
429 424
429 431
429 441
429 446
429 449
429 459
429 465
429 479
429 481
429 483
429 484
430 372
430 373
430 380
430 382
430 406
430 408
430 410
430 421
430 434
430 439
430 450
430 457
430 460
430 466
430 480
430 486
431 363
431 368
431 380
431 386
431 390
431 396
431 410
431 412
431 424
431 429
431 434
431 439
431 441
431 446
431 460
431 465
431 480
431 482
431 484
431 496
431 498
432 366
432 378
432 385
432 399
432 407
432 409
432 413
432 415
432 417
432 437
432 444
432 468
432 471
432 476
432 491
433 384
433 392
433 394
433 402
433 404
433 411
433 416
433 427
433 435
433 440
433 451
433 452
433 456
433 458
433 473
433 477
433 494
433 495
434 373
434 380
434 386
434 390
434 406
434 408
434 410
434 412
434 430
434 431
434 439
434 450
434 460
434 465
434 466
434 480
434 482
434 496
435 384
435 392
435 394
435 404
435 411
435 416
435 427
435 433
435 440
435 451
435 452
435 456
435 458
435 462
435 473
435 477
435 490
435 494
435 495
436 377
436 381
436 389
436 391
436 413
436 417
436 422
436 426
436 448
436 455
436 464
436 475
436 478
436 487
437 378
437 385
437 388
437 407
437 409
437 415
437 417
437 428
437 432
437 444
437 454
437 468
437 471
437 476
437 489
437 491
438 383
438 393
438 397
438 405
438 419
438 428
438 442
438 447
438 454
438 461
438 467
438 474
438 485
438 493
439 380
439 386
439 390
439 408
439 410
439 412
439 424
439 430
439 431
439 434
439 446
439 460
439 465
439 466
439 480
439 482
439 484
439 496
439 498
440 392
440 394
440 398
440 411
440 416
440 418
440 433
440 435
440 443
440 456
440 458
440 462
440 463
440 477
440 490
440 492
441 375
441 387
441 390
441 396
441 400
441 412
441 420
441 424
441 429
441 431
441 446
441 449
441 459
441 465
441 479
441 481
441 484
441 505
442 393
442 395
442 397
442 403
442 414
442 419
442 425
442 438
442 445
442 447
442 461
442 467
442 469
442 472
442 474
442 499
442 504
443 394
443 398
443 416
443 418
443 423
443 440
443 458
443 462
443 463
443 470
443 492
443 502
444 378
444 388
444 405
444 407
444 409
444 415
444 428
444 432
444 437
444 454
444 468
444 476
444 485
444 489
444 491
445 393
445 395
445 401
445 403
445 414
445 419
445 425
445 442
445 447
445 453
445 467
445 469
445 472
445 474
445 499
445 504
445 508
446 390
446 396
446 412
446 424
446 429
446 431
446 439
446 441
446 459
446 460
446 465
446 479
446 481
446 482
446 484
446 498
446 505
447 393
447 397
447 414
447 419
447 438
447 442
447 445
447 454
447 461
447 467
447 469
447 474
447 493
447 499
447 501
448 381
448 389
448 399
448 413
448 417
448 426
448 436
448 455
448 464
448 471
448 478
448 487
448 497
448 506
449 379
449 387
449 400
449 402
449 404
449 420
449 427
449 429
449 441
449 451
449 452
449 459
449 473
449 479
449 481
449 483
449 500
449 507
450 382
450 401
450 406
450 408
450 410
450 421
450 425
450 430
450 434
450 453
450 457
450 466
450 472
450 486
450 488
450 513
451 384
451 400
451 402
451 404
451 420
451 427
451 433
451 435
451 449
451 452
451 456
451 473
451 477
451 481
451 483
451 494
451 500
451 510
452 384
452 392
452 402
452 404
452 411
452 416
452 427
452 433
452 435
452 449
452 451
452 456
452 458
452 473
452 477
452 483
452 490
452 494
452 495
452 500
452 510
452 511
453 401
453 403
453 406
453 414
453 421
453 425
453 445
453 450
453 457
453 469
453 472
453 486
453 488
453 508
453 509
454 405
454 407
454 415
454 428
454 437
454 438
454 444
454 447
454 461
454 467
454 476
454 485
454 489
454 493
454 516
455 389
455 413
455 422
455 426
455 436
455 448
455 464
455 475
455 478
455 487
455 497
455 514
456 392
456 394
456 404
456 411
456 416
456 427
456 433
456 435
456 440
456 451
456 452
456 458
456 462
456 473
456 477
456 490
456 492
456 494
456 495
456 510
456 511
456 517
457 401
457 403
457 406
457 408
457 421
457 425
457 430
457 450
457 453
457 466
457 472
457 486
457 488
457 509
457 513
458 394
458 398
458 411
458 416
458 433
458 435
458 440
458 443
458 452
458 456
458 462
458 463
458 477
458 490
458 492
458 495
458 517
458 518
459 396
459 400
459 420
459 424
459 429
459 441
459 446
459 449
459 465
459 479
459 481
459 483
459 484
459 505
459 507
459 525
460 410
460 412
460 424
460 430
460 431
460 434
460 439
460 446
460 465
460 466
460 480
460 482
460 484
460 496
460 498
460 503
460 505
461 397
461 405
461 419
461 428
461 438
461 442
461 447
461 454
461 467
461 474
461 485
461 493
461 501
461 515
461 526
462 394
462 398
462 411
462 416
462 418
462 423
462 435
462 440
462 443
462 456
462 458
462 463
462 470
462 477
462 490
462 492
462 495
462 502
462 518
462 524
463 398
463 418
463 423
463 440
463 443
463 458
463 462
463 470
463 490
463 492
463 502
463 523
463 524
464 413
464 417
464 426
464 436
464 448
464 455
464 471
464 478
464 487
464 497
464 506
464 514
465 412
465 424
465 429
465 431
465 434
465 439
465 441
465 446
465 459
465 460
465 479
465 480
465 482
465 484
465 496
465 498
465 505
465 530
465 533
466 406
466 408
466 410
466 421
466 430
466 434
466 439
466 450
466 457
466 460
466 480
466 482
466 486
466 488
466 496
466 503
466 513
466 519
466 521
467 397
467 419
467 438
467 442
467 445
467 447
467 454
467 461
467 469
467 474
467 493
467 499
467 501
467 515
467 527
468 409
468 415
468 417
468 432
468 437
468 444
468 471
468 476
468 478
468 489
468 491
468 506
468 512
468 522
469 403
469 414
469 419
469 425
469 442
469 445
469 447
469 453
469 467
469 472
469 474
469 499
469 501
469 504
469 508
469 509
469 528
469 535
470 418
470 423
470 443
470 462
470 463
470 492
470 502
470 523
470 524
471 399
471 409
471 413
471 417
471 432
471 437
471 448
471 464
471 468
471 478
471 491
471 497
471 506
471 512
472 403
472 414
472 421
472 425
472 442
472 445
472 450
472 453
472 457
472 469
472 474
472 488
472 499
472 504
472 508
472 509
472 528
472 535
472 536
473 402
473 404
473 420
473 427
473 433
473 435
473 449
473 451
473 452
473 456
473 477
473 481
473 483
473 494
473 495
473 500
473 510
473 511
473 529
473 539
474 414
474 419
474 438
474 442
474 445
474 447
474 461
474 467
474 469
474 472
474 499
474 501
474 504
474 508
474 527
474 528
474 534
475 422
475 426
475 436
475 455
475 487
475 514
475 532
476 407
476 415
476 428
476 432
476 437
476 444
476 454
476 468
476 485
476 489
476 491
476 516
476 520
476 522
477 411
477 416
477 433
477 435
477 440
477 451
477 452
477 456
477 458
477 462
477 473
477 490
477 492
477 494
477 495
477 510
477 511
477 517
477 518
477 542
478 413
478 417
478 436
478 448
478 455
478 464
478 468
478 471
478 487
478 497
478 506
478 512
478 537
479 420
479 424
479 429
479 441
479 446
479 449
479 459
479 465
479 481
479 482
479 483
479 484
479 498
479 505
479 507
479 525
479 533
479 543
480 410
480 430
480 431
480 434
480 439
480 460
480 465
480 466
480 482
480 484
480 486
480 496
480 498
480 503
480 519
480 521
480 530
480 544
481 420
481 429
481 441
481 446
481 449
481 451
481 459
481 473
481 479
481 483
481 484
481 500
481 505
481 507
481 525
481 529
481 545
482 412
482 424
482 431
482 434
482 439
482 446
482 460
482 465
482 466
482 479
482 480
482 484
482 496
482 498
482 503
482 505
482 521
482 530
482 533
482 544
483 420
483 427
483 429
483 449
483 451
483 452
483 459
483 473
483 479
483 481
483 494
483 500
483 507
483 510
483 525
483 529
483 539
483 545
484 424
484 429
484 431
484 439
484 441
484 446
484 459
484 460
484 465
484 479
484 480
484 481
484 482
484 496
484 498
484 505
484 507
484 525
484 530
484 533
484 543
485 428
485 438
485 444
485 454
485 461
485 476
485 489
485 493
485 515
485 516
485 520
485 526
485 548
486 421
486 430
486 450
486 453
486 457
486 466
486 480
486 488
486 503
486 509
486 513
486 519
486 521
486 536
486 538
486 540
486 552
487 426
487 436
487 448
487 455
487 464
487 475
487 478
487 497
487 514
487 531
487 532
487 537
488 421
488 450
488 453
488 457
488 466
488 472
488 486
488 508
488 509
488 513
488 519
488 535
488 536
488 538
489 428
489 437
489 444
489 454
489 468
489 476
489 485
489 491
489 493
489 516
489 520
489 522
489 526
490 435
490 440
490 452
490 456
490 458
490 462
490 463
490 477
490 492
490 494
490 495
490 510
490 511
490 517
490 518
490 524
490 542
490 551
490 553
491 432
491 437
491 444
491 468
491 471
491 476
491 489
491 506
491 512
491 520
491 522
491 541
491 546
492 440
492 443
492 456
492 458
492 462
492 463
492 470
492 477
492 490
492 495
492 502
492 511
492 517
492 518
492 523
492 524
492 551
492 553
492 556
493 438
493 447
493 454
493 461
493 467
493 485
493 489
493 499
493 501
493 515
493 516
493 526
493 527
493 548
493 555
494 427
494 433
494 435
494 451
494 452
494 456
494 473
494 477
494 483
494 490
494 495
494 500
494 510
494 511
494 517
494 529
494 539
494 542
494 559
495 433
495 435
495 452
495 456
495 458
495 462
495 473
495 477
495 490
495 492
495 494
495 500
495 510
495 511
495 517
495 518
495 542
495 551
495 562
496 431
496 434
496 439
496 460
496 465
496 466
496 480
496 482
496 484
496 498
496 503
496 505
496 519
496 521
496 530
496 533
496 540
496 544
496 554
497 448
497 455
497 464
497 471
497 478
497 487
497 506
497 512
497 514
497 531
497 537
497 541
497 567
498 431
498 439
498 446
498 460
498 465
498 479
498 480
498 482
498 484
498 496
498 503
498 505
498 521
498 525
498 530
498 533
498 543
498 544
498 554
499 442
499 445
499 447
499 467
499 469
499 472
499 474
499 493
499 501
499 504
499 508
499 515
499 527
499 528
499 534
499 535
499 547
499 549
500 449
500 451
500 452
500 473
500 481
500 483
500 494
500 495
500 507
500 510
500 511
500 529
500 539
500 545
500 559
500 561
501 447
501 461
501 467
501 469
501 474
501 493
501 499
501 504
501 515
501 526
501 527
501 528
501 534
501 547
501 555
501 564
502 443
502 462
502 463
502 470
502 492
502 518
502 523
502 524
502 556
502 570
503 460
503 466
503 480
503 482
503 486
503 496
503 498
503 513
503 519
503 521
503 530
503 540
503 544
503 552
503 568
504 442
504 445
504 469
504 472
504 474
504 499
504 501
504 508
504 509
504 527
504 528
504 534
504 535
504 536
504 547
504 549
505 441
505 446
505 459
505 460
505 465
505 479
505 481
505 482
505 484
505 496
505 498
505 507
505 525
505 530
505 533
505 543
505 554
505 566
505 574
506 448
506 464
506 468
506 471
506 478
506 491
506 497
506 512
506 522
506 531
506 537
506 541
506 546
506 563
507 449
507 459
507 479
507 481
507 483
507 484
507 500
507 505
507 525
507 529
507 533
507 539
507 543
507 545
507 566
508 445
508 453
508 469
508 472
508 474
508 488
508 499
508 504
508 509
508 513
508 528
508 534
508 535
508 536
508 538
508 549
508 558
509 453
509 457
509 469
509 472
509 486
509 488
509 504
509 508
509 513
509 519
509 528
509 535
509 536
509 538
509 549
509 558
509 560
510 451
510 452
510 456
510 473
510 477
510 483
510 490
510 494
510 495
510 500
510 511
510 517
510 529
510 539
510 542
510 559
510 561
510 562
511 452
511 456
511 473
511 477
511 490
511 492
511 494
511 495
511 500
511 510
511 517
511 518
511 539
511 542
511 551
511 553
511 559
511 561
511 562
511 572
512 468
512 471
512 478
512 491
512 497
512 506
512 522
512 537
512 541
512 546
512 557
512 563
512 571
513 450
513 457
513 466
513 486
513 488
513 503
513 508
513 509
513 519
513 521
513 535
513 536
513 538
513 540
513 552
513 558
513 560
514 455
514 464
514 475
514 487
514 497
514 531
514 532
514 537
514 550
514 567
514 577
515 461
515 467
515 485
515 493
515 499
515 501
515 516
515 526
515 527
515 534
515 547
515 548
515 555
515 564
516 454
516 476
516 485
516 489
516 493
516 515
516 520
516 526
516 548
516 555
516 565
516 576
517 456
517 458
517 477
517 490
517 492
517 494
517 495
517 510
517 511
517 518
517 524
517 542
517 551
517 553
517 556
517 559
517 562
517 572
518 458
518 462
518 477
518 490
518 492
518 495
518 502
518 511
518 517
518 523
518 524
518 542
518 551
518 553
518 556
518 562
518 572
518 587
519 466
519 480
519 486
519 488
519 496
519 503
519 509
519 513
519 521
519 530
519 536
519 538
519 540
519 544
519 552
519 558
519 560
519 568
519 583
520 476
520 485
520 489
520 491
520 516
520 522
520 526
520 546
520 548
520 557
520 565
521 466
521 480
521 482
521 486
521 496
521 498
521 503
521 513
521 519
521 530
521 533
521 538
521 540
521 544
521 552
521 554
521 560
521 568
521 569
521 583
522 468
522 476
522 489
522 491
522 506
522 512
522 520
522 541
522 546
522 557
522 563
522 565
522 571
522 590
523 463
523 470
523 492
523 502
523 518
523 524
523 553
523 556
523 570
523 584
523 598
524 462
524 463
524 470
524 490
524 492
524 502
524 517
524 518
524 523
524 551
524 553
524 556
524 570
524 572
524 584
524 587
525 459
525 479
525 481
525 483
525 484
525 498
525 505
525 507
525 529
525 530
525 533
525 543
525 545
525 554
525 566
525 573
525 574
525 582
526 461
526 485
526 489
526 493
526 501
526 515
526 516
526 520
526 527
526 548
526 555
526 564
526 576
526 586
527 467
527 474
527 493
527 499
527 501
527 504
527 515
527 526
527 528
527 534
527 547
527 549
527 555
527 564
527 575
527 586
527 589
528 469
528 472
528 474
528 499
528 501
528 504
528 508
528 509
528 527
528 534
528 535
528 536
528 547
528 549
528 558
528 575
528 579
529 473
529 481
529 483
529 494
529 500
529 507
529 510
529 525
529 539
529 543
529 545
529 559
529 561
529 566
529 578
529 588
530 465
530 480
530 482
530 484
530 496
530 498
530 503
530 505
530 519
530 521
530 525
530 533
530 540
530 543
530 544
530 554
530 568
530 569
530 573
530 574
531 487
531 497
531 506
531 514
531 532
531 537
531 550
531 567
531 577
531 581
532 475
532 487
532 514
532 531
532 537
532 550
532 577
532 580
532 597
533 465
533 479
533 482
533 484
533 496
533 498
533 505
533 507
533 521
533 525
533 530
533 543
533 544
533 554
533 566
533 569
533 573
533 574
534 474
534 499
534 501
534 504
534 508
534 515
534 527
534 528
534 535
534 547
534 549
534 564
534 575
534 589
535 469
535 472
535 488
535 499
535 504
535 508
535 509
535 513
535 528
535 534
535 536
535 538
535 549
535 558
535 560
535 575
535 579
535 585
536 472
536 486
536 488
536 504
536 508
536 509
536 513
536 519
536 528
536 535
536 538
536 549
536 552
536 558
536 560
536 579
536 585
536 596
536 604
537 478
537 487
537 497
537 506
537 512
537 514
537 531
537 532
537 541
537 563
537 567
537 577
537 581
537 599
538 486
538 488
538 508
538 509
538 513
538 519
538 521
538 535
538 536
538 540
538 549
538 552
538 558
538 560
538 579
538 583
538 585
538 596
538 604
539 473
539 483
539 494
539 500
539 507
539 510
539 511
539 529
539 542
539 545
539 559
539 561
539 562
539 578
539 588
539 593
539 610
540 486
540 496
540 503
540 513
540 519
540 521
540 530
540 538
540 544
540 552
540 558
540 560
540 568
540 569
540 583
540 596
540 600
541 491
541 497
541 506
541 512
541 522
541 537
541 546
541 557
541 563
541 567
541 571
541 581
541 590
541 591
541 599
542 477
542 490
542 494
542 495
542 510
542 511
542 517
542 518
542 539
542 551
542 553
542 559
542 561
542 562
542 572
542 592
542 593
542 595
543 479
543 484
543 498
543 505
543 507
543 525
543 529
543 530
543 533
543 545
543 554
543 566
543 573
543 574
543 578
543 582
543 606
543 609
544 480
544 482
544 496
544 498
544 503
544 519
544 521
544 530
544 533
544 540
544 552
544 554
544 568
544 569
544 573
544 574
544 583
544 600
544 603
545 481
545 483
545 500
545 507
545 525
545 529
545 539
545 543
545 561
545 566
545 574
545 578
545 582
545 588
545 609
545 611
546 491
546 506
546 512
546 520
546 522
546 541
546 557
546 563
546 565
546 571
546 590
546 591
546 599
547 499
547 501
547 504
547 515
547 527
547 528
547 534
547 549
547 555
547 564
547 575
547 586
547 589
548 485
548 493
548 515
548 516
548 520
548 526
548 555
548 557
548 564
548 565
548 576
548 586
548 594
548 605
548 612
549 499
549 504
549 508
549 509
549 527
549 528
549 534
549 535
549 536
549 538
549 547
549 558
549 575
549 579
549 585
549 589
549 607
549 619
550 514
550 531
550 532
550 567
550 577
550 580
550 597
550 601
550 608
551 490
551 492
551 495
551 511
551 517
551 518
551 524
551 542
551 553
551 556
551 559
551 562
551 572
551 587
551 592
551 595
551 621
552 486
552 503
552 513
552 519
552 521
552 536
552 538
552 540
552 544
552 558
552 560
552 568
552 569
552 583
552 585
552 596
552 600
552 604
552 613
553 490
553 492
553 511
553 517
553 518
553 523
553 524
553 542
553 551
553 556
553 562
553 570
553 572
553 584
553 587
553 592
553 595
553 598
553 615
554 496
554 498
554 505
554 521
554 525
554 530
554 533
554 543
554 544
554 566
554 568
554 569
554 573
554 574
554 582
554 600
554 603
554 606
555 493
555 501
555 515
555 516
555 526
555 527
555 547
555 548
555 564
555 565
555 576
555 586
555 594
555 605
555 623
556 492
556 502
556 517
556 518
556 523
556 524
556 551
556 553
556 570
556 572
556 584
556 587
556 595
556 598
556 615
557 512
557 520
557 522
557 541
557 546
557 548
557 563
557 565
557 571
557 590
557 591
557 594
557 602
557 612
557 614
558 508
558 509
558 513
558 519
558 528
558 535
558 536
558 538
558 540
558 549
558 552
558 560
558 575
558 579
558 585
558 596
558 604
558 607
559 494
559 500
559 510
559 511
559 517
559 529
559 539
559 542
559 551
559 561
559 562
559 572
559 578
559 588
559 592
559 593
559 595
559 610
559 617
559 620
560 509
560 513
560 519
560 521
560 535
560 536
560 538
560 540
560 552
560 558
560 568
560 579
560 583
560 585
560 596
560 604
560 613
561 500
561 510
561 511
561 529
561 539
561 542
561 545
561 559
561 562
561 578
561 588
561 592
561 593
561 610
561 611
561 617
562 495
562 510
562 511
562 517
562 518
562 539
562 542
562 551
562 553
562 559
562 561
562 572
562 587
562 588
562 592
562 593
562 595
562 610
562 617
562 620
562 621
563 506
563 512
563 522
563 537
563 541
563 546
563 557
563 567
563 571
563 581
563 590
563 591
563 599
563 618
563 630
564 501
564 515
564 526
564 527
564 534
564 547
564 548
564 555
564 576
564 586
564 589
564 605
564 625
565 516
565 520
565 522
565 546
565 548
565 555
565 557
565 571
565 576
565 590
565 594
565 602
565 612
565 614
566 505
566 507
566 525
566 529
566 533
566 543
566 545
566 554
566 573
566 574
566 578
566 582
566 606
566 609
566 611
566 632
566 633
567 497
567 514
567 531
567 537
567 541
567 550
567 563
567 577
567 581
567 591
567 597
567 599
567 608
567 618
567 622
568 503
568 519
568 521
568 530
568 540
568 544
568 552
568 554
568 560
568 569
568 573
568 583
568 596
568 600
568 603
568 613
568 616
569 521
569 530
569 533
569 540
569 544
569 552
569 554
569 568
569 573
569 574
569 583
569 600
569 603
569 606
569 613
569 616
569 624
569 628
570 502
570 523
570 524
570 553
570 556
570 584
570 587
570 598
570 615
570 627
571 512
571 522
571 541
571 546
571 557
571 563
571 565
571 590
571 591
571 599
571 602
571 614
572 511
572 517
572 518
572 524
572 542
572 551
572 553
572 556
572 559
572 562
572 584
572 587
572 592
572 593
572 595
572 615
572 620
572 621
573 525
573 530
573 533
573 543
573 544
573 554
573 566
573 568
573 569
573 574
573 582
573 600
573 603
573 606
573 609
573 616
573 624
573 628
573 633
574 505
574 525
574 530
574 533
574 543
574 544
574 545
574 554
574 566
574 569
574 573
574 582
574 603
574 606
574 609
574 624
574 628
574 633
575 527
575 528
575 534
575 535
575 547
575 549
575 558
575 579
575 589
575 607
575 619
575 629
575 631
575 636
575 641
576 516
576 526
576 548
576 555
576 564
576 565
576 586
576 594
576 602
576 605
576 612
576 623
576 634
576 640
577 514
577 531
577 532
577 537
577 550
577 567
577 580
577 581
577 597
577 601
577 608
577 618
577 622
577 626
577 651
578 529
578 539
578 543
578 545
578 559
578 561
578 566
578 582
578 588
578 593
578 609
578 610
578 611
578 617
578 632
578 635
578 639
579 528
579 535
579 536
579 538
579 549
579 558
579 560
579 575
579 585
579 589
579 596
579 604
579 607
579 619
579 629
579 636
579 638
579 641
579 644
580 532
580 550
580 577
580 597
580 601
580 608
580 626
581 531
581 537
581 541
581 563
581 567
581 577
581 591
581 597
581 599
581 608
581 618
581 622
581 630
581 649
581 651
582 525
582 543
582 545
582 554
582 566
582 573
582 574
582 578
582 603
582 606
582 609
582 611
582 628
582 632
582 633
582 639
583 519
583 521
583 538
583 540
583 544
583 552
583 560
583 568
583 569
583 585
583 596
583 600
583 603
583 604
583 613
583 616
583 642
583 653
584 523
584 524
584 553
584 556
584 570
584 572
584 587
584 598
584 615
584 627
584 647
584 652
585 535
585 536
585 538
585 549
585 552
585 558
585 560
585 579
585 583
585 596
585 604
585 607
585 613
585 629
585 638
585 642
585 644
586 526
586 527
586 547
586 548
586 555
586 564
586 576
586 589
586 605
586 623
586 625
586 631
586 640
586 645
587 518
587 524
587 551
587 553
587 556
587 562
587 570
587 572
587 584
587 592
587 595
587 598
587 615
587 620
587 621
587 627
587 647
587 652
587 655
588 529
588 539
588 545
588 559
588 561
588 562
588 578
588 592
588 593
588 610
588 611
588 617
588 632
588 635
588 639
588 646
588 650
589 527
589 534
589 547
589 549
589 564
589 575
589 579
589 586
589 605
589 607
589 619
589 625
589 631
589 636
589 645
590 522
590 541
590 546
590 557
590 563
590 565
590 571
590 591
590 599
590 602
590 612
590 614
590 637
590 643
590 648
591 541
591 546
591 557
591 563
591 567
591 571
591 581
591 590
591 599
591 614
591 618
591 630
591 643
591 648
591 649
592 542
592 551
592 553
592 559
592 561
592 562
592 572
592 587
592 588
592 593
592 595
592 610
592 617
592 620
592 621
592 650
592 654
593 539
593 542
593 559
593 561
593 562
593 572
593 578
593 588
593 592
593 595
593 610
593 611
593 617
593 620
593 635
593 646
593 650
594 548
594 555
594 557
594 565
594 576
594 602
594 605
594 612
594 614
594 623
594 634
594 637
595 542
595 551
595 553
595 556
595 559
595 562
595 572
595 587
595 592
595 593
595 615
595 617
595 620
595 621
595 654
595 655
596 536
596 538
596 540
596 552
596 558
596 560
596 568
596 579
596 583
596 585
596 600
596 604
596 613
596 616
596 638
596 642
597 532
597 550
597 567
597 577
597 580
597 581
597 601
597 608
597 618
597 622
597 626
597 651
598 523
598 553
598 556
598 570
598 584
598 587
598 615
598 627
598 647
598 652
599 537
599 541
599 546
599 563
599 567
599 571
599 581
599 590
599 591
599 618
599 622
599 630
599 643
599 648
599 649
600 540
600 544
600 552
600 554
600 568
600 569
600 573
600 583
600 596
600 603
600 613
600 616
600 624
600 628
600 642
600 653
600 656
601 550
601 577
601 580
601 597
601 608
601 626
602 557
602 565
602 571
602 576
602 590
602 594
602 612
602 614
602 623
602 634
602 637
602 643
603 544
603 554
603 568
603 569
603 573
603 574
603 582
603 583
603 600
603 606
603 609
603 613
603 616
603 624
603 628
603 633
603 653
603 656
604 536
604 538
604 552
604 558
604 560
604 579
604 583
604 585
604 596
604 607
604 613
604 619
604 629
604 638
604 641
604 642
604 644
605 548
605 555
605 564
605 576
605 586
605 589
605 594
605 612
605 623
605 625
605 631
605 634
605 640
605 645
606 543
606 554
606 566
606 569
606 573
606 574
606 582
606 603
606 609
606 611
606 624
606 628
606 632
606 633
606 639
606 656
607 549
607 558
607 575
607 579
607 585
607 589
607 604
607 619
607 629
607 631
607 636
607 641
607 644
608 550
608 567
608 577
608 580
608 581
608 597
608 601
608 618
608 622
608 626
608 630
608 649
608 651
609 543
609 545
609 566
609 573
609 574
609 578
609 582
609 603
609 606
609 611
609 628
609 632
609 633
609 639
610 539
610 559
610 561
610 562
610 578
610 588
610 592
610 593
610 611
610 617
610 620
610 635
610 639
610 646
610 650
611 545
611 561
611 566
611 578
611 582
611 588
611 593
611 606
611 609
611 610
611 632
611 633
611 635
611 639
611 646
612 548
612 557
612 565
612 576
612 590
612 594
612 602
612 605
612 614
612 623
612 634
612 637
613 552
613 560
613 568
613 569
613 583
613 585
613 596
613 600
613 603
613 604
613 616
613 624
613 638
613 642
613 653
614 557
614 565
614 571
614 590
614 591
614 594
614 602
614 612
614 634
614 637
614 643
614 648
615 553
615 556
615 570
615 572
615 584
615 587
615 595
615 598
615 620
615 621
615 627
615 647
615 652
615 654
615 655
616 568
616 569
616 573
616 583
616 596
616 600
616 603
616 613
616 624
616 628
616 642
616 653
616 656
617 559
617 561
617 562
617 578
617 588
617 592
617 593
617 595
617 610
617 620
617 621
617 635
617 639
617 646
617 650
617 654
618 563
618 567
618 577
618 581
618 591
618 597
618 599
618 608
618 622
618 630
618 648
618 649
618 651
619 549
619 575
619 579
619 589
619 604
619 607
619 625
619 629
619 631
619 636
619 641
619 644
620 559
620 562
620 572
620 587
620 592
620 593
620 595
620 610
620 615
620 617
620 621
620 635
620 646
620 650
620 654
620 655
621 551
621 562
621 572
621 587
621 592
621 595
621 615
621 617
621 620
621 627
621 650
621 652
621 654
621 655
622 567
622 577
622 581
622 597
622 599
622 608
622 618
622 626
622 630
622 649
622 651
623 555
623 576
623 586
623 594
623 602
623 605
623 612
623 625
623 634
623 640
623 645
624 569
624 573
624 574
624 600
624 603
624 606
624 613
624 616
624 628
624 633
624 653
624 656
625 564
625 586
625 589
625 605
625 619
625 623
625 631
625 636
625 640
625 645
626 577
626 580
626 597
626 601
626 608
626 622
626 651
627 570
627 584
627 587
627 598
627 615
627 621
627 647
627 652
627 655
628 569
628 573
628 574
628 582
628 600
628 603
628 606
628 609
628 616
628 624
628 632
628 633
628 656
629 575
629 579
629 585
629 604
629 607
629 619
629 636
629 638
629 641
629 644
630 563
630 581
630 591
630 599
630 608
630 618
630 622
630 643
630 648
630 649
630 651
631 575
631 586
631 589
631 605
631 607
631 619
631 625
631 636
631 640
631 641
631 645
632 566
632 578
632 582
632 588
632 606
632 609
632 611
632 628
632 633
632 635
632 639
632 646
633 566
633 573
633 574
633 582
633 603
633 606
633 609
633 611
633 624
633 628
633 632
633 639
633 656
634 576
634 594
634 602
634 605
634 612
634 614
634 623
634 637
634 640
635 578
635 588
635 593
635 610
635 611
635 617
635 620
635 632
635 639
635 646
635 650
636 575
636 579
636 589
636 607
636 619
636 625
636 629
636 631
636 641
636 644
636 645
637 590
637 594
637 602
637 612
637 614
637 634
637 643
637 648
638 579
638 585
638 596
638 604
638 613
638 629
638 641
638 642
638 644
639 578
639 582
639 588
639 606
639 609
639 610
639 611
639 617
639 632
639 633
639 635
639 646
639 650
640 576
640 586
640 605
640 623
640 625
640 631
640 634
640 645
641 575
641 579
641 604
641 607
641 619
641 629
641 631
641 636
641 638
641 644
642 583
642 585
642 596
642 600
642 604
642 613
642 616
642 638
642 644
642 653
643 590
643 591
643 599
643 602
643 614
643 630
643 637
643 648
643 649
644 579
644 585
644 604
644 607
644 619
644 629
644 636
644 638
644 641
644 642
645 586
645 589
645 605
645 623
645 625
645 631
645 636
645 640
646 588
646 593
646 610
646 611
646 617
646 620
646 632
646 635
646 639
646 650
646 654
647 584
647 587
647 598
647 615
647 627
647 652
647 655
648 590
648 591
648 599
648 614
648 618
648 630
648 637
648 643
648 649
649 581
649 591
649 599
649 608
649 618
649 622
649 630
649 643
649 648
649 651
650 588
650 592
650 593
650 610
650 617
650 620
650 621
650 635
650 639
650 646
650 654
650 655
651 577
651 581
651 597
651 608
651 618
651 622
651 626
651 630
651 649
652 584
652 587
652 598
652 615
652 621
652 627
652 647
652 654
652 655
653 583
653 600
653 603
653 613
653 616
653 624
653 642
653 656
654 592
654 595
654 615
654 617
654 620
654 621
654 646
654 650
654 652
654 655
655 587
655 595
655 615
655 620
655 621
655 627
655 647
655 650
655 652
655 654
656 600
656 603
656 606
656 616
656 624
656 628
656 633
656 653
