1 5
1 18
1 31
1 41
1 47
1 57
2 3
2 10
2 21
2 22
2 32
2 34
2 48
3 2
3 10
3 22
3 34
3 48
4 6
4 14
4 20
4 26
4 27
4 38
4 58
5 1
5 18
5 31
5 47
6 4
6 20
6 26
6 27
6 33
6 38
6 56
6 60
7 9
7 12
7 23
7 33
7 51
7 53
8 24
8 25
8 39
8 40
8 42
8 54
9 7
9 12
9 13
9 23
9 50
9 53
10 2
10 3
10 14
10 21
10 22
10 32
10 34
10 36
10 48
11 17
11 28
11 30
11 43
11 46
11 62
12 7
12 9
12 13
12 16
12 23
12 44
12 50
12 53
12 59
13 9
13 12
13 15
13 16
13 35
13 44
13 50
13 59
14 4
14 10
14 20
14 21
14 32
14 36
14 37
14 38
14 61
15 13
15 16
15 29
15 35
15 49
15 52
15 69
16 12
16 13
16 15
16 35
16 44
16 49
17 11
17 30
17 43
17 55
18 1
18 5
18 19
18 31
18 41
18 47
18 57
18 63
19 18
19 28
19 41
19 45
19 46
19 63
19 68
20 4
20 6
20 14
20 21
20 26
20 27
20 36
20 37
20 38
20 58
20 61
21 2
21 10
21 14
21 20
21 32
21 36
21 37
21 61
21 66
22 2
22 3
22 10
22 32
22 34
22 48
22 64
22 71
23 7
23 9
23 12
23 50
23 51
23 53
23 73
24 8
24 25
24 39
24 40
24 42
24 54
24 77
25 8
25 24
25 39
25 40
25 42
25 54
26 4
26 6
26 20
26 27
26 33
26 38
26 51
26 56
26 58
26 60
26 70
26 76
27 4
27 6
27 20
27 26
27 33
27 37
27 38
27 56
27 58
27 60
27 61
27 70
28 11
28 19
28 30
28 43
28 45
28 46
28 62
28 68
29 15
29 49
29 52
29 65
29 79
30 11
30 17
30 28
30 43
30 45
30 46
30 55
30 62
30 68
30 74
30 80
31 1
31 5
31 18
31 47
31 57
31 75
31 90
32 2
32 10
32 14
32 21
32 22
32 34
32 36
32 37
32 48
32 64
32 66
32 82
32 88
32 89
33 6
33 7
33 26
33 27
33 51
33 56
33 60
33 70
33 76
33 84
33 94
34 2
34 3
34 10
34 22
34 32
34 48
34 54
34 64
34 67
34 71
34 82
34 96
35 13
35 15
35 16
35 44
35 49
35 50
35 52
35 59
35 69
35 87
35 92
36 10
36 14
36 20
36 21
36 32
36 37
36 38
36 61
36 64
36 66
36 81
36 88
36 89
37 14
37 20
37 21
37 27
37 32
37 36
37 38
37 58
37 61
37 66
37 81
37 89
37 91
38 4
38 6
38 14
38 20
38 26
38 27
38 36
38 37
38 58
38 60
38 61
38 70
38 81
38 91
39 8
39 24
39 25
39 40
39 42
39 77
39 86
39 97
40 8
40 24
40 25
40 39
40 42
40 54
40 77
40 85
40 86
40 97
41 1
41 18
41 19
41 45
41 47
41 57
41 63
42 8
42 24
42 25
42 39
42 40
42 54
42 67
42 72
42 77
42 85
42 86
43 11
43 17
43 28
43 30
43 46
43 55
43 62
43 74
43 80
43 93
44 12
44 13
44 16
44 35
44 49
44 50
44 59
44 69
44 78
44 87
44 92
45 19
45 28
45 30
45 41
45 46
45 62
45 63
45 68
45 95
45 101
46 11
46 19
46 28
46 30
46 43
46 45
46 62
46 68
46 80
46 95
47 1
47 5
47 18
47 31
47 41
47 57
47 75
47 90
48 2
48 3
48 10
48 22
48 32
48 34
48 64
48 67
48 71
48 82
48 88
48 96
49 15
49 16
49 29
49 35
49 44
49 52
49 65
49 69
49 83
49 87
49 92
50 9
50 12
50 13
50 23
50 35
50 44
50 53
50 59
50 73
50 78
50 87
50 98
50 104
51 7
51 23
51 26
51 33
51 53
51 56
51 73
51 76
51 94
51 100
52 15
52 29
52 35
52 49
52 65
52 69
52 79
52 83
52 110
53 7
53 9
53 12
53 23
53 50
53 51
53 59
53 73
53 78
53 98
53 100
54 8
54 24
54 25
54 34
54 40
54 42
54 67
54 71
54 72
54 85
54 86
54 102
54 112
55 17
55 30
55 43
55 62
55 74
55 80
55 93
56 6
56 26
56 27
56 33
56 51
56 58
56 60
56 70
56 76
56 84
56 94
56 99
57 1
57 18
57 31
57 41
57 47
57 63
57 75
57 103
58 4
58 20
58 26
58 27
58 37
58 38
58 56
58 60
58 61
58 70
58 81
58 84
58 91
58 105
59 12
59 13
59 35
59 44
59 50
59 53
59 73
59 78
59 87
59 92
59 98
59 104
59 113
60 6
60 26
60 27
60 33
60 38
60 56
60 58
60 70
60 76
60 84
60 91
60 94
60 99
60 105
61 14
61 20
61 21
61 27
61 36
61 37
61 38
61 58
61 66
61 70
61 81
61 89
61 91
61 114
62 11
62 28
62 30
62 43
62 45
62 46
62 55
62 68
62 74
62 80
62 93
62 95
62 111
63 18
63 19
63 41
63 45
63 57
63 68
63 95
63 101
63 103
64 22
64 32
64 34
64 36
64 48
64 66
64 71
64 82
64 88
64 89
64 96
64 106
64 108
65 29
65 49
65 52
65 69
65 79
65 83
65 90
65 109
65 110
65 126
66 21
66 32
66 36
66 37
66 61
66 64
66 81
66 82
66 88
66 89
66 106
66 108
67 34
67 42
67 48
67 54
67 71
67 72
67 82
67 85
67 96
67 102
67 112
67 117
68 19
68 28
68 30
68 45
68 46
68 62
68 63
68 80
68 95
68 101
68 111
68 131
69 15
69 35
69 44
69 49
69 52
69 65
69 83
69 87
69 92
69 110
69 115
70 26
70 27
70 33
70 38
70 56
70 58
70 60
70 61
70 76
70 81
70 84
70 91
70 99
70 105
70 114
70 128
70 129
71 22
71 34
71 48
71 54
71 64
71 67
71 72
71 82
71 88
71 96
71 102
71 106
71 112
71 117
72 42
72 54
72 67
72 71
72 85
72 86
72 96
72 102
72 112
72 120
72 127
73 23
73 50
73 51
73 53
73 59
73 78
73 98
73 100
73 104
73 116
73 122
74 30
74 43
74 55
74 62
74 80
74 93
74 111
75 31
75 47
75 57
75 90
75 103
75 107
75 121
75 123
76 26
76 33
76 51
76 56
76 60
76 70
76 84
76 94
76 99
76 100
76 105
76 116
76 119
77 24
77 39
77 40
77 42
77 85
77 86
77 97
77 118
77 120
77 136
78 44
78 50
78 53
78 59
78 73
78 87
78 98
78 100
78 104
78 113
78 134
79 29
79 52
79 65
79 83
79 90
79 107
79 109
79 110
79 125
79 126
80 30
80 43
80 46
80 55
80 62
80 68
80 74
80 93
80 95
80 111
81 36
81 37
81 38
81 58
81 61
81 66
81 70
81 88
81 89
81 91
81 105
81 108
81 114
81 128
81 132
81 133
82 32
82 34
82 48
82 64
82 66
82 67
82 71
82 88
82 96
82 102
82 106
82 108
82 117
83 49
83 52
83 65
83 69
83 79
83 92
83 109
83 110
83 115
83 126
83 137
84 33
84 56
84 58
84 60
84 70
84 76
84 91
84 94
84 99
84 105
84 119
84 128
84 129
84 140
84 141
85 40
85 42
85 54
85 67
85 72
85 77
85 86
85 97
85 102
85 112
85 118
85 120
85 127
85 136
86 39
86 40
86 42
86 54
86 72
86 77
86 85
86 97
86 118
86 120
86 127
86 136
87 35
87 44
87 49
87 50
87 59
87 69
87 78
87 92
87 104
87 113
87 115
87 130
88 32
88 36
88 48
88 64
88 66
88 71
88 81
88 82
88 89
88 96
88 106
88 108
88 117
88 132
89 32
89 36
89 37
89 61
89 64
89 66
89 81
89 88
89 91
89 106
89 108
89 114
89 132
89 133
90 31
90 47
90 65
90 75
90 79
90 103
90 107
90 109
90 123
90 125
90 143
91 37
91 38
91 58
91 60
91 61
91 70
91 81
91 84
91 89
91 99
91 105
91 114
91 128
91 129
91 133
91 142
92 35
92 44
92 49
92 59
92 69
92 83
92 87
92 104
92 110
92 113
92 115
92 130
92 145
93 43
93 55
93 62
93 74
93 80
93 95
93 111
94 33
94 51
94 56
94 60
94 76
94 84
94 99
94 100
94 116
94 119
94 122
94 139
94 140
95 45
95 46
95 62
95 63
95 68
95 80
95 93
95 101
95 111
95 131
96 34
96 48
96 64
96 67
96 71
96 72
96 82
96 88
96 102
96 106
96 112
96 117
96 135
97 39
97 40
97 77
97 85
97 86
97 118
97 120
97 136
97 146
98 50
98 53
98 59
98 73
98 78
98 100
98 104
98 113
98 116
98 122
98 134
98 138
99 56
99 60
99 70
99 76
99 84
99 91
99 94
99 105
99 116
99 119
99 128
99 129
99 139
99 140
99 141
100 51
100 53
100 73
100 76
100 78
100 94
100 98
100 116
100 119
100 122
100 138
100 139
100 149
101 45
101 63
101 68
101 95
101 103
101 121
101 124
101 131
102 54
102 67
102 71
102 72
102 82
102 85
102 96
102 106
102 112
102 117
102 127
102 135
103 57
103 63
103 75
103 90
103 101
103 107
103 121
103 123
103 124
103 151
104 50
104 59
104 73
104 78
104 87
104 92
104 98
104 113
104 130
104 134
104 138
104 147
105 58
105 60
105 70
105 76
105 81
105 84
105 91
105 99
105 114
105 119
105 128
105 129
105 133
105 140
105 141
105 142
105 154
106 64
106 66
106 71
106 82
106 88
106 89
106 96
106 102
106 108
106 117
106 132
106 159
107 75
107 79
107 90
107 103
107 109
107 121
107 123
107 125
107 143
107 150
108 64
108 66
108 81
108 82
108 88
108 89
108 106
108 114
108 117
108 132
108 133
108 157
108 159
109 65
109 79
109 83
109 90
109 107
109 110
109 125
109 126
109 137
109 143
109 148
109 152
110 52
110 65
110 69
110 79
110 83
110 92
110 109
110 115
110 125
110 126
110 130
110 137
110 148
110 152
110 153
111 62
111 68
111 74
111 80
111 93
111 95
111 131
112 54
112 67
112 71
112 72
112 85
112 96
112 102
112 117
112 120
112 127
112 135
112 144
112 160
112 166
113 59
113 78
113 87
113 92
113 98
113 104
113 115
113 130
113 134
113 138
113 145
113 147
113 164
113 165
114 61
114 70
114 81
114 89
114 91
114 105
114 108
114 128
114 129
114 132
114 133
114 142
114 154
114 156
115 69
115 83
115 87
115 92
115 110
115 113
115 126
115 130
115 137
115 145
115 147
115 148
115 153
116 73
116 76
116 94
116 98
116 99
116 100
116 119
116 122
116 138
116 139
116 140
116 149
116 155
117 67
117 71
117 82
117 88
117 96
117 102
117 106
117 108
117 112
117 135
117 158
117 159
117 160
118 77
118 85
118 86
118 97
118 120
118 127
118 136
118 144
118 146
118 162
118 163
119 76
119 84
119 94
119 99
119 100
119 105
119 116
119 122
119 129
119 139
119 140
119 141
119 149
119 155
119 167
120 72
120 77
120 85
120 86
120 97
120 112
120 118
120 127
120 135
120 136
120 144
120 146
120 162
120 163
120 166
121 75
121 101
121 103
121 107
121 123
121 124
121 150
121 151
121 168
122 73
122 94
122 98
122 100
122 116
122 119
122 134
122 138
122 139
122 140
122 149
122 155
122 169
122 174
123 75
123 90
123 103
123 107
123 121
123 124
123 125
123 143
123 150
123 151
123 176
124 101
124 103
124 121
124 123
124 131
124 151
124 161
124 168
124 173
125 79
125 90
125 107
125 109
125 110
125 123
125 126
125 143
125 148
125 150
125 152
125 171
126 65
126 79
126 83
126 109
126 110
126 115
126 125
126 137
126 143
126 148
126 152
126 153
126 180
127 72
127 85
127 86
127 102
127 112
127 118
127 120
127 135
127 136
127 144
127 160
127 162
127 166
127 177
128 70
128 81
128 84
128 91
128 99
128 105
128 114
128 129
128 133
128 140
128 141
128 142
128 154
128 156
128 167
129 70
129 84
129 91
129 99
129 105
129 114
129 119
129 128
129 133
129 140
129 141
129 142
129 154
129 155
129 167
130 87
130 92
130 104
130 110
130 113
130 115
130 137
130 145
130 147
130 153
130 164
130 181
131 68
131 95
131 101
131 111
131 124
131 161
131 172
132 81
132 88
132 89
132 106
132 108
132 114
132 133
132 142
132 156
132 157
132 159
132 170
132 178
133 81
133 89
133 91
133 105
133 108
133 114
133 128
133 129
133 132
133 142
133 154
133 156
133 157
133 170
134 78
134 98
134 104
134 113
134 122
134 138
134 147
134 149
134 164
134 165
134 169
135 96
135 102
135 112
135 117
135 120
135 127
135 144
135 158
135 160
135 162
135 166
135 175
135 177
136 77
136 85
136 86
136 97
136 118
136 120
136 127
136 144
136 146
136 162
136 163
136 166
136 186
137 83
137 109
137 110
137 115
137 126
137 130
137 145
137 148
137 152
137 153
137 180
137 181
137 182
138 98
138 100
138 104
138 113
138 116
138 122
138 134
138 139
138 149
138 165
138 169
138 174
138 188
139 94
139 99
139 100
139 116
139 119
139 122
139 138
139 140
139 141
139 149
139 155
139 167
139 174
139 191
140 84
140 94
140 99
140 105
140 116
140 119
140 122
140 128
140 129
140 139
140 141
140 149
140 154
140 155
140 167
140 187
140 191
141 84
141 99
141 105
141 119
141 128
141 129
141 139
141 140
141 142
141 154
141 155
141 167
141 187
142 91
142 105
142 114
142 128
142 129
142 132
142 133
142 141
142 154
142 156
142 157
142 167
142 170
142 183
142 198
143 90
143 107
143 109
143 123
143 125
143 126
143 148
143 150
143 151
143 152
143 171
143 176
143 180
143 192
143 193
144 112
144 118
144 120
144 127
144 135
144 136
144 146
144 160
144 162
144 163
144 166
144 175
144 177
144 186
144 190
145 92
145 113
145 115
145 130
145 137
145 147
145 148
145 153
145 164
145 165
145 181
145 182
145 185
146 97
146 118
146 120
146 136
146 144
146 162
146 163
146 186
147 104
147 113
147 115
147 130
147 134
147 145
147 153
147 164
147 165
147 181
147 185
147 188
148 109
148 110
148 115
148 125
148 126
148 137
148 143
148 145
148 152
148 153
148 180
148 182
148 192
148 197
149 100
149 116
149 119
149 122
149 134
149 138
149 139
149 140
149 155
149 169
149 174
149 194
150 107
150 121
150 123
150 125
150 143
150 151
150 152
150 171
150 176
150 193
151 103
151 121
151 123
151 124
151 143
151 150
151 168
151 171
151 173
151 176
151 189
152 109
152 110
152 125
152 126
152 137
152 143
152 148
152 150
152 171
152 180
152 182
152 192
152 193
153 110
153 115
153 126
153 130
153 137
153 145
153 147
153 148
153 164
153 180
153 181
153 182
153 197
153 203
153 205
154 105
154 114
154 128
154 129
154 133
154 140
154 141
154 142
154 155
154 156
154 167
154 183
154 187
154 198
154 200
155 116
155 119
155 122
155 129
155 139
155 140
155 141
155 149
155 154
155 167
155 174
155 187
155 191
155 204
156 114
156 128
156 132
156 133
156 142
156 154
156 157
156 170
156 178
156 183
156 196
156 198
157 108
157 132
157 133
157 142
157 156
157 159
157 170
157 178
157 195
157 196
157 198
157 202
157 212
158 117
158 135
158 159
158 160
158 166
158 175
158 177
158 179
158 190
158 195
158 206
159 106
159 108
159 117
159 132
159 157
159 158
159 170
159 178
159 179
159 195
159 202
160 112
160 117
160 127
160 135
160 144
160 158
160 162
160 166
160 175
160 177
160 179
160 190
160 206
160 210
161 124
161 131
161 168
161 172
161 173
161 189
161 199
161 213
162 118
162 120
162 127
162 135
162 136
162 144
162 146
162 160
162 163
162 166
162 177
162 186
162 190
162 201
163 118
163 120
163 136
163 144
163 146
163 162
163 166
163 186
163 201
163 214
164 113
164 130
164 134
164 145
164 147
164 153
164 165
164 181
164 185
164 188
164 203
164 207
165 113
165 134
165 138
165 145
165 147
165 164
165 169
165 181
165 185
165 188
165 194
165 207
166 112
166 120
166 127
166 135
166 136
166 144
166 158
166 160
166 162
166 163
166 175
166 177
166 186
166 190
166 201
166 210
167 119
167 128
167 129
167 139
167 140
167 141
167 142
167 154
167 155
167 183
167 187
167 191
167 200
167 216
168 121
168 124
168 151
168 161
168 173
168 176
168 189
169 122
169 134
169 138
169 149
169 165
169 174
169 185
169 188
169 194
169 211
169 219
170 132
170 133
170 142
170 156
170 157
170 159
170 178
170 183
170 195
170 196
170 198
170 202
170 212
171 125
171 143
171 150
171 151
171 152
171 176
171 180
171 192
171 193
171 217
172 131
172 161
172 184
172 199
172 208
172 222
172 228
173 124
173 151
173 161
173 168
173 189
173 199
173 213
173 220
174 122
174 138
174 139
174 149
174 155
174 169
174 188
174 191
174 194
174 204
174 211
174 219
174 230
174 233
175 135
175 144
175 158
175 160
175 166
175 177
175 179
175 190
175 195
175 206
175 210
175 225
175 226
176 123
176 143
176 150
176 151
176 168
176 171
176 189
176 192
176 193
176 217
176 220
177 127
177 135
177 144
177 158
177 160
177 162
177 166
177 175
177 179
177 186
177 190
177 201
177 206
177 210
177 226
178 132
178 156
178 157
178 159
178 170
178 179
178 195
178 196
178 202
178 212
178 221
178 227
179 158
179 159
179 160
179 175
179 177
179 178
179 190
179 195
179 202
179 206
179 221
179 225
180 126
180 137
180 143
180 148
180 152
180 153
180 171
180 182
180 192
180 193
180 197
180 205
180 229
180 236
181 130
181 137
181 145
181 147
181 153
181 164
181 165
181 182
181 185
181 197
181 203
181 205
181 207
181 224
181 232
182 137
182 145
182 148
182 152
182 153
182 180
182 181
182 192
182 197
182 203
182 205
182 224
182 229
182 232
183 142
183 154
183 156
183 167
183 170
183 187
183 196
183 198
183 200
183 215
183 216
183 239
184 172
184 199
184 208
184 209
184 222
184 228
184 237
185 145
185 147
185 164
185 165
185 169
185 181
185 188
185 203
185 205
185 207
185 223
185 224
186 136
186 144
186 146
186 162
186 163
186 166
186 177
186 201
186 210
186 214
186 231
187 140
187 141
187 154
187 155
187 167
187 183
187 191
187 200
187 204
187 215
187 216
187 218
187 238
187 239
188 138
188 147
188 164
188 165
188 169
188 174
188 185
188 194
188 207
188 219
188 223
188 233
188 235
189 151
189 161
189 168
189 173
189 176
189 213
189 217
189 220
189 242
190 144
190 158
190 160
190 162
190 166
190 175
190 177
190 179
190 201
190 206
190 210
190 225
190 226
190 240
190 241
191 139
191 140
191 155
191 167
191 174
191 187
191 194
191 200
191 204
191 211
191 216
191 218
191 230
191 238
191 251
192 143
192 148
192 152
192 171
192 176
192 180
192 182
192 193
192 197
192 217
192 229
192 236
193 143
193 150
193 152
193 171
193 176
193 180
193 192
193 217
193 220
193 236
193 243
194 149
194 165
194 169
194 174
194 188
194 191
194 204
194 211
194 219
194 223
194 230
194 233
194 235
194 250
195 157
195 158
195 159
195 170
195 175
195 178
195 179
195 202
195 206
195 212
195 221
195 225
195 227
195 247
196 156
196 157
196 170
196 178
196 183
196 198
196 200
196 202
196 212
196 215
196 227
196 234
196 246
197 148
197 153
197 180
197 181
197 182
197 192
197 203
197 205
197 224
197 229
197 232
197 236
197 244
197 256
198 142
198 154
198 156
198 157
198 170
198 183
198 196
198 200
198 202
198 212
198 215
198 234
198 239
198 246
198 257
199 161
199 172
199 173
199 184
199 208
199 213
199 222
199 228
199 237
200 154
200 167
200 183
200 187
200 191
200 196
200 198
200 215
200 216
200 218
200 238
200 239
200 258
201 162
201 163
201 166
201 177
201 186
201 190
201 210
201 214
201 231
201 240
201 245
202 157
202 159
202 170
202 178
202 179
202 195
202 196
202 198
202 212
202 221
202 225
202 227
202 234
202 247
203 153
203 164
203 181
203 182
203 185
203 197
203 205
203 207
203 223
203 224
203 232
203 244
203 248
203 262
204 155
204 174
204 187
204 191
204 194
204 211
204 216
204 218
204 219
204 230
204 233
204 238
204 251
204 252
205 153
205 180
205 181
205 182
205 185
205 197
205 203
205 207
205 224
205 229
205 232
205 244
205 262
206 158
206 160
206 175
206 177
206 179
206 190
206 195
206 210
206 221
206 225
206 226
206 240
206 241
206 253
206 254
206 271
207 164
207 165
207 181
207 185
207 188
207 203
207 205
207 219
207 223
207 224
207 235
207 248
207 263
207 269
208 172
208 184
208 199
208 209
208 222
208 228
208 237
208 249
208 264
208 267
209 184
209 208
209 228
209 249
209 267
210 160
210 166
210 175
210 177
210 186
210 190
210 201
210 206
210 225
210 226
210 231
210 240
210 241
210 253
210 271
211 169
211 174
211 191
211 194
211 204
211 218
211 219
211 230
211 233
211 235
211 250
211 251
211 252
211 270
212 157
212 170
212 178
212 195
212 196
212 198
212 202
212 221
212 227
212 234
212 246
212 247
212 260
213 161
213 173
213 189
213 199
213 222
213 237
213 242
213 255
213 265
214 163
214 186
214 201
214 231
214 245
214 266
215 183
215 187
215 196
215 198
215 200
215 216
215 234
215 238
215 239
215 246
215 257
215 258
216 167
216 183
216 187
216 191
216 200
216 204
216 215
216 218
216 230
216 238
216 239
216 251
216 257
216 258
216 275
217 171
217 176
217 189
217 192
217 193
217 220
217 236
217 243
217 268
218 187
218 191
218 200
218 204
218 211
218 216
218 230
218 238
218 239
218 251
218 252
218 270
219 169
219 174
219 188
219 194
219 204
219 207
219 211
219 223
219 230
219 233
219 235
219 248
219 250
219 252
219 263
220 173
220 176
220 189
220 193
220 217
220 242
220 243
220 259
221 178
221 179
221 195
221 202
221 206
221 212
221 225
221 227
221 241
221 247
221 254
221 261
221 276
221 277
222 172
222 184
222 199
222 208
222 213
222 228
222 237
222 242
222 249
222 255
222 264
222 265
223 185
223 188
223 194
223 203
223 207
223 219
223 224
223 233
223 235
223 248
223 250
223 263
223 269
224 181
224 182
224 185
224 197
224 203
224 205
224 207
224 223
224 229
224 232
224 244
224 248
224 262
224 269
224 273
225 175
225 179
225 190
225 195
225 202
225 206
225 210
225 221
225 226
225 227
225 241
225 247
225 253
225 254
225 261
225 271
225 276
226 175
226 177
226 190
226 206
226 210
226 225
226 231
226 240
226 241
226 253
226 254
226 271
226 272
226 280
227 178
227 195
227 196
227 202
227 212
227 221
227 225
227 234
227 246
227 247
227 254
227 260
227 261
227 277
228 172
228 184
228 199
228 208
228 209
228 222
228 237
228 249
228 264
228 267
229 180
229 182
229 192
229 197
229 205
229 224
229 232
229 236
229 244
229 256
229 273
229 274
230 174
230 191
230 194
230 204
230 211
230 216
230 218
230 219
230 233
230 238
230 250
230 251
230 252
230 270
230 278
230 287
231 186
231 201
231 210
231 214
231 226
231 240
231 245
231 253
231 266
231 272
232 181
232 182
232 197
232 203
232 205
232 224
232 229
232 244
232 256
232 262
232 273
232 288
233 174
233 188
233 194
233 204
233 211
233 219
233 223
233 230
233 235
233 250
233 251
233 252
233 263
233 270
234 196
234 198
234 202
234 212
234 215
234 227
234 239
234 246
234 247
234 257
234 260
234 289
235 188
235 194
235 207
235 211
235 219
235 223
235 233
235 248
235 250
235 263
235 269
235 285
236 180
236 192
236 193
236 197
236 217
236 229
236 244
236 256
236 268
236 274
236 283
237 184
237 199
237 208
237 213
237 222
237 228
237 249
237 255
237 264
237 265
238 187
238 191
238 200
238 204
238 215
238 216
238 218
238 230
238 239
238 251
238 252
238 258
238 270
238 275
238 278
239 183
239 187
239 198
239 200
239 215
239 216
239 218
239 234
239 238
239 246
239 257
239 258
239 275
239 279
239 293
240 190
240 201
240 206
240 210
240 226
240 231
240 241
240 245
240 253
240 266
240 271
240 272
240 280
241 190
241 206
241 210
241 221
241 225
241 226
241 240
241 253
241 254
241 261
241 271
241 276
241 280
242 189
242 213
242 220
242 222
242 255
242 259
242 265
242 281
242 282
242 286
242 292
242 297
243 193
243 217
243 220
243 259
243 268
243 286
244 197
244 203
244 205
244 224
244 229
244 232
244 236
244 256
244 262
244 273
244 288
244 290
245 201
245 214
245 231
245 240
245 266
245 272
245 291
245 298
246 196
246 198
246 212
246 215
246 227
246 234
246 239
246 247
246 257
246 258
246 260
246 279
246 289
247 195
247 202
247 212
247 221
247 225
247 227
247 234
247 246
247 254
247 260
247 261
247 276
247 277
247 295
248 203
248 207
248 219
248 223
248 224
248 235
248 250
248 262
248 263
248 269
248 284
248 285
248 299
248 300
249 208
249 209
249 222
249 228
249 237
249 264
249 265
249 267
250 194
250 211
250 219
250 223
250 230
250 233
250 235
250 248
250 252
250 263
250 269
250 285
250 287
250 294
251 191
251 204
251 211
251 216
251 218
251 230
251 233
251 238
251 252
251 258
251 270
251 275
251 278
251 287
251 301
252 204
252 211
252 218
252 219
252 230
252 233
252 238
252 250
252 251
252 270
252 278
252 287
252 294
252 301
253 206
253 210
253 225
253 226
253 231
253 240
253 241
253 254
253 266
253 271
253 272
253 276
253 280
253 296
253 302
254 206
254 221
254 225
254 226
254 227
254 241
254 247
254 253
254 261
254 271
254 276
254 277
254 280
254 302
254 303
255 213
255 222
255 237
255 242
255 259
255 264
255 265
255 281
255 282
255 292
255 297
256 197
256 229
256 232
256 236
256 244
256 273
256 274
256 283
256 290
257 198
257 215
257 216
257 234
257 239
257 246
257 258
257 260
257 275
257 279
257 289
257 293
258 200
258 215
258 216
258 238
258 239
258 246
258 251
258 257
258 275
258 278
258 279
258 289
258 293
258 311
259 220
259 242
259 243
259 255
259 281
259 282
259 286
259 292
259 297
259 315
260 212
260 227
260 234
260 246
260 247
260 257
260 261
260 277
260 279
260 289
260 295
260 304
260 308
261 221
261 225
261 227
261 241
261 247
261 254
261 260
261 271
261 276
261 277
261 295
261 302
261 303
261 308
262 203
262 205
262 224
262 232
262 244
262 248
262 263
262 269
262 273
262 284
262 288
262 299
262 300
262 306
263 207
263 219
263 223
263 233
263 235
263 248
263 250
263 262
263 269
263 284
263 285
263 294
263 299
263 300
263 309
263 317
264 208
264 222
264 228
264 237
264 249
264 255
264 265
264 267
264 292
264 307
265 213
265 222
265 237
265 242
265 249
265 255
265 264
265 282
265 292
265 297
265 307
266 214
266 231
266 240
266 245
266 253
266 272
266 280
266 291
266 296
266 298
266 316
267 208
267 209
267 228
267 249
267 264
268 217
268 236
268 243
268 274
268 283
268 286
268 305
269 207
269 223
269 224
269 235
269 248
269 250
269 262
269 263
269 284
269 285
269 288
269 299
269 300
269 317
269 321
270 211
270 218
270 230
270 233
270 238
270 251
270 252
270 275
270 278
270 287
270 301
270 310
271 206
271 210
271 225
271 226
271 240
271 241
271 253
271 254
271 261
271 272
271 276
271 280
271 296
271 302
271 314
272 226
272 231
272 240
272 245
272 253
272 266
272 271
272 280
272 291
272 296
272 298
272 314
272 316
273 224
273 229
273 232
273 244
273 256
273 262
273 274
273 284
273 288
273 290
273 299
273 306
273 313
273 322
274 229
274 236
274 256
274 268
274 273
274 283
274 290
274 313
275 216
275 238
275 239
275 251
275 257
275 258
275 270
275 278
275 279
275 287
275 293
275 301
275 310
275 311
275 325
275 326
276 221
276 225
276 241
276 247
276 253
276 254
276 261
276 271
276 277
276 280
276 295
276 302
276 303
276 314
277 221
277 227
277 247
277 254
277 260
277 261
277 276
277 295
277 302
277 303
277 304
277 308
278 230
278 238
278 251
278 252
278 258
278 270
278 275
278 287
278 293
278 301
278 310
278 311
278 326
279 239
279 246
279 257
279 258
279 260
279 275
279 289
279 293
279 304
279 311
279 312
279 325
280 226
280 240
280 241
280 253
280 254
280 266
280 271
280 272
280 276
280 296
280 298
280 302
280 314
280 316
280 329
281 242
281 255
281 259
281 282
281 286
281 292
281 297
281 315
281 318
282 242
282 255
282 259
282 265
282 281
282 286
282 292
282 297
282 315
282 320
282 333
283 236
283 256
283 268
283 274
283 290
283 305
283 313
283 332
284 248
284 262
284 263
284 269
284 273
284 285
284 288
284 299
284 300
284 306
284 317
284 321
284 323
285 235
285 248
285 250
285 263
285 269
285 284
285 294
285 299
285 300
285 309
285 317
285 321
285 336
286 242
286 243
286 259
286 268
286 281
286 282
286 297
286 305
286 315
286 318
287 230
287 250
287 251
287 252
287 270
287 275
287 278
287 294
287 301
287 310
287 319
287 330
288 232
288 244
288 262
288 269
288 273
288 284
288 290
288 299
288 300
288 306
288 321
288 322
288 323
288 339
289 234
289 246
289 257
289 258
289 260
289 279
289 293
289 295
289 304
289 308
289 312
289 328
290 244
290 256
290 273
290 274
290 283
290 288
290 306
290 313
290 322
290 341
291 245
291 266
291 272
291 298
291 316
292 242
292 255
292 259
292 264
292 265
292 281
292 282
292 297
292 307
292 315
292 320
292 324
292 333
293 239
293 257
293 258
293 275
293 278
293 279
293 289
293 301
293 310
293 311
293 312
293 325
293 326
293 344
294 250
294 252
294 263
294 285
294 287
294 300
294 309
294 317
294 319
294 331
294 336
295 247
295 260
295 261
295 276
295 277
295 289
295 303
295 304
295 308
295 328
295 337
295 340
296 253
296 266
296 271
296 272
296 280
296 298
296 302
296 314
296 316
296 329
296 338
297 242
297 255
297 259
297 265
297 281
297 282
297 286
297 292
297 307
297 315
297 320
297 324
297 333
297 345
297 352
298 245
298 266
298 272
298 280
298 291
298 296
298 314
298 316
298 329
298 346
299 248
299 262
299 263
299 269
299 273
299 284
299 285
299 288
299 300
299 306
299 317
299 321
299 323
299 339
299 342
300 248
300 262
300 263
300 269
300 284
300 285
300 288
300 294
300 299
300 309
300 317
300 321
300 323
300 336
300 342
301 251
301 252
301 270
301 275
301 278
301 287
301 293
301 310
301 311
301 319
301 326
301 330
301 343
301 351
302 253
302 254
302 261
302 271
302 276
302 277
302 280
302 296
302 303
302 314
302 327
302 329
302 334
302 338
303 254
303 261
303 276
303 277
303 295
303 302
303 304
303 308
303 327
303 334
303 337
303 340
304 260
304 277
304 279
304 289
304 295
304 303
304 308
304 312
304 328
304 337
304 340
304 350
304 363
305 268
305 283
305 286
305 318
305 332
305 347
305 349
305 354
306 262
306 273
306 284
306 288
306 290
306 299
306 313
306 322
306 323
306 339
306 341
306 357
306 359
307 264
307 265
307 292
307 297
307 320
307 324
307 333
307 335
307 352
307 356
308 260
308 261
308 277
308 289
308 295
308 303
308 304
308 312
308 328
308 334
308 337
308 340
308 350
308 363
309 263
309 285
309 294
309 300
309 317
309 319
309 321
309 331
309 336
309 364
309 366
310 270
310 275
310 278
310 287
310 293
310 301
310 311
310 319
310 325
310 326
310 330
310 343
310 344
310 351
310 358
311 258
311 275
311 278
311 279
311 293
311 301
311 310
311 312
311 325
311 326
311 343
311 344
311 348
311 358
312 279
312 289
312 293
312 304
312 308
312 311
312 325
312 328
312 344
312 348
312 350
312 371
312 375
313 273
313 274
313 283
313 290
313 306
313 322
313 332
313 339
313 341
313 359
313 362
314 271
314 272
314 276
314 280
314 296
314 298
314 302
314 316
314 327
314 329
314 334
314 338
314 355
314 368
314 370
315 259
315 281
315 282
315 286
315 292
315 297
315 318
315 320
315 333
315 345
315 352
315 354
315 367
316 266
316 272
316 280
316 291
316 296
316 298
316 314
316 329
316 346
316 355
316 365
316 378
317 263
317 269
317 284
317 285
317 294
317 299
317 300
317 309
317 321
317 331
317 336
317 342
317 361
317 364
318 281
318 286
318 305
318 315
318 332
318 345
318 347
318 349
318 354
318 372
319 287
319 294
319 301
319 309
319 310
319 330
319 331
319 336
319 343
319 351
319 366
319 373
320 282
320 292
320 297
320 307
320 315
320 324
320 333
320 345
320 352
320 356
320 367
320 377
321 269
321 284
321 285
321 288
321 299
321 300
321 309
321 317
321 323
321 336
321 339
321 342
321 357
321 360
321 361
321 364
322 273
322 288
322 290
322 306
322 313
322 323
322 339
322 341
322 357
322 359
322 385
323 284
323 288
323 299
323 300
323 306
323 321
323 322
323 339
323 342
323 357
323 359
323 360
323 361
324 292
324 297
324 307
324 320
324 333
324 335
324 352
324 356
324 369
324 377
324 383
325 275
325 279
325 293
325 310
325 311
325 312
325 326
325 328
325 344
325 348
325 350
325 358
325 375
325 379
326 275
326 278
326 293
326 301
326 310
326 311
326 325
326 330
326 343
326 344
326 348
326 358
326 374
326 379
327 302
327 303
327 314
327 329
327 334
327 338
327 340
327 368
327 370
327 376
327 388
328 289
328 295
328 304
328 308
328 312
328 325
328 337
328 340
328 348
328 350
328 363
328 371
328 375
328 380
328 390
329 280
329 296
329 298
329 302
329 314
329 316
329 327
329 338
329 346
329 355
329 368
329 370
329 378
330 287
330 301
330 310
330 319
330 326
330 331
330 343
330 351
330 358
330 366
330 373
330 374
330 391
331 294
331 309
331 317
331 319
331 330
331 336
331 351
331 364
331 366
331 373
331 384
332 283
332 305
332 313
332 318
332 341
332 347
332 349
332 359
332 362
332 372
332 382
332 392
333 282
333 292
333 297
333 307
333 315
333 320
333 324
333 345
333 352
333 354
333 367
333 377
333 381
333 383
334 302
334 303
334 308
334 314
334 327
334 337
334 338
334 340
334 368
334 370
334 376
334 388
335 307
335 324
335 353
335 356
335 369
335 377
335 393
336 285
336 294
336 300
336 309
336 317
336 319
336 321
336 331
336 342
336 361
336 364
336 366
336 384
337 295
337 303
337 304
337 308
337 328
337 334
337 340
337 350
337 363
337 371
337 376
337 380
338 296
338 302
338 314
338 327
338 329
338 334
338 355
338 368
338 370
338 378
338 388
339 288
339 299
339 306
339 313
339 321
339 322
339 323
339 341
339 342
339 357
339 359
339 360
339 361
339 385
339 386
339 387
340 295
340 303
340 304
340 308
340 327
340 328
340 334
340 337
340 350
340 363
340 371
340 376
340 380
340 397
341 290
341 306
341 313
341 322
341 332
341 339
341 347
341 349
341 359
341 362
341 382
341 385
341 387
341 395
341 396
342 299
342 300
342 317
342 321
342 323
342 336
342 339
342 357
342 360
342 361
342 364
342 384
342 386
343 301
343 310
343 311
343 319
343 326
343 330
343 344
343 351
343 358
343 373
343 374
343 379
343 391
343 394
343 406
344 293
344 310
344 311
344 312
344 325
344 326
344 343
344 348
344 358
344 374
344 375
344 379
344 394
345 297
345 315
345 318
345 320
345 333
345 349
345 352
345 354
345 367
345 372
345 381
345 383
345 398
345 399
346 298
346 316
346 329
346 355
346 365
346 368
346 378
346 389
346 401
347 305
347 318
347 332
347 341
347 349
347 354
347 362
347 372
347 382
347 392
347 395
348 311
348 312
348 325
348 326
348 328
348 344
348 350
348 363
348 371
348 375
348 379
348 390
349 305
349 318
349 332
349 341
349 345
349 347
349 354
349 362
349 372
349 382
349 392
349 395
349 399
350 304
350 308
350 312
350 325
350 328
350 337
350 340
350 348
350 363
350 371
350 375
350 380
350 390
350 400
351 301
351 310
351 319
351 330
351 331
351 343
351 358
351 366
351 373
351 374
351 391
351 407
352 297
352 307
352 315
352 320
352 324
352 333
352 345
352 356
352 367
352 377
352 381
352 383
352 398
352 408
353 335
353 356
353 369
353 393
353 405
354 305
354 315
354 318
354 333
354 345
354 347
354 349
354 367
354 372
354 381
354 392
354 399
355 314
355 316
355 329
355 338
355 346
355 365
355 368
355 370
355 378
355 389
355 401
355 404
356 307
356 320
356 324
356 335
356 352
356 353
356 369
356 377
356 383
356 393
356 408
357 306
357 321
357 322
357 323
357 339
357 342
357 359
357 360
357 361
357 385
357 386
357 387
357 402
358 310
358 311
358 325
358 326
358 330
358 343
358 344
358 351
358 373
358 374
358 375
358 379
358 394
358 406
359 306
359 313
359 322
359 323
359 332
359 339
359 341
359 357
359 362
359 382
359 385
359 387
359 395
359 396
359 402
359 414
360 321
360 323
360 339
360 342
360 357
360 361
360 364
360 384
360 385
360 386
360 403
361 317
361 321
361 323
361 336
361 339
361 342
361 357
361 360
361 364
361 366
361 384
361 386
361 403
362 313
362 332
362 341
362 347
362 349
362 359
362 372
362 382
362 387
362 392
362 395
362 396
362 412
363 304
363 308
363 328
363 337
363 340
363 348
363 350
363 371
363 375
363 376
363 380
363 390
363 397
363 400
363 421
364 309
364 317
364 321
364 331
364 336
364 342
364 360
364 361
364 366
364 373
364 384
364 386
364 403
364 407
364 416
365 316
365 346
365 355
365 378
365 389
365 401
365 404
365 415
366 309
366 319
366 330
366 331
366 336
366 351
366 361
366 364
366 373
366 384
366 391
366 407
366 416
367 315
367 320
367 333
367 345
367 352
367 354
367 377
367 381
367 383
367 398
367 408
367 413
368 314
368 327
368 329
368 334
368 338
368 346
368 355
368 370
368 378
368 388
368 404
368 410
368 419
369 324
369 335
369 353
369 356
369 377
369 393
369 405
369 408
369 418
370 314
370 327
370 329
370 334
370 338
370 355
370 368
370 376
370 378
370 388
370 404
370 410
370 417
370 419
371 312
371 328
371 337
371 340
371 348
371 350
371 363
371 375
371 380
371 390
371 400
371 421
372 318
372 332
372 345
372 347
372 349
372 354
372 362
372 381
372 382
372 392
372 395
372 399
372 412
372 425
372 427
373 319
373 330
373 331
373 343
373 351
373 358
373 364
373 366
373 374
373 391
373 394
373 406
373 407
373 411
373 416
374 326
374 330
374 343
374 344
374 351
374 358
374 373
374 379
374 391
374 394
374 406
374 411
375 312
375 325
375 328
375 344
375 348
375 350
375 358
375 363
375 371
375 379
375 390
375 394
375 400
375 409
375 423
376 327
376 334
376 337
376 340
376 363
376 370
376 380
376 388
376 397
376 417
376 428
377 320
377 324
377 333
377 335
377 352
377 356
377 367
377 369
377 383
377 393
377 398
377 408
377 422
377 432
378 316
378 329
378 338
378 346
378 355
378 365
378 368
378 370
378 389
378 401
378 404
378 410
378 415
378 429
379 325
379 326
379 343
379 344
379 348
379 358
379 374
379 375
379 390
379 394
379 406
379 409
379 420
379 423
380 328
380 337
380 340
380 350
380 363
380 371
380 376
380 390
380 397
380 400
380 421
381 333
381 345
381 352
381 354
381 367
381 372
381 383
381 398
381 399
381 413
381 427
381 434
382 332
382 341
382 347
382 349
382 359
382 362
382 372
382 385
382 387
382 392
382 395
382 396
382 402
382 412
382 414
382 430
382 437
383 324
383 333
383 345
383 352
383 356
383 367
383 377
383 381
383 393
383 398
383 408
383 413
383 422
384 331
384 336
384 342
384 360
384 361
384 364
384 366
384 386
384 403
384 407
384 416
384 433
385 322
385 339
385 341
385 357
385 359
385 360
385 382
385 386
385 387
385 396
385 402
385 414
385 424
386 339
386 342
386 357
386 360
386 361
386 364
386 384
386 385
386 402
386 403
386 424
386 441
387 339
387 341
387 357
387 359
387 362
387 382
387 385
387 395
387 396
387 402
387 414
387 424
387 430
388 327
388 334
388 338
388 368
388 370
388 376
388 397
388 410
388 417
388 419
388 428
389 346
389 355
389 365
389 378
389 401
389 415
389 426
390 328
390 348
390 350
390 363
390 371
390 375
390 379
390 380
390 400
390 409
390 421
390 423
390 431
391 330
391 343
391 351
391 366
391 373
391 374
391 394
391 406
391 407
391 411
391 416
391 433
391 438
392 332
392 347
392 349
392 354
392 362
392 372
392 382
392 395
392 396
392 399
392 412
392 425
392 427
392 437
392 444
393 335
393 353
393 356
393 369
393 377
393 383
393 405
393 408
393 418
393 422
393 432
393 445
394 343
394 344
394 358
394 373
394 374
394 375
394 379
394 391
394 406
394 409
394 411
394 420
394 436
395 341
395 347
395 349
395 359
395 362
395 372
395 382
395 387
395 392
395 396
395 399
395 412
395 414
395 425
395 430
395 437
395 444
396 341
396 359
396 362
396 382
396 385
396 387
396 392
396 395
396 402
396 412
396 414
396 424
396 430
396 437
396 442
397 340
397 363
397 376
397 380
397 388
397 400
397 417
397 421
397 428
397 439
397 452
398 345
398 352
398 367
398 377
398 381
398 383
398 399
398 408
398 413
398 422
398 434
398 443
399 345
399 349
399 354
399 372
399 381
399 392
399 395
399 398
399 412
399 413
399 425
399 427
399 434
399 444
399 447
400 350
400 363
400 371
400 375
400 380
400 390
400 397
400 421
400 423
400 431
400 439
401 346
401 355
401 365
401 378
401 389
401 404
401 410
401 415
401 426
401 429
401 446
402 357
402 359
402 382
402 385
402 386
402 387
402 396
402 414
402 424
402 430
402 442
403 360
403 361
403 364
403 384
403 386
403 416
403 433
403 441
404 355
404 365
404 368
404 370
404 378
404 401
404 410
404 415
404 419
404 429
404 435
404 449
405 353
405 369
405 393
405 418
405 440
406 343
406 358
406 373
406 374
406 379
406 391
406 394
406 409
406 411
406 420
406 436
406 438
406 459
407 351
407 364
407 366
407 373
407 384
407 391
407 411
407 416
407 433
407 438
407 453
408 352
408 356
408 367
408 369
408 377
408 383
408 393
408 398
408 413
408 418
408 422
408 432
408 443
408 445
408 455
409 375
409 379
409 390
409 394
409 406
409 420
409 423
409 431
409 436
409 450
409 459
410 368
410 370
410 378
410 388
410 401
410 404
410 415
410 417
410 419
410 429
410 435
410 448
410 449
410 451
411 373
411 374
411 391
411 394
411 406
411 407
411 416
411 420
411 436
411 438
411 453
412 362
412 372
412 382
412 392
412 395
412 396
412 399
412 425
412 427
412 430
412 437
412 444
412 458
412 461
413 367
413 381
413 383
413 398
413 399
413 408
413 422
413 427
413 434
413 443
413 447
414 359
414 382
414 385
414 387
414 395
414 396
414 402
414 424
414 430
414 437
414 442
414 457
414 462
414 469
415 365
415 378
415 389
415 401
415 404
415 410
415 426
415 429
415 435
415 446
415 449
415 465
416 364
416 366
416 373
416 384
416 391
416 403
416 407
416 411
416 433
416 438
416 453
416 463
417 370
417 376
417 388
417 397
417 410
417 419
417 428
417 435
417 439
417 448
417 451
417 452
417 464
417 471
418 369
418 393
418 405
418 408
418 432
418 440
418 445
418 454
418 455
419 368
419 370
419 388
419 404
419 410
419 417
419 428
419 429
419 435
419 448
419 449
419 451
419 452
419 464
420 379
420 394
420 406
420 409
420 411
420 423
420 436
420 450
420 459
420 473
420 479
421 363
421 371
421 380
421 390
421 397
421 400
421 423
421 428
421 431
421 439
421 452
421 456
421 460
421 467
421 474
422 377
422 383
422 393
422 398
422 408
422 413
422 432
422 434
422 443
422 445
422 455
422 478
423 375
423 379
423 390
423 400
423 409
423 420
423 421
423 431
423 450
423 456
423 459
423 473
423 476
424 385
424 386
424 387
424 396
424 402
424 414
424 430
424 441
424 442
424 457
424 462
425 372
425 392
425 395
425 399
425 412
425 427
425 434
425 437
425 444
425 447
425 458
425 461
425 468
426 389
426 401
426 415
426 429
426 446
427 372
427 381
427 392
427 399
427 412
427 413
427 425
427 434
427 444
427 447
427 461
427 468
428 376
428 388
428 397
428 417
428 419
428 421
428 439
428 448
428 451
428 452
428 460
428 464
428 471
428 474
429 378
429 401
429 404
429 410
429 415
429 419
429 426
429 435
429 446
429 449
429 451
429 465
430 382
430 387
430 395
430 396
430 402
430 412
430 414
430 424
430 437
430 442
430 444
430 458
430 462
430 469
431 390
431 400
431 409
431 421
431 423
431 439
431 450
431 456
431 460
431 467
431 476
432 377
432 393
432 408
432 418
432 422
432 440
432 443
432 445
432 454
432 455
432 478
433 384
433 391
433 403
433 407
433 416
433 438
433 441
433 453
433 463
433 466
433 475
434 381
434 398
434 399
434 413
434 422
434 425
434 427
434 443
434 447
434 461
434 468
434 472
435 404
435 410
435 415
435 417
435 419
435 429
435 448
435 449
435 451
435 464
435 465
435 477
436 394
436 406
436 409
436 411
436 420
436 438
436 450
436 459
436 473
436 479
437 382
437 392
437 395
437 396
437 412
437 414
437 425
437 430
437 444
437 458
437 461
437 469
438 391
438 406
438 407
438 411
438 416
438 433
438 436
438 453
438 466
438 488
439 397
439 400
439 417
439 421
439 428
439 431
439 448
439 452
439 460
439 467
439 471
439 474
439 491
440 405
440 418
440 432
440 445
440 454
440 481
441 386
441 403
441 424
441 433
441 457
441 463
441 470
441 483
441 487
442 396
442 402
442 414
442 424
442 430
442 457
442 462
442 469
442 484
442 489
443 398
443 408
443 413
443 422
443 432
443 434
443 445
443 454
443 455
443 478
444 392
444 395
444 399
444 412
444 425
444 427
444 430
444 437
444 447
444 458
444 461
444 468
444 482
444 501
445 393
445 408
445 418
445 422
445 432
445 440
445 443
445 454
445 455
445 478
445 481
445 486
446 401
446 415
446 426
446 429
446 449
446 465
446 480
446 500
447 399
447 413
447 425
447 427
447 434
447 444
447 461
447 468
447 472
447 482
447 490
448 410
448 417
448 419
448 428
448 435
448 439
448 451
448 452
448 464
448 471
448 474
448 477
448 491
448 493
449 404
449 410
449 415
449 419
449 429
449 435
449 446
449 451
449 464
449 465
449 477
449 480
449 494
449 504
450 409
450 420
450 423
450 431
450 436
450 456
450 459
450 473
450 476
450 479
450 492
450 495
451 410
451 417
451 419
451 428
451 429
451 435
451 448
451 449
451 452
451 464
451 465
451 471
451 477
451 493
451 494
451 502
451 504
452 397
452 417
452 419
452 421
452 428
452 439
452 448
452 451
452 460
452 464
452 471
452 474
452 491
452 493
452 497
453 407
453 411
453 416
453 433
453 438
453 463
453 466
453 475
454 418
454 432
454 440
454 443
454 445
454 455
454 478
454 481
454 486
454 503
455 408
455 418
455 422
455 432
455 443
455 445
455 454
455 478
455 486
455 498
455 507
456 421
456 423
456 431
456 450
456 460
456 467
456 473
456 474
456 476
456 492
456 496
457 414
457 424
457 441
457 442
457 462
457 463
457 470
457 484
457 487
457 489
457 510
458 412
458 425
458 430
458 437
458 444
458 461
458 469
458 482
458 485
458 501
458 506
459 406
459 409
459 420
459 423
459 436
459 450
459 473
459 479
459 488
459 492
459 495
459 511
459 513
460 421
460 428
460 431
460 439
460 452
460 456
460 467
460 474
460 476
460 491
460 496
460 497
461 412
461 425
461 427
461 434
461 437
461 444
461 447
461 458
461 468
461 472
461 482
461 490
461 501
461 514
462 414
462 424
462 430
462 442
462 457
462 469
462 484
462 485
462 489
462 508
463 416
463 433
463 441
463 453
463 457
463 470
463 475
463 483
463 487
463 505
464 417
464 419
464 428
464 435
464 448
464 449
464 451
464 452
464 465
464 471
464 477
464 491
464 493
464 494
464 502
464 504
465 415
465 429
465 435
465 446
465 449
465 451
465 464
465 477
465 480
465 494
465 500
465 504
465 509
465 523
466 433
466 438
466 453
466 475
466 488
466 516
466 519
467 421
467 431
467 439
467 456
467 460
467 473
467 474
467 476
467 492
467 496
467 497
467 515
467 517
468 425
468 427
468 434
468 444
468 447
468 461
468 472
468 482
468 490
468 499
468 501
468 512
468 514
469 414
469 430
469 437
469 442
469 458
469 462
469 484
469 485
469 489
469 506
469 508
470 441
470 457
470 463
470 475
470 483
470 487
470 489
470 505
470 510
470 525
471 417
471 428
471 439
471 448
471 451
471 452
471 464
471 474
471 477
471 491
471 493
471 497
471 502
471 504
471 520
472 434
472 447
472 461
472 468
472 478
472 482
472 490
472 498
472 499
472 512
473 420
473 423
473 436
473 450
473 456
473 459
473 467
473 476
473 479
473 492
473 495
473 511
473 513
473 524
474 421
474 428
474 439
474 448
474 452
474 456
474 460
474 467
474 471
474 476
474 491
474 493
474 496
474 497
474 515
474 520
475 433
475 453
475 463
475 466
475 470
475 483
475 505
475 516
476 423
476 431
476 450
476 456
476 460
476 467
476 473
476 474
476 492
476 495
476 496
476 511
476 517
476 524
477 435
477 448
477 449
477 451
477 464
477 465
477 471
477 493
477 494
477 502
477 504
477 509
477 523
477 526
478 422
478 432
478 443
478 445
478 454
478 455
478 472
478 486
478 498
478 499
478 503
478 507
478 522
478 532
479 420
479 436
479 450
479 459
479 473
479 488
479 492
479 495
479 511
479 513
480 446
480 449
480 465
480 494
480 500
480 509
480 531
481 440
481 445
481 454
481 486
481 503
481 522
481 534
482 444
482 447
482 458
482 461
482 468
482 472
482 490
482 501
482 512
482 514
482 541
483 441
483 463
483 470
483 475
483 487
483 505
483 510
483 525
483 533
483 539
484 442
484 457
484 462
484 469
484 485
484 487
484 489
484 506
484 508
484 510
484 518
484 527
484 529
485 458
485 462
485 469
485 484
485 501
485 506
485 508
485 518
485 521
485 527
485 529
486 445
486 454
486 455
486 478
486 481
486 503
486 507
486 522
486 534
486 537
487 441
487 457
487 463
487 470
487 483
487 484
487 489
487 505
487 510
487 518
487 525
487 530
487 533
488 438
488 459
488 466
488 479
488 495
488 513
488 516
488 519
488 538
489 442
489 457
489 462
489 469
489 470
489 484
489 487
489 505
489 508
489 510
489 518
489 527
489 530
489 533
490 447
490 461
490 468
490 472
490 482
490 498
490 499
490 501
490 512
490 514
490 541
490 545
491 439
491 448
491 452
491 460
491 464
491 471
491 474
491 493
491 496
491 497
491 502
491 515
491 520
491 543
492 450
492 456
492 459
492 467
492 473
492 476
492 479
492 495
492 496
492 511
492 513
492 517
492 524
492 528
492 536
492 540
493 448
493 451
493 452
493 464
493 471
493 474
493 477
493 491
493 497
493 502
493 504
493 520
493 526
493 542
493 543
494 449
494 451
494 464
494 465
494 477
494 480
494 502
494 504
494 509
494 523
494 526
494 531
495 450
495 459
495 473
495 476
495 479
495 488
495 492
495 511
495 513
495 524
495 536
495 538
496 456
496 460
496 467
496 474
496 476
496 491
496 492
496 497
496 515
496 517
496 524
496 528
496 540
497 452
497 460
497 467
497 471
497 474
497 491
497 493
497 496
497 515
497 517
497 520
497 528
497 543
497 550
498 455
498 472
498 478
498 490
498 499
498 507
498 512
498 522
498 532
498 544
498 547
499 468
499 472
499 478
499 490
499 498
499 507
499 512
499 522
499 532
499 544
499 547
500 446
500 465
500 480
500 509
500 531
500 552
501 444
501 458
501 461
501 468
501 482
501 485
501 490
501 506
501 514
501 521
501 529
501 535
501 541
502 451
502 464
502 471
502 477
502 491
502 493
502 494
502 504
502 520
502 523
502 526
502 542
502 546
503 454
503 478
503 481
503 486
503 507
503 522
503 534
503 537
504 449
504 451
504 464
504 465
504 471
504 477
504 493
504 494
504 502
504 509
504 520
504 523
504 526
504 542
504 546
505 463
505 470
505 475
505 483
505 487
505 489
505 510
505 525
505 530
505 533
505 539
505 551
506 458
506 469
506 484
506 485
506 501
506 508
506 521
506 527
506 529
506 535
506 548
506 560
507 455
507 478
507 486
507 498
507 499
507 503
507 512
507 522
507 532
507 537
507 544
507 547
507 554
508 462
508 469
508 484
508 485
508 489
508 506
508 510
508 518
508 521
508 527
508 529
508 530
508 548
508 555
509 465
509 477
509 480
509 494
509 500
509 504
509 523
509 526
509 531
509 552
509 557
509 558
510 457
510 470
510 483
510 484
510 487
510 489
510 505
510 508
510 518
510 525
510 527
510 530
510 533
510 551
511 459
511 473
511 476
511 479
511 492
511 495
511 513
511 517
511 524
511 536
511 540
512 468
512 472
512 482
512 490
512 498
512 499
512 507
512 514
512 541
512 544
512 545
512 547
512 559
513 459
513 473
513 479
513 488
513 492
513 495
513 511
513 519
513 524
513 536
513 538
513 561
513 573
514 461
514 468
514 482
514 490
514 501
514 512
514 521
514 535
514 541
514 545
514 563
514 567
515 467
515 474
515 491
515 496
515 497
515 517
515 520
515 528
515 540
515 543
515 550
515 556
515 562
516 466
516 475
516 488
516 519
516 538
516 539
516 549
516 553
517 467
517 476
517 492
517 496
517 497
517 511
517 515
517 524
517 528
517 536
517 540
517 550
517 556
517 564
518 484
518 485
518 487
518 489
518 508
518 510
518 527
518 529
518 530
518 533
518 551
518 555
518 574
518 577
519 466
519 488
519 513
519 516
519 538
519 549
519 553
519 561
520 471
520 474
520 491
520 493
520 497
520 502
520 504
520 515
520 526
520 542
520 543
520 546
520 550
520 562
520 566
521 485
521 501
521 506
521 508
521 514
521 529
521 535
521 541
521 548
521 560
521 567
521 568
522 478
522 481
522 486
522 498
522 499
522 503
522 507
522 532
522 534
522 537
522 547
522 554
522 565
522 572
523 465
523 477
523 494
523 502
523 504
523 509
523 526
523 531
523 542
523 546
523 557
523 558
523 570
524 473
524 476
524 492
524 495
524 496
524 511
524 513
524 517
524 528
524 536
524 540
524 556
524 564
525 470
525 483
525 487
525 505
525 510
525 530
525 533
525 539
525 551
525 553
525 569
526 477
526 493
526 494
526 502
526 504
526 509
526 520
526 523
526 542
526 546
526 557
526 558
526 566
526 570
526 584
527 484
527 485
527 489
527 506
527 508
527 510
527 518
527 529
527 530
527 548
527 555
527 568
527 574
527 577
527 588
528 492
528 496
528 497
528 515
528 517
528 524
528 540
528 543
528 550
528 556
528 562
528 564
528 583
528 586
529 484
529 485
529 501
529 506
529 508
529 518
529 521
529 527
529 535
529 548
529 555
529 560
529 567
529 568
529 582
529 588
530 487
530 489
530 505
530 508
530 510
530 518
530 525
530 527
530 533
530 551
530 555
530 569
530 574
530 577
530 578
531 480
531 494
531 500
531 509
531 523
531 552
531 557
531 558
531 570
531 585
532 478
532 498
532 499
532 507
532 522
532 534
532 537
532 544
532 547
532 554
532 559
532 565
532 572
532 589
532 591
533 483
533 487
533 489
533 505
533 510
533 518
533 525
533 530
533 539
533 551
533 569
533 574
533 578
534 481
534 486
534 503
534 522
534 532
534 537
534 554
534 565
534 571
534 590
535 501
535 506
535 514
535 521
535 529
535 541
535 548
535 560
535 563
535 567
535 568
535 581
535 582
535 597
536 492
536 495
536 511
536 513
536 517
536 524
536 538
536 540
536 561
536 564
536 573
536 596
537 486
537 503
537 507
537 522
537 532
537 534
537 547
537 554
537 565
537 571
537 572
537 590
537 591
538 488
538 495
538 513
538 516
538 519
538 536
538 549
538 561
538 573
538 579
539 483
539 505
539 516
539 525
539 533
539 549
539 551
539 553
539 569
539 580
539 592
540 492
540 496
540 511
540 515
540 517
540 524
540 528
540 536
540 550
540 556
540 564
540 583
541 482
541 490
541 501
541 512
541 514
541 521
541 535
541 545
541 560
541 563
541 567
541 576
541 581
541 594
541 595
542 493
542 502
542 504
542 520
542 523
542 526
542 543
542 546
542 558
542 562
542 566
542 570
542 584
542 587
542 601
543 491
543 493
543 497
543 515
543 520
543 528
543 542
543 546
543 550
543 556
543 562
543 566
543 586
543 587
544 498
544 499
544 507
544 512
544 532
544 545
544 547
544 559
544 572
544 575
544 576
544 589
544 594
545 490
545 512
545 514
545 541
545 544
545 559
545 563
545 575
545 576
545 581
545 594
545 595
546 502
546 504
546 520
546 523
546 526
546 542
546 543
546 557
546 558
546 566
546 570
546 584
546 587
546 593
546 601
546 604
547 498
547 499
547 507
547 512
547 522
547 532
547 537
547 544
547 554
547 559
547 572
547 575
547 589
547 591
548 506
548 508
548 521
548 527
548 529
548 535
548 555
548 560
548 567
548 568
548 581
548 582
548 588
548 597
549 516
549 519
549 538
549 539
549 553
549 561
549 579
549 580
549 600
550 497
550 515
550 517
550 520
550 528
550 540
550 543
550 556
550 562
550 566
550 583
550 586
550 587
551 505
551 510
551 518
551 525
551 530
551 533
551 539
551 569
551 574
551 577
551 578
551 592
551 599
552 500
552 509
552 531
552 557
552 558
552 585
552 602
553 516
553 519
553 525
553 539
553 549
553 569
553 579
553 580
553 592
553 600
554 507
554 522
554 532
554 534
554 537
554 547
554 559
554 565
554 571
554 572
554 589
554 590
554 591
554 603
555 508
555 518
555 527
555 529
555 530
555 548
555 560
555 568
555 574
555 577
555 582
555 588
556 515
556 517
556 524
556 528
556 540
556 543
556 550
556 562
556 564
556 583
556 586
557 509
557 523
557 526
557 531
557 546
557 552
557 558
557 570
557 585
557 593
557 602
558 509
558 523
558 526
558 531
558 542
558 546
558 552
558 557
558 570
558 584
558 585
558 593
558 604
559 512
559 532
559 544
559 545
559 547
559 554
559 572
559 575
559 576
559 589
559 591
559 594
560 506
560 521
560 529
560 535
560 541
560 548
560 555
560 563
560 567
560 568
560 581
560 582
560 588
560 597
561 513
561 519
561 536
561 538
561 549
561 573
561 579
561 596
561 598
561 600
562 515
562 520
562 528
562 542
562 543
562 550
562 556
562 566
562 586
562 587
563 514
563 535
563 541
563 545
563 560
563 567
563 575
563 576
563 581
563 594
563 595
563 597
564 517
564 524
564 528
564 536
564 540
564 556
564 573
564 583
564 596
565 522
565 532
565 534
565 537
565 554
565 571
565 572
565 590
565 591
565 603
566 520
566 526
566 542
566 543
566 546
566 550
566 562
566 570
566 584
566 587
566 601
566 604
567 514
567 521
567 529
567 535
567 541
567 548
567 560
567 563
567 568
567 576
567 581
567 582
567 595
567 597
568 521
568 527
568 529
568 535
568 548
568 555
568 560
568 567
568 577
568 582
568 588
568 597
569 525
569 530
569 533
569 539
569 551
569 553
569 574
569 578
569 580
569 592
569 599
570 523
570 526
570 531
570 542
570 546
570 557
570 558
570 566
570 584
570 593
570 601
570 604
571 534
571 537
571 554
571 565
571 590
571 591
571 603
572 522
572 532
572 537
572 544
572 547
572 554
572 559
572 565
572 575
572 589
572 591
572 603
573 513
573 536
573 538
573 561
573 564
573 579
573 596
573 598
574 518
574 527
574 530
574 533
574 551
574 555
574 569
574 577
574 578
574 588
574 599
575 544
575 545
575 547
575 559
575 563
575 572
575 576
575 589
575 594
575 595
576 541
576 544
576 545
576 559
576 563
576 567
576 575
576 581
576 594
576 595
577 518
577 527
577 530
577 551
577 555
577 568
577 574
577 578
577 582
577 588
577 599
578 530
578 533
578 551
578 569
578 574
578 577
578 592
578 599
579 538
579 549
579 553
579 561
579 573
579 580
579 596
579 598
579 600
580 539
580 549
580 553
580 569
580 579
580 592
580 600
581 535
581 541
581 545
581 548
581 560
581 563
581 567
581 576
581 582
581 594
581 595
581 597
582 529
582 535
582 548
582 555
582 560
582 567
582 568
582 577
582 581
582 588
582 597
583 528
583 540
583 550
583 556
583 564
583 586
584 526
584 542
584 546
584 558
584 566
584 570
584 587
584 593
584 601
584 604
585 531
585 552
585 557
585 558
585 593
585 602
586 528
586 543
586 550
586 556
586 562
586 583
586 587
587 542
587 543
587 546
587 550
587 562
587 566
587 584
587 586
587 601
587 604
588 527
588 529
588 548
588 555
588 560
588 568
588 574
588 577
588 582
588 597
588 599
589 532
589 544
589 547
589 554
589 559
589 572
589 575
589 591
589 594
590 534
590 537
590 554
590 565
590 571
590 591
590 603
591 532
591 537
591 547
591 554
591 559
591 565
591 571
591 572
591 589
591 590
591 603
592 539
592 551
592 553
592 569
592 578
592 580
593 546
593 557
593 558
593 570
593 584
593 585
593 601
593 604
594 541
594 544
594 545
594 559
594 563
594 575
594 576
594 581
594 589
594 595
595 541
595 545
595 563
595 567
595 575
595 576
595 581
595 594
595 597
596 536
596 561
596 564
596 573
596 579
596 598
597 535
597 548
597 560
597 563
597 567
597 568
597 581
597 582
597 588
597 595
598 561
598 573
598 579
598 596
598 600
599 551
599 569
599 574
599 577
599 578
599 588
600 549
600 553
600 561
600 579
600 580
600 598
601 542
601 546
601 566
601 570
601 584
601 587
601 593
601 604
602 552
602 557
602 585
603 554
603 565
603 571
603 572
603 590
603 591
604 546
604 558
604 566
604 570
604 584
604 587
604 593
604 601
