1 11
1 16
1 17
1 18
1 31
1 33
1 40
1 46
1 55
1 60
1 62
2 5
2 9
2 21
2 28
2 38
2 42
2 49
2 52
2 64
2 70
2 75
2 86
2 92
3 22
3 27
3 32
3 43
3 56
3 77
4 6
4 14
4 17
4 19
4 26
4 33
4 34
4 44
4 47
4 51
4 58
4 63
4 71
4 74
4 88
5 2
5 8
5 20
5 21
5 28
5 38
5 42
5 52
5 53
5 64
5 67
5 75
5 86
6 4
6 14
6 17
6 19
6 26
6 29
6 34
6 47
6 51
6 57
6 58
6 71
6 74
6 81
6 93
7 9
7 13
7 21
7 29
7 30
7 35
7 37
7 38
7 45
7 49
7 59
7 66
7 72
7 80
7 90
8 5
8 20
8 23
8 41
8 42
8 53
8 64
8 65
8 67
8 82
9 2
9 7
9 13
9 21
9 28
9 30
9 35
9 38
9 45
9 49
9 52
9 59
9 70
9 80
9 90
9 91
10 12
10 15
10 22
10 24
10 25
10 32
10 36
10 39
10 48
10 50
10 54
10 68
10 69
10 73
10 78
10 79
10 95
10 98
11 1
11 12
11 15
11 16
11 18
11 24
11 31
11 40
11 46
11 50
11 60
11 62
11 73
11 76
11 89
12 10
12 11
12 15
12 16
12 18
12 24
12 39
12 40
12 46
12 48
12 50
12 60
12 68
12 73
12 76
12 78
12 87
12 89
12 104
13 7
13 9
13 26
13 29
13 30
13 35
13 37
13 45
13 49
13 57
13 59
13 66
13 72
13 80
13 84
13 97
13 102
14 4
14 6
14 19
14 26
14 29
14 34
14 37
14 47
14 51
14 57
14 58
14 71
14 74
14 81
14 84
14 93
14 105
15 10
15 11
15 12
15 18
15 24
15 25
15 36
15 39
15 46
15 48
15 50
15 68
15 69
15 73
15 76
15 78
15 79
15 87
15 95
15 98
16 1
16 11
16 12
16 18
16 24
16 31
16 40
16 46
16 50
16 55
16 60
16 62
16 76
16 89
16 96
17 1
17 4
17 6
17 19
17 31
17 33
17 34
17 44
17 47
17 55
17 61
17 63
17 74
17 88
17 94
17 99
17 109
18 1
18 11
18 12
18 15
18 16
18 24
18 31
18 39
18 40
18 46
18 50
18 60
18 62
18 68
18 73
18 76
18 87
18 89
18 104
19 4
19 6
19 14
19 17
19 33
19 34
19 44
19 47
19 51
19 55
19 58
19 61
19 63
19 71
19 74
19 88
19 99
19 105
20 5
20 8
20 23
20 28
20 41
20 42
20 53
20 64
20 65
20 67
20 82
20 107
20 110
21 2
21 5
21 7
21 9
21 28
21 30
21 38
21 42
21 49
21 52
21 59
21 64
21 70
21 75
21 86
21 91
21 92
21 100
21 108
22 3
22 10
22 25
22 27
22 32
22 36
22 43
22 48
22 54
22 56
22 69
22 77
22 79
22 83
22 85
22 101
22 103
22 112
23 8
23 20
23 41
23 53
23 65
23 67
23 82
23 110
24 10
24 11
24 12
24 15
24 16
24 18
24 36
24 39
24 40
24 46
24 48
24 50
24 60
24 68
24 73
24 76
24 78
24 79
24 87
24 95
24 104
25 10
25 15
25 22
25 27
25 32
25 36
25 39
25 48
25 54
25 56
25 68
25 69
25 78
25 79
25 83
25 85
25 98
25 101
25 112
26 4
26 6
26 13
26 14
26 29
26 34
26 37
26 45
26 51
26 57
26 58
26 66
26 71
26 72
26 81
26 84
26 93
26 97
26 113
26 114
27 3
27 22
27 25
27 32
27 36
27 43
27 54
27 56
27 69
27 77
27 83
27 85
27 103
27 111
27 112
27 119
28 2
28 5
28 9
28 20
28 21
28 38
28 42
28 49
28 52
28 53
28 64
28 67
28 70
28 75
28 86
28 92
28 100
28 108
28 115
29 6
29 7
29 13
29 14
29 26
29 35
29 37
29 45
29 51
29 57
29 58
29 66
29 72
29 81
29 84
29 93
29 97
29 102
29 113
29 114
30 7
30 9
30 13
30 21
30 35
30 37
30 38
30 45
30 49
30 59
30 66
30 70
30 72
30 80
30 90
30 91
30 100
30 102
30 106
30 120
31 1
31 11
31 16
31 17
31 18
31 33
31 40
31 44
31 46
31 55
31 60
31 61
31 62
31 76
31 89
31 94
31 96
31 117
32 3
32 10
32 22
32 25
32 27
32 36
32 39
32 43
32 48
32 54
32 56
32 69
32 77
32 78
32 79
32 83
32 85
32 98
32 101
32 103
32 112
32 119
33 1
33 4
33 17
33 19
33 31
33 44
33 47
33 55
33 61
33 62
33 63
33 74
33 88
33 94
33 99
33 109
34 4
34 6
34 14
34 17
34 19
34 26
34 44
34 47
34 51
34 58
34 61
34 63
34 71
34 74
34 81
34 88
34 93
34 99
34 105
34 116
35 7
35 9
35 13
35 29
35 30
35 37
35 38
35 45
35 49
35 57
35 59
35 66
35 70
35 72
35 80
35 84
35 90
35 91
35 97
35 102
35 106
36 10
36 15
36 22
36 24
36 25
36 27
36 32
36 39
36 48
36 54
36 56
36 68
36 69
36 73
36 78
36 79
36 83
36 85
36 95
36 98
36 101
36 112
36 126
37 7
37 13
37 14
37 26
37 29
37 30
37 35
37 45
37 51
37 57
37 59
37 66
37 72
37 80
37 81
37 84
37 97
37 102
37 106
37 114
37 123
38 2
38 5
38 7
38 9
38 21
38 28
38 30
38 35
38 42
38 49
38 52
38 59
38 64
38 70
38 75
38 80
38 86
38 90
38 91
38 92
38 100
38 108
38 121
38 125
39 10
39 12
39 15
39 18
39 24
39 25
39 32
39 36
39 46
39 48
39 50
39 54
39 68
39 69
39 73
39 76
39 78
39 79
39 87
39 95
39 98
39 101
39 122
40 1
40 11
40 12
40 16
40 18
40 24
40 31
40 46
40 50
40 60
40 62
40 73
40 76
40 87
40 89
40 96
40 104
40 117
41 8
41 20
41 23
41 42
41 53
41 64
41 65
41 67
41 82
41 107
41 110
41 130
42 2
42 5
42 8
42 20
42 21
42 28
42 38
42 41
42 52
42 53
42 64
42 67
42 75
42 82
42 86
42 92
42 107
42 108
42 115
42 124
43 3
43 22
43 27
43 32
43 54
43 56
43 77
43 83
43 85
43 103
43 111
43 112
43 119
43 129
44 4
44 17
44 19
44 31
44 33
44 34
44 47
44 55
44 61
44 62
44 63
44 71
44 74
44 88
44 94
44 99
44 109
44 118
45 7
45 9
45 13
45 26
45 29
45 30
45 35
45 37
45 49
45 57
45 59
45 66
45 72
45 80
45 81
45 84
45 90
45 97
45 102
45 106
45 114
45 123
46 1
46 11
46 12
46 15
46 16
46 18
46 24
46 31
46 39
46 40
46 50
46 60
46 62
46 68
46 73
46 76
46 87
46 89
46 95
46 96
46 104
46 117
46 127
47 4
47 6
47 14
47 17
47 19
47 33
47 34
47 44
47 51
47 55
47 58
47 61
47 63
47 71
47 74
47 88
47 93
47 94
47 99
47 105
47 109
47 116
47 118
48 10
48 12
48 15
48 22
48 24
48 25
48 32
48 36
48 39
48 50
48 54
48 68
48 69
48 73
48 78
48 79
48 83
48 87
48 95
48 98
48 101
48 112
48 122
48 126
48 131
49 2
49 7
49 9
49 13
49 21
49 28
49 30
49 35
49 38
49 45
49 52
49 59
49 70
49 72
49 75
49 80
49 90
49 91
49 92
49 100
49 102
49 106
49 120
49 121
49 125
49 132
49 134
49 146
50 10
50 11
50 12
50 15
50 16
50 18
50 24
50 39
50 40
50 46
50 48
50 60
50 68
50 73
50 76
50 78
50 87
50 89
50 95
50 104
50 117
50 122
50 127
50 142
51 4
51 6
51 14
51 19
51 26
51 29
51 34
51 37
51 47
51 57
51 58
51 66
51 71
51 74
51 81
51 84
51 93
51 97
51 105
51 113
51 114
51 116
51 128
51 133
51 143
52 2
52 5
52 9
52 21
52 28
52 38
52 42
52 49
52 59
52 64
52 67
52 70
52 75
52 86
52 90
52 91
52 92
52 100
52 108
52 115
52 121
52 125
52 134
52 137
53 5
53 8
53 20
53 23
53 28
53 41
53 42
53 64
53 65
53 67
53 82
53 86
53 107
53 110
53 115
53 124
53 130
53 135
53 148
54 10
54 22
54 25
54 27
54 32
54 36
54 39
54 43
54 48
54 56
54 69
54 77
54 78
54 79
54 83
54 85
54 98
54 101
54 103
54 111
54 112
54 119
54 126
54 138
55 1
55 16
55 17
55 19
55 31
55 33
55 44
55 47
55 61
55 62
55 63
55 88
55 94
55 96
55 99
55 109
55 118
55 136
55 140
56 3
56 22
56 25
56 27
56 32
56 36
56 43
56 54
56 69
56 77
56 79
56 83
56 85
56 101
56 103
56 111
56 112
56 119
56 129
56 138
57 6
57 13
57 14
57 26
57 29
57 35
57 37
57 45
57 51
57 58
57 66
57 71
57 72
57 80
57 81
57 84
57 93
57 97
57 102
57 113
57 114
57 123
57 128
57 143
57 144
58 4
58 6
58 14
58 19
58 26
58 29
58 34
58 47
58 51
58 57
58 71
58 74
58 81
58 84
58 88
58 93
58 105
58 113
58 114
58 116
58 128
58 133
58 143
59 7
59 9
59 13
59 21
59 30
59 35
59 37
59 38
59 45
59 49
59 52
59 66
59 70
59 72
59 80
59 90
59 91
59 92
59 97
59 100
59 102
59 106
59 120
59 121
59 132
59 134
59 146
60 1
60 11
60 12
60 16
60 18
60 24
60 31
60 40
60 46
60 50
60 62
60 73
60 76
60 87
60 89
60 96
60 104
60 117
60 139
60 142
60 150
61 17
61 19
61 31
61 33
61 34
61 44
61 47
61 55
61 62
61 63
61 74
61 88
61 94
61 96
61 99
61 109
61 116
61 118
61 136
61 140
62 1
62 11
62 16
62 18
62 31
62 33
62 40
62 44
62 46
62 55
62 60
62 61
62 76
62 89
62 94
62 96
62 109
62 117
62 136
62 139
62 150
62 157
63 4
63 17
63 19
63 33
63 34
63 44
63 47
63 55
63 61
63 71
63 74
63 88
63 94
63 99
63 105
63 109
63 116
63 118
63 136
63 140
63 147
64 2
64 5
64 8
64 20
64 21
64 28
64 38
64 41
64 42
64 52
64 53
64 67
64 70
64 75
64 82
64 86
64 92
64 100
64 107
64 108
64 110
64 115
64 124
64 125
64 130
64 137
64 145
65 8
65 20
65 23
65 41
65 53
65 67
65 82
65 107
65 110
65 130
65 135
65 149
66 7
66 13
66 26
66 29
66 30
66 35
66 37
66 45
66 51
66 57
66 59
66 72
66 80
66 81
66 84
66 90
66 97
66 102
66 106
66 113
66 114
66 123
66 132
66 141
66 144
66 155
67 5
67 8
67 20
67 23
67 28
67 41
67 42
67 52
67 53
67 64
67 65
67 75
67 82
67 86
67 107
67 108
67 110
67 115
67 124
67 130
67 135
67 145
67 148
67 149
68 10
68 12
68 15
68 18
68 24
68 25
68 36
68 39
68 46
68 48
68 50
68 69
68 73
68 76
68 78
68 79
68 87
68 95
68 98
68 101
68 104
68 122
68 126
68 127
68 131
68 154
68 156
69 10
69 15
69 22
69 25
69 27
69 32
69 36
69 39
69 48
69 54
69 56
69 68
69 78
69 79
69 83
69 85
69 95
69 98
69 101
69 103
69 112
69 119
69 122
69 126
69 131
69 138
70 2
70 9
70 21
70 28
70 30
70 35
70 38
70 49
70 52
70 59
70 64
70 75
70 80
70 86
70 90
70 91
70 92
70 100
70 106
70 108
70 120
70 121
70 125
70 132
70 134
70 137
70 146
70 153
71 4
71 6
71 14
71 19
71 26
71 34
71 44
71 47
71 51
71 57
71 58
71 63
71 74
71 81
71 84
71 88
71 93
71 99
71 105
71 113
71 116
71 118
71 128
71 133
71 147
71 151
71 159
72 7
72 13
72 26
72 29
72 30
72 35
72 37
72 45
72 49
72 57
72 59
72 66
72 80
72 81
72 84
72 90
72 91
72 97
72 102
72 106
72 113
72 114
72 120
72 123
72 132
72 141
72 144
73 10
73 11
73 12
73 15
73 18
73 24
73 36
73 39
73 40
73 46
73 48
73 50
73 60
73 68
73 76
73 78
73 79
73 87
73 89
73 95
73 98
73 101
73 104
73 122
73 127
73 131
73 142
73 152
73 154
73 162
74 4
74 6
74 14
74 17
74 19
74 33
74 34
74 44
74 47
74 51
74 58
74 61
74 63
74 71
74 81
74 88
74 93
74 99
74 105
74 109
74 116
74 118
74 128
74 133
74 147
74 151
74 159
75 2
75 5
75 21
75 28
75 38
75 42
75 49
75 52
75 64
75 67
75 70
75 86
75 91
75 92
75 100
75 107
75 108
75 115
75 121
75 124
75 125
75 134
75 137
75 145
75 161
75 166
76 11
76 12
76 15
76 16
76 18
76 24
76 31
76 39
76 40
76 46
76 50
76 60
76 62
76 68
76 73
76 78
76 87
76 89
76 95
76 96
76 104
76 117
76 122
76 127
76 139
76 142
76 150
76 152
77 3
77 22
77 27
77 32
77 43
77 54
77 56
77 83
77 85
77 103
77 111
77 112
77 119
77 129
77 158
78 10
78 12
78 15
78 24
78 25
78 32
78 36
78 39
78 48
78 50
78 54
78 68
78 69
78 73
78 76
78 79
78 83
78 87
78 95
78 98
78 101
78 104
78 112
78 122
78 126
78 127
78 131
78 154
78 156
78 164
79 10
79 15
79 22
79 24
79 25
79 32
79 36
79 39
79 48
79 54
79 56
79 68
79 69
79 73
79 78
79 83
79 85
79 87
79 95
79 98
79 101
79 112
79 119
79 122
79 126
79 127
79 131
79 138
79 154
79 156
79 164
80 7
80 9
80 13
80 30
80 35
80 37
80 38
80 45
80 49
80 57
80 59
80 66
80 70
80 72
80 84
80 90
80 91
80 97
80 100
80 102
80 106
80 114
80 120
80 121
80 123
80 132
80 134
80 141
80 144
80 146
80 153
80 160
81 6
81 14
81 26
81 29
81 34
81 37
81 45
81 51
81 57
81 58
81 66
81 71
81 72
81 74
81 84
81 93
81 97
81 102
81 105
81 113
81 114
81 116
81 123
81 128
81 133
81 143
81 144
81 155
81 172
82 8
82 20
82 23
82 41
82 42
82 53
82 64
82 65
82 67
82 86
82 107
82 110
82 115
82 124
82 130
82 135
82 148
82 149
83 22
83 25
83 27
83 32
83 36
83 43
83 48
83 54
83 56
83 69
83 77
83 78
83 79
83 85
83 98
83 101
83 103
83 111
83 112
83 119
83 126
83 129
83 131
83 138
83 167
83 168
83 173
84 13
84 14
84 26
84 29
84 35
84 37
84 45
84 51
84 57
84 58
84 66
84 71
84 72
84 80
84 81
84 93
84 97
84 102
84 105
84 106
84 113
84 114
84 123
84 128
84 141
84 143
84 144
84 155
84 172
84 178
85 22
85 25
85 27
85 32
85 36
85 43
85 54
85 56
85 69
85 77
85 79
85 83
85 98
85 101
85 103
85 111
85 112
85 119
85 126
85 129
85 138
85 158
85 167
85 168
86 2
86 5
86 21
86 28
86 38
86 42
86 52
86 53
86 64
86 67
86 70
86 75
86 82
86 92
86 100
86 107
86 108
86 115
86 124
86 125
86 130
86 134
86 137
86 145
86 148
86 161
86 166
86 175
86 180
87 12
87 15
87 18
87 24
87 39
87 40
87 46
87 48
87 50
87 60
87 68
87 73
87 76
87 78
87 79
87 89
87 95
87 98
87 104
87 117
87 122
87 127
87 131
87 142
87 152
87 154
87 156
87 162
88 4
88 17
88 19
88 33
88 34
88 44
88 47
88 55
88 58
88 61
88 63
88 71
88 74
88 93
88 94
88 99
88 105
88 109
88 116
88 118
88 128
88 133
88 136
88 140
88 147
88 151
88 159
88 163
88 169
89 11
89 12
89 16
89 18
89 31
89 40
89 46
89 50
89 60
89 62
89 73
89 76
89 87
89 96
89 104
89 117
89 127
89 139
89 142
89 150
89 152
89 157
89 174
89 185
90 7
90 9
90 30
90 35
90 38
90 45
90 49
90 52
90 59
90 66
90 70
90 72
90 80
90 91
90 92
90 97
90 100
90 102
90 106
90 120
90 121
90 123
90 125
90 132
90 134
90 141
90 146
90 153
90 160
90 165
90 170
91 9
91 21
91 30
91 35
91 38
91 49
91 52
91 59
91 70
91 72
91 75
91 80
91 90
91 92
91 100
91 102
91 106
91 108
91 120
91 121
91 125
91 132
91 134
91 137
91 146
91 153
91 160
91 161
91 165
91 170
92 2
92 21
92 28
92 38
92 42
92 49
92 52
92 59
92 64
92 70
92 75
92 86
92 90
92 91
92 100
92 108
92 115
92 120
92 121
92 124
92 125
92 134
92 137
92 145
92 146
92 153
92 161
92 165
92 166
92 175
93 6
93 14
93 26
93 29
93 34
93 47
93 51
93 57
93 58
93 71
93 74
93 81
93 84
93 88
93 97
93 105
93 113
93 114
93 116
93 118
93 128
93 133
93 143
93 147
93 151
93 155
93 159
93 172
93 177
94 17
94 31
94 33
94 44
94 47
94 55
94 61
94 62
94 63
94 88
94 96
94 99
94 109
94 117
94 118
94 136
94 139
94 140
94 147
94 157
94 163
94 169
94 171
94 182
95 10
95 15
95 24
95 36
95 39
95 46
95 48
95 50
95 68
95 69
95 73
95 76
95 78
95 79
95 87
95 98
95 101
95 104
95 122
95 126
95 127
95 131
95 142
95 152
95 154
95 156
95 162
95 164
95 184
96 16
96 31
96 40
96 46
96 55
96 60
96 61
96 62
96 76
96 89
96 94
96 104
96 109
96 117
96 136
96 139
96 140
96 142
96 150
96 157
96 163
96 171
96 174
96 187
97 13
97 26
97 29
97 35
97 37
97 45
97 51
97 57
97 59
97 66
97 72
97 80
97 81
97 84
97 90
97 93
97 102
97 106
97 113
97 114
97 120
97 123
97 132
97 141
97 143
97 144
97 155
97 160
97 172
97 178
97 179
97 186
98 10
98 15
98 25
98 32
98 36
98 39
98 48
98 54
98 68
98 69
98 73
98 78
98 79
98 83
98 85
98 87
98 95
98 101
98 104
98 112
98 122
98 126
98 127
98 131
98 138
98 154
98 156
98 162
98 164
98 173
98 184
98 190
99 17
99 19
99 33
99 34
99 44
99 47
99 55
99 61
99 63
99 71
99 74
99 88
99 94
99 105
99 109
99 116
99 118
99 133
99 136
99 140
99 147
99 151
99 163
99 169
99 171
99 182
100 21
100 28
100 30
100 38
100 49
100 52
100 59
100 64
100 70
100 75
100 80
100 86
100 90
100 91
100 92
100 106
100 108
100 115
100 120
100 121
100 125
100 132
100 134
100 137
100 146
100 153
100 161
100 165
100 166
100 170
101 22
101 25
101 32
101 36
101 39
101 48
101 54
101 56
101 68
101 69
101 73
101 78
101 79
101 83
101 85
101 95
101 98
101 103
101 112
101 119
101 122
101 126
101 127
101 131
101 138
101 154
101 156
101 164
101 168
101 173
101 190
102 13
102 29
102 30
102 35
102 37
102 45
102 49
102 57
102 59
102 66
102 72
102 80
102 81
102 84
102 90
102 91
102 97
102 106
102 113
102 114
102 120
102 121
102 123
102 132
102 141
102 143
102 144
102 146
102 155
102 160
102 170
102 178
102 179
103 22
103 27
103 32
103 43
103 54
103 56
103 69
103 77
103 83
103 85
103 101
103 111
103 112
103 119
103 126
103 129
103 138
103 158
103 167
103 168
103 173
103 181
104 12
104 18
104 24
104 40
104 46
104 50
104 60
104 68
104 73
104 76
104 78
104 87
104 89
104 95
104 96
104 98
104 117
104 122
104 127
104 139
104 142
104 150
104 152
104 154
104 162
104 185
104 195
104 198
105 14
105 19
105 34
105 47
105 51
105 58
105 63
105 71
105 74
105 81
105 84
105 88
105 93
105 99
105 113
105 114
105 116
105 118
105 128
105 133
105 143
105 147
105 151
105 159
105 172
105 177
105 188
105 191
106 30
106 35
106 37
106 45
106 49
106 59
106 66
106 70
106 72
106 80
106 84
106 90
106 91
106 97
106 100
106 102
106 114
106 120
106 121
106 123
106 132
106 134
106 141
106 144
106 146
106 153
106 155
106 160
106 165
106 170
106 178
106 179
106 192
107 20
107 41
107 42
107 53
107 64
107 65
107 67
107 75
107 82
107 86
107 108
107 110
107 115
107 124
107 130
107 135
107 137
107 145
107 148
107 149
107 175
107 176
107 180
107 183
107 197
108 21
108 28
108 38
108 42
108 52
108 64
108 67
108 70
108 75
108 86
108 91
108 92
108 100
108 107
108 115
108 121
108 124
108 125
108 134
108 137
108 145
108 153
108 161
108 165
108 166
108 175
108 180
108 196
109 17
109 33
109 44
109 47
109 55
109 61
109 62
109 63
109 74
109 88
109 94
109 96
109 99
109 116
109 118
109 136
109 139
109 140
109 147
109 151
109 157
109 163
109 169
109 171
109 182
109 200
109 202
110 20
110 23
110 41
110 53
110 64
110 65
110 67
110 82
110 107
110 115
110 124
110 130
110 135
110 145
110 148
110 149
110 176
110 180
110 183
111 27
111 43
111 54
111 56
111 77
111 83
111 85
111 103
111 112
111 119
111 129
111 138
111 158
111 167
111 168
111 181
112 22
112 25
112 27
112 32
112 36
112 43
112 48
112 54
112 56
112 69
112 77
112 78
112 79
112 83
112 85
112 98
112 101
112 103
112 111
112 119
112 126
112 129
112 131
112 138
112 156
112 158
112 164
112 167
112 168
112 173
112 181
112 189
112 199
113 26
113 29
113 51
113 57
113 58
113 66
113 71
113 72
113 81
113 84
113 93
113 97
113 102
113 105
113 114
113 116
113 123
113 128
113 133
113 141
113 143
113 144
113 151
113 155
113 159
113 172
113 177
113 178
113 186
113 205
114 26
114 29
114 37
114 45
114 51
114 57
114 58
114 66
114 72
114 80
114 81
114 84
114 93
114 97
114 102
114 105
114 106
114 113
114 123
114 128
114 132
114 133
114 141
114 143
114 144
114 155
114 172
114 177
114 178
114 179
114 186
114 203
114 205
115 28
115 42
115 52
115 53
115 64
115 67
115 75
115 82
115 86
115 92
115 100
115 107
115 108
115 110
115 124
115 125
115 130
115 134
115 137
115 145
115 148
115 149
115 161
115 166
115 175
115 176
115 180
115 196
115 197
115 212
116 34
116 47
116 51
116 58
116 61
116 63
116 71
116 74
116 81
116 88
116 93
116 99
116 105
116 109
116 113
116 118
116 128
116 133
116 140
116 143
116 147
116 151
116 159
116 169
116 177
116 182
116 188
116 191
116 201
117 31
117 40
117 46
117 50
117 60
117 62
117 76
117 87
117 89
117 94
117 96
117 104
117 127
117 136
117 139
117 142
117 150
117 152
117 157
117 171
117 174
117 185
117 187
117 193
117 204
117 207
118 44
118 47
118 55
118 61
118 63
118 71
118 74
118 88
118 93
118 94
118 99
118 105
118 109
118 116
118 128
118 133
118 136
118 140
118 147
118 151
118 159
118 163
118 169
118 171
118 177
118 182
118 188
118 191
119 27
119 32
119 43
119 54
119 56
119 69
119 77
119 79
119 83
119 85
119 101
119 103
119 111
119 112
119 126
119 129
119 131
119 138
119 158
119 164
119 167
119 168
119 173
119 181
119 189
119 199
119 208
120 30
120 49
120 59
120 70
120 72
120 80
120 90
120 91
120 92
120 97
120 100
120 102
120 106
120 121
120 123
120 125
120 132
120 134
120 141
120 144
120 146
120 153
120 160
120 161
120 165
120 170
120 179
120 192
120 194
120 206
121 38
121 49
121 52
121 59
121 70
121 75
121 80
121 90
121 91
121 92
121 100
121 102
121 106
121 108
121 120
121 125
121 132
121 134
121 137
121 141
121 146
121 153
121 160
121 161
121 165
121 166
121 170
121 192
121 194
121 215
122 39
122 48
122 50
122 68
122 69
122 73
122 76
122 78
122 79
122 87
122 95
122 98
122 101
122 104
122 126
122 127
122 131
122 142
122 152
122 154
122 156
122 162
122 164
122 173
122 184
122 190
122 195
122 198
122 209
122 211
123 37
123 45
123 57
123 66
123 72
123 80
123 81
123 84
123 90
123 97
123 102
123 106
123 113
123 114
123 120
123 132
123 141
123 143
123 144
123 146
123 155
123 160
123 172
123 178
123 179
123 186
123 203
123 205
124 42
124 53
124 64
124 67
124 75
124 82
124 86
124 92
124 107
124 108
124 110
124 115
124 125
124 130
124 135
124 137
124 145
124 148
124 149
124 166
124 175
124 176
124 180
124 183
124 196
124 197
124 212
124 221
125 38
125 49
125 52
125 64
125 70
125 75
125 86
125 90
125 91
125 92
125 100
125 108
125 115
125 120
125 121
125 124
125 132
125 134
125 137
125 145
125 146
125 153
125 161
125 165
125 166
125 170
125 175
125 192
125 194
125 196
125 215
125 222
126 36
126 48
126 54
126 68
126 69
126 78
126 79
126 83
126 85
126 95
126 98
126 101
126 103
126 112
126 119
126 122
126 127
126 131
126 138
126 154
126 156
126 164
126 167
126 168
126 173
126 184
126 189
126 190
126 199
126 211
126 216
127 46
127 50
127 68
127 73
127 76
127 78
127 79
127 87
127 89
127 95
127 98
127 101
127 104
127 117
127 122
127 126
127 131
127 142
127 150
127 152
127 154
127 156
127 162
127 164
127 184
127 185
127 190
127 195
127 198
127 209
128 51
128 57
128 58
128 71
128 74
128 81
128 84
128 88
128 93
128 105
128 113
128 114
128 116
128 118
128 133
128 143
128 147
128 151
128 155
128 159
128 172
128 177
128 186
128 188
128 191
128 201
128 205
128 224
129 43
129 56
129 77
129 83
129 85
129 103
129 111
129 112
129 119
129 138
129 158
129 167
129 168
129 173
129 181
129 189
129 208
130 41
130 53
130 64
130 65
130 67
130 82
130 86
130 107
130 110
130 115
130 124
130 135
130 145
130 148
130 149
130 175
130 176
130 180
130 183
130 197
130 210
130 213
131 48
131 68
131 69
131 73
131 78
131 79
131 83
131 87
131 95
131 98
131 101
131 112
131 119
131 122
131 126
131 127
131 138
131 152
131 154
131 156
131 162
131 164
131 168
131 173
131 184
131 189
131 190
131 195
131 199
131 209
131 211
131 216
132 49
132 59
132 66
132 70
132 72
132 80
132 90
132 91
132 97
132 100
132 102
132 106
132 114
132 120
132 121
132 123
132 125
132 134
132 141
132 144
132 146
132 153
132 155
132 160
132 165
132 170
132 178
132 179
132 192
132 203
132 206
132 217
132 223
133 51
133 58
133 71
133 74
133 81
133 88
133 93
133 99
133 105
133 113
133 114
133 116
133 118
133 128
133 143
133 147
133 151
133 159
133 169
133 172
133 177
133 188
133 191
133 201
133 218
133 224
133 225
134 49
134 52
134 59
134 70
134 75
134 80
134 86
134 90
134 91
134 92
134 100
134 106
134 108
134 115
134 120
134 121
134 125
134 132
134 137
134 146
134 153
134 160
134 161
134 165
134 166
134 170
134 175
134 192
134 194
134 196
134 215
134 222
135 53
135 65
135 67
135 82
135 107
135 110
135 124
135 130
135 145
135 148
135 149
135 176
135 180
135 183
135 197
135 210
135 213
136 55
136 61
136 62
136 63
136 88
136 94
136 96
136 99
136 109
136 117
136 118
136 139
136 140
136 147
136 150
136 157
136 163
136 169
136 171
136 174
136 182
136 187
136 200
136 202
136 204
136 214
137 52
137 64
137 70
137 75
137 86
137 91
137 92
137 100
137 107
137 108
137 115
137 121
137 124
137 125
137 134
137 145
137 146
137 148
137 153
137 161
137 165
137 166
137 175
137 180
137 194
137 196
137 212
137 222
138 54
138 56
138 69
138 79
138 83
138 85
138 98
138 101
138 103
138 111
138 112
138 119
138 126
138 129
138 131
138 156
138 158
138 164
138 167
138 168
138 173
138 181
138 189
138 190
138 199
138 208
138 216
138 220
139 60
139 62
139 76
139 89
139 94
139 96
139 104
139 109
139 117
139 136
139 140
139 142
139 150
139 152
139 157
139 163
139 171
139 174
139 185
139 187
139 193
139 200
139 204
139 207
139 230
139 232
140 55
140 61
140 63
140 88
140 94
140 96
140 99
140 109
140 116
140 118
140 136
140 139
140 147
140 151
140 157
140 163
140 169
140 171
140 182
140 187
140 188
140 200
140 202
140 214
140 227
141 66
141 72
141 80
141 84
141 90
141 97
141 102
141 106
141 113
141 114
141 120
141 121
141 123
141 132
141 143
141 144
141 146
141 153
141 155
141 160
141 170
141 172
141 178
141 179
141 186
141 192
141 203
141 206
141 217
141 219
142 50
142 60
142 73
142 76
142 87
142 89
142 95
142 96
142 104
142 117
142 122
142 127
142 139
142 150
142 152
142 154
142 157
142 162
142 174
142 184
142 185
142 187
142 193
142 195
142 198
142 204
142 207
142 233
143 51
143 57
143 58
143 81
143 84
143 93
143 97
143 102
143 105
143 113
143 114
143 116
143 123
143 128
143 133
143 141
143 144
143 151
143 155
143 159
143 172
143 177
143 178
143 179
143 186
143 191
143 201
143 203
143 205
143 219
143 224
143 228
144 57
144 66
144 72
144 80
144 81
144 84
144 97
144 102
144 106
144 113
144 114
144 120
144 123
144 132
144 141
144 143
144 146
144 155
144 160
144 170
144 172
144 178
144 179
144 186
144 203
144 205
144 206
144 217
144 219
145 64
145 67
145 75
145 86
145 92
145 107
145 108
145 110
145 115
145 124
145 125
145 130
145 135
145 137
145 148
145 149
145 161
145 166
145 175
145 176
145 180
145 183
145 194
145 196
145 197
145 212
145 221
146 49
146 59
146 70
146 80
146 90
146 91
146 92
146 100
146 102
146 106
146 120
146 121
146 123
146 125
146 132
146 134
146 137
146 141
146 144
146 153
146 160
146 161
146 165
146 170
146 178
146 179
146 192
146 194
146 206
146 215
146 217
146 222
146 223
147 63
147 71
147 74
147 88
147 93
147 94
147 99
147 105
147 109
147 116
147 118
147 128
147 133
147 136
147 140
147 151
147 159
147 163
147 169
147 171
147 177
147 182
147 188
147 191
147 200
147 201
147 202
147 214
147 218
147 225
147 227
148 53
148 67
148 82
148 86
148 107
148 110
148 115
148 124
148 130
148 135
148 137
148 145
148 149
148 166
148 175
148 176
148 180
148 183
148 197
148 210
148 212
148 213
148 221
148 234
149 65
149 67
149 82
149 107
149 110
149 115
149 124
149 130
149 135
149 145
149 148
149 176
149 180
149 183
149 197
149 210
149 213
149 234
149 239
150 60
150 62
150 76
150 89
150 96
150 104
150 117
150 127
150 136
150 139
150 142
150 152
150 157
150 162
150 171
150 174
150 185
150 187
150 193
150 195
150 198
150 200
150 204
150 207
150 232
150 240
151 71
151 74
151 88
151 93
151 99
151 105
151 109
151 113
151 116
151 118
151 128
151 133
151 140
151 143
151 147
151 159
151 163
151 169
151 172
151 177
151 182
151 188
151 191
151 201
151 214
151 218
151 224
151 225
151 227
152 73
152 76
152 87
152 89
152 95
152 104
152 117
152 122
152 127
152 131
152 139
152 142
152 150
152 154
152 156
152 162
152 174
152 184
152 185
152 193
152 195
152 198
152 207
152 209
152 229
152 233
153 70
153 80
153 90
153 91
153 92
153 100
153 106
153 108
153 120
153 121
153 125
153 132
153 134
153 137
153 141
153 146
153 160
153 161
153 165
153 166
153 170
153 179
153 192
153 194
153 196
153 206
153 215
153 222
153 223
153 236
154 68
154 73
154 78
154 79
154 87
154 95
154 98
154 101
154 104
154 122
154 126
154 127
154 131
154 142
154 152
154 156
154 162
154 164
154 173
154 184
154 185
154 190
154 195
154 198
154 199
154 209
154 211
154 216
154 229
154 238
155 66
155 81
155 84
155 93
155 97
155 102
155 106
155 113
155 114
155 123
155 128
155 132
155 141
155 143
155 144
155 159
155 160
155 172
155 177
155 178
155 179
155 186
155 201
155 203
155 205
155 217
155 219
155 228
155 243
156 68
156 78
156 79
156 87
156 95
156 98
156 101
156 112
156 122
156 126
156 127
156 131
156 138
156 152
156 154
156 162
156 164
156 168
156 173
156 184
156 189
156 190
156 195
156 198
156 199
156 209
156 211
156 216
156 229
156 237
156 238
157 62
157 89
157 94
157 96
157 109
157 117
157 136
157 139
157 140
157 142
157 150
157 163
157 169
157 171
157 174
157 182
157 185
157 187
157 193
157 200
157 202
157 204
157 207
157 230
157 232
157 242
158 77
158 85
158 103
158 111
158 112
158 119
158 129
158 138
158 167
158 168
158 173
158 181
158 189
158 199
158 208
158 220
158 226
158 231
159 71
159 74
159 88
159 93
159 105
159 113
159 116
159 118
159 128
159 133
159 143
159 147
159 151
159 155
159 169
159 172
159 177
159 182
159 186
159 188
159 191
159 201
159 205
159 218
159 224
159 225
159 228
159 241
159 250
160 80
160 90
160 91
160 97
160 102
160 106
160 120
160 121
160 123
160 132
160 134
160 141
160 144
160 146
160 153
160 155
160 165
160 170
160 178
160 179
160 192
160 194
160 203
160 206
160 215
160 217
160 223
160 246
160 252
161 75
161 86
161 91
161 92
161 100
161 108
161 115
161 120
161 121
161 125
161 134
161 137
161 145
161 146
161 153
161 165
161 166
161 170
161 175
161 180
161 192
161 194
161 196
161 212
161 215
161 222
161 223
161 235
161 236
161 244
162 73
162 87
162 95
162 98
162 104
162 122
162 127
162 131
162 142
162 150
162 152
162 154
162 156
162 164
162 184
162 185
162 190
162 193
162 195
162 198
162 209
162 211
162 229
162 233
162 238
163 88
163 94
163 96
163 99
163 109
163 118
163 136
163 139
163 140
163 147
163 151
163 157
163 169
163 171
163 174
163 182
163 187
163 188
163 200
163 202
163 204
163 214
163 218
163 227
163 230
163 242
163 248
164 78
164 79
164 95
164 98
164 101
164 112
164 119
164 122
164 126
164 127
164 131
164 138
164 154
164 156
164 162
164 167
164 168
164 173
164 184
164 189
164 190
164 195
164 199
164 208
164 209
164 211
164 216
164 220
164 229
164 237
164 238
164 245
165 90
165 91
165 92
165 100
165 106
165 108
165 120
165 121
165 125
165 132
165 134
165 137
165 146
165 153
165 160
165 161
165 166
165 170
165 175
165 192
165 194
165 196
165 206
165 215
165 222
165 223
165 235
165 236
165 244
165 246
166 75
166 86
166 92
166 100
166 108
166 115
166 121
166 124
166 125
166 134
166 137
166 145
166 148
166 153
166 161
166 165
166 175
166 176
166 180
166 194
166 196
166 197
166 212
166 215
166 221
166 222
166 235
166 244
167 83
167 85
167 103
167 111
167 112
167 119
167 126
167 129
167 138
167 158
167 164
167 168
167 173
167 181
167 189
167 199
167 208
167 216
167 220
167 226
167 231
167 245
167 254
167 255
168 83
168 85
168 101
168 103
168 111
168 112
168 119
168 126
168 129
168 131
168 138
168 156
168 158
168 164
168 167
168 173
168 181
168 189
168 190
168 199
168 208
168 211
168 216
168 220
168 226
168 231
168 237
168 245
168 254
169 88
169 94
169 99
169 109
169 116
169 118
169 133
169 136
169 140
169 147
169 151
169 157
169 159
169 163
169 171
169 182
169 187
169 188
169 191
169 200
169 202
169 214
169 218
169 225
169 227
169 248
169 251
169 259
170 90
170 91
170 100
170 102
170 106
170 120
170 121
170 125
170 132
170 134
170 141
170 144
170 146
170 153
170 160
170 161
170 165
170 178
170 179
170 192
170 194
170 203
170 206
170 215
170 217
170 222
170 223
170 236
170 246
170 252
171 94
171 96
171 99
171 109
171 117
171 118
171 136
171 139
171 140
171 147
171 150
171 157
171 163
171 169
171 174
171 182
171 187
171 193
171 200
171 202
171 204
171 207
171 214
171 227
171 230
171 232
171 242
171 248
172 81
172 84
172 93
172 97
172 105
172 113
172 114
172 123
172 128
172 133
172 141
172 143
172 144
172 151
172 155
172 159
172 177
172 178
172 179
172 186
172 191
172 201
172 203
172 205
172 219
172 224
172 225
172 228
172 241
172 243
172 257
173 83
173 98
173 101
173 103
173 112
173 119
173 122
173 126
173 129
173 131
173 138
173 154
173 156
173 158
173 164
173 167
173 168
173 181
173 184
173 189
173 190
173 199
173 208
173 209
173 211
173 216
173 220
173 231
173 237
173 238
173 245
173 254
174 89
174 96
174 117
174 136
174 139
174 142
174 150
174 152
174 157
174 163
174 171
174 185
174 187
174 193
174 198
174 200
174 202
174 204
174 207
174 230
174 232
174 233
174 240
174 242
174 260
174 263
175 86
175 92
175 107
175 108
175 115
175 124
175 125
175 130
175 134
175 137
175 145
175 148
175 161
175 165
175 166
175 176
175 180
175 194
175 196
175 197
175 212
175 221
175 222
175 234
175 235
175 247
175 258
176 107
176 110
176 115
176 124
176 130
176 135
176 145
176 148
176 149
176 166
176 175
176 180
176 183
176 196
176 197
176 210
176 212
176 213
176 221
176 234
176 239
176 247
176 253
177 93
177 105
177 113
177 114
177 116
177 118
177 128
177 133
177 143
177 147
177 151
177 155
177 159
177 172
177 178
177 186
177 188
177 191
177 201
177 205
177 218
177 219
177 224
177 225
177 228
177 241
177 250
177 267
178 84
178 97
178 102
178 106
178 113
178 114
178 123
178 132
178 141
178 143
178 144
178 146
178 155
178 160
178 170
178 172
178 177
178 179
178 186
178 192
178 203
178 205
178 206
178 217
178 219
178 228
178 243
178 249
178 252
179 97
179 102
179 106
179 114
179 120
179 123
179 132
179 141
179 143
179 144
179 146
179 153
179 155
179 160
179 170
179 172
179 178
179 186
179 192
179 203
179 205
179 206
179 217
179 219
179 223
179 228
179 243
179 246
179 249
179 252
180 86
180 107
180 108
180 110
180 115
180 124
180 130
180 135
180 137
180 145
180 148
180 149
180 161
180 166
180 175
180 176
180 183
180 196
180 197
180 212
180 213
180 221
180 234
180 235
180 239
180 247
180 253
180 258
180 265
181 103
181 111
181 112
181 119
181 129
181 138
181 158
181 167
181 168
181 173
181 189
181 199
181 208
181 220
181 226
181 231
181 254
181 255
181 261
182 94
182 99
182 109
182 116
182 118
182 136
182 140
182 147
182 151
182 157
182 159
182 163
182 169
182 171
182 187
182 188
182 191
182 200
182 202
182 214
182 218
182 225
182 227
182 230
182 242
182 248
182 251
182 259
183 107
183 110
183 124
183 130
183 135
183 145
183 148
183 149
183 176
183 180
183 197
183 210
183 213
183 221
183 234
183 239
183 247
183 253
184 95
184 98
184 122
184 126
184 127
184 131
184 142
184 152
184 154
184 156
184 162
184 164
184 173
184 185
184 190
184 195
184 198
184 199
184 209
184 211
184 216
184 229
184 233
184 237
184 238
184 262
184 266
185 89
185 104
185 117
185 127
185 139
185 142
185 150
185 152
185 154
185 157
185 162
185 174
185 184
185 187
185 193
185 195
185 198
185 204
185 207
185 209
185 229
185 232
185 233
185 240
185 263
185 269
186 97
186 113
186 114
186 123
186 128
186 141
186 143
186 144
186 155
186 159
186 172
186 177
186 178
186 179
186 191
186 201
186 203
186 205
186 217
186 219
186 224
186 225
186 228
186 241
186 243
186 249
186 257
187 96
187 117
187 136
187 139
187 140
187 142
187 150
187 157
187 163
187 169
187 171
187 174
187 182
187 185
187 193
187 200
187 202
187 204
187 207
187 214
187 230
187 232
187 240
187 242
187 248
187 260
187 263
187 270
188 105
188 116
188 118
188 128
188 133
188 140
188 147
188 151
188 159
188 163
188 169
188 177
188 182
188 191
188 200
188 201
188 202
188 214
188 218
188 224
188 225
188 227
188 241
188 248
188 250
188 251
188 256
188 259
188 267
188 275
189 112
189 119
189 126
189 129
189 131
189 138
189 156
189 158
189 164
189 167
189 168
189 173
189 181
189 190
189 199
189 208
189 211
189 216
189 220
189 226
189 231
189 237
189 245
189 254
189 255
189 261
189 272
190 98
190 101
190 122
190 126
190 127
190 131
190 138
190 154
190 156
190 162
190 164
190 168
190 173
190 184
190 189
190 195
190 199
190 208
190 209
190 211
190 216
190 220
190 229
190 237
190 238
190 245
190 254
190 266
190 271
190 274
191 105
191 116
191 118
191 128
191 133
191 143
191 147
191 151
191 159
191 169
191 172
191 177
191 182
191 186
191 188
191 201
191 205
191 214
191 218
191 224
191 225
191 227
191 228
191 241
191 250
191 251
191 256
191 267
192 106
192 120
192 121
192 125
192 132
192 134
192 141
192 146
192 153
192 160
192 161
192 165
192 170
192 178
192 179
192 194
192 196
192 203
192 206
192 215
192 217
192 222
192 223
192 236
192 244
192 246
192 249
192 252
192 264
192 273
193 117
193 139
193 142
193 150
193 152
193 157
193 162
193 171
193 174
193 185
193 187
193 195
193 198
193 200
193 204
193 207
193 230
193 232
193 233
193 240
193 242
193 260
193 263
193 269
193 280
194 120
194 121
194 125
194 134
194 137
194 145
194 146
194 153
194 160
194 161
194 165
194 166
194 170
194 175
194 192
194 196
194 206
194 212
194 215
194 222
194 223
194 235
194 236
194 244
194 246
194 258
194 264
194 268
194 276
195 104
195 122
195 127
195 131
195 142
195 150
195 152
195 154
195 156
195 162
195 164
195 184
195 185
195 190
195 193
195 198
195 207
195 209
195 211
195 229
195 233
195 237
195 238
195 240
195 262
195 266
195 269
196 108
196 115
196 124
196 125
196 134
196 137
196 145
196 153
196 161
196 165
196 166
196 175
196 176
196 180
196 192
196 194
196 197
196 212
196 215
196 221
196 222
196 235
196 236
196 244
196 247
196 258
196 265
196 268
196 276
197 107
197 115
197 124
197 130
197 135
197 145
197 148
197 149
197 166
197 175
197 176
197 180
197 183
197 196
197 210
197 212
197 213
197 221
197 234
197 239
197 247
197 253
197 258
197 265
197 277
197 283
198 104
198 122
198 127
198 142
198 150
198 152
198 154
198 156
198 162
198 174
198 184
198 185
198 193
198 195
198 204
198 207
198 209
198 211
198 229
198 232
198 233
198 238
198 240
198 262
198 263
198 266
198 269
199 112
199 119
199 126
199 131
199 138
199 154
199 156
199 158
199 164
199 167
199 168
199 173
199 181
199 184
199 189
199 190
199 208
199 209
199 211
199 216
199 220
199 226
199 231
199 237
199 238
199 245
199 254
199 255
199 271
199 272
199 274
200 109
200 136
200 139
200 140
200 147
200 150
200 157
200 163
200 169
200 171
200 174
200 182
200 187
200 188
200 193
200 202
200 204
200 207
200 214
200 227
200 230
200 232
200 242
200 248
200 259
200 260
200 270
200 278
201 116
201 128
201 133
201 143
201 147
201 151
201 155
201 159
201 172
201 177
201 186
201 188
201 191
201 205
201 218
201 219
201 224
201 225
201 228
201 241
201 243
201 250
201 251
201 256
201 257
201 267
201 284
201 286
202 109
202 136
202 140
202 147
202 157
202 163
202 169
202 171
202 174
202 182
202 187
202 188
202 200
202 204
202 207
202 214
202 218
202 227
202 230
202 232
202 242
202 248
202 251
202 259
202 260
202 270
202 278
203 114
203 123
203 132
203 141
203 143
203 144
203 155
203 160
203 170
203 172
203 178
203 179
203 186
203 192
203 205
203 206
203 217
203 219
203 223
203 228
203 243
203 246
203 249
203 252
203 257
203 279
203 282
203 287
204 117
204 136
204 139
204 142
204 150
204 157
204 163
204 171
204 174
204 185
204 187
204 193
204 198
204 200
204 202
204 207
204 214
204 230
204 232
204 233
204 240
204 242
204 248
204 260
204 263
204 270
204 280
205 113
205 114
205 123
205 128
205 143
205 144
205 155
205 159
205 172
205 177
205 178
205 179
205 186
205 191
205 201
205 203
205 217
205 219
205 224
205 225
205 228
205 241
205 243
205 249
205 250
205 257
205 267
205 282
205 284
205 289
206 120
206 132
206 141
206 144
206 146
206 153
206 160
206 165
206 170
206 178
206 179
206 192
206 194
206 203
206 215
206 217
206 219
206 222
206 223
206 236
206 243
206 244
206 246
206 249
206 252
206 264
206 273
206 287
206 288
207 117
207 139
207 142
207 150
207 152
207 157
207 171
207 174
207 185
207 187
207 193
207 195
207 198
207 200
207 202
207 204
207 230
207 232
207 233
207 240
207 242
207 260
207 263
207 269
207 280
207 301
208 119
208 129
208 138
208 158
208 164
208 167
208 168
208 173
208 181
208 189
208 190
208 199
208 216
208 220
208 226
208 231
208 237
208 245
208 254
208 255
208 261
208 272
208 281
208 299
209 122
209 127
209 131
209 152
209 154
209 156
209 162
209 164
209 173
209 184
209 185
209 190
209 195
209 198
209 199
209 211
209 216
209 229
209 233
209 237
209 238
209 262
209 266
209 269
209 271
209 274
209 291
210 130
210 135
210 148
210 149
210 176
210 183
210 197
210 213
210 221
210 234
210 239
210 247
210 253
210 277
211 122
211 126
211 131
211 154
211 156
211 162
211 164
211 168
211 173
211 184
211 189
211 190
211 195
211 198
211 199
211 209
211 216
211 220
211 229
211 237
211 238
211 245
211 254
211 262
211 266
211 271
211 272
211 274
211 291
211 300
212 115
212 124
212 137
212 145
212 148
212 161
212 166
212 175
212 176
212 180
212 194
212 196
212 197
212 215
212 221
212 222
212 234
212 235
212 244
212 247
212 253
212 258
212 265
212 268
212 276
212 283
212 285
212 293
212 294
213 130
213 135
213 148
213 149
213 176
213 180
213 183
213 197
213 210
213 221
213 234
213 239
213 247
213 253
213 265
213 277
213 283
214 136
214 140
214 147
214 151
214 163
214 169
214 171
214 182
214 187
214 188
214 191
214 200
214 202
214 204
214 218
214 225
214 227
214 230
214 232
214 242
214 248
214 250
214 251
214 256
214 259
214 270
214 275
214 278
214 297
214 298
215 121
215 125
215 134
215 146
215 153
215 160
215 161
215 165
215 166
215 170
215 192
215 194
215 196
215 206
215 212
215 217
215 222
215 223
215 235
215 236
215 244
215 246
215 252
215 264
215 268
215 273
215 276
215 288
215 290
216 126
216 131
216 138
216 154
216 156
216 164
216 167
216 168
216 173
216 184
216 189
216 190
216 199
216 208
216 209
216 211
216 220
216 229
216 231
216 237
216 238
216 245
216 254
216 255
216 266
216 271
216 272
216 274
216 299
216 300
216 304
217 132
217 141
217 144
217 146
217 155
217 160
217 170
217 178
217 179
217 186
217 192
217 203
217 205
217 206
217 215
217 219
217 223
217 228
217 236
217 243
217 246
217 249
217 252
217 257
217 273
217 279
217 282
217 287
217 288
218 133
218 147
218 151
218 159
218 163
218 169
218 177
218 182
218 188
218 191
218 201
218 202
218 214
218 224
218 225
218 227
218 241
218 248
218 250
218 251
218 256
218 259
218 267
218 275
218 278
218 286
218 296
218 298
218 307
219 141
219 143
219 144
219 155
219 172
219 177
219 178
219 179
219 186
219 201
219 203
219 205
219 206
219 217
219 224
219 228
219 241
219 243
219 249
219 252
219 257
219 279
219 282
219 284
219 287
219 289
220 138
220 158
220 164
220 167
220 168
220 173
220 181
220 189
220 190
220 199
220 208
220 211
220 216
220 226
220 231
220 237
220 238
220 245
220 254
220 255
220 261
220 271
220 272
220 274
220 281
220 299
221 124
221 145
221 148
221 166
221 175
221 176
221 180
221 183
221 196
221 197
221 210
221 212
221 213
221 222
221 234
221 235
221 239
221 244
221 247
221 253
221 258
221 265
221 268
221 277
221 283
221 285
221 293
222 125
222 134
222 137
222 146
222 153
222 161
222 165
222 166
222 170
222 175
222 192
222 194
222 196
222 206
222 212
222 215
222 221
222 223
222 235
222 236
222 244
222 246
222 258
222 264
222 268
222 273
222 276
222 285
222 290
222 294
223 132
223 146
223 153
223 160
223 161
223 165
223 170
223 179
223 192
223 194
223 203
223 206
223 215
223 217
223 222
223 235
223 236
223 244
223 246
223 249
223 252
223 264
223 273
223 276
223 287
223 288
223 290
223 309
224 128
224 133
224 143
224 151
224 159
224 172
224 177
224 186
224 188
224 191
224 201
224 205
224 218
224 219
224 225
224 228
224 241
224 243
224 250
224 251
224 256
224 257
224 267
224 275
224 284
224 286
224 289
224 296
225 133
225 147
225 151
225 159
225 169
225 172
225 177
225 182
225 186
225 188
225 191
225 201
225 205
225 214
225 218
225 224
225 227
225 228
225 241
225 250
225 251
225 256
225 257
225 259
225 267
225 275
225 284
225 286
225 296
225 307
226 158
226 167
226 168
226 181
226 189
226 199
226 208
226 220
226 231
226 245
226 254
226 255
226 261
226 272
226 281
226 299
226 303
226 305
227 140
227 147
227 151
227 163
227 169
227 171
227 182
227 188
227 191
227 200
227 202
227 214
227 218
227 225
227 230
227 242
227 248
227 250
227 251
227 256
227 259
227 267
227 270
227 275
227 278
227 296
227 297
227 298
227 307
228 143
228 155
228 159
228 172
228 177
228 178
228 179
228 186
228 191
228 201
228 203
228 205
228 217
228 219
228 224
228 225
228 241
228 243
228 249
228 250
228 257
228 267
228 279
228 282
228 284
228 286
228 289
229 152
229 154
229 156
229 162
229 164
229 184
229 185
229 190
229 195
229 198
229 209
229 211
229 216
229 233
229 237
229 238
229 240
229 262
229 266
229 269
229 271
229 274
229 291
229 292
229 295
229 300
229 308
229 315
230 139
230 157
230 163
230 171
230 174
230 182
230 187
230 193
230 200
230 202
230 204
230 207
230 214
230 227
230 232
230 240
230 242
230 248
230 259
230 260
230 263
230 270
230 278
230 280
230 297
230 301
230 302
230 312
231 158
231 167
231 168
231 173
231 181
231 189
231 199
231 208
231 216
231 220
231 226
231 237
231 245
231 254
231 255
231 261
231 272
231 274
231 281
231 299
231 303
231 305
231 310
232 139
232 150
232 157
232 171
232 174
232 185
232 187
232 193
232 198
232 200
232 202
232 204
232 207
232 214
232 230
232 233
232 240
232 242
232 248
232 260
232 263
232 269
232 270
232 278
232 280
232 297
232 301
232 302
232 311
232 312
233 142
233 152
233 162
233 174
233 184
233 185
233 193
233 195
233 198
233 204
233 207
233 209
233 229
233 232
233 238
233 240
233 260
233 262
233 263
233 266
233 269
233 280
233 291
233 292
233 295
233 301
233 311
233 322
234 148
234 149
234 175
234 176
234 180
234 183
234 197
234 210
234 212
234 213
234 221
234 239
234 247
234 253
234 258
234 265
234 277
234 283
234 285
234 293
234 306
234 314
234 324
235 161
235 165
235 166
235 175
235 180
235 194
235 196
235 212
235 215
235 221
235 222
235 223
235 236
235 244
235 246
235 247
235 258
235 264
235 265
235 268
235 276
235 285
235 290
235 293
235 294
235 320
235 327
236 153
236 161
236 165
236 170
236 192
236 194
236 196
236 206
236 215
236 217
236 222
236 223
236 235
236 244
236 246
236 252
236 258
236 264
236 268
236 273
236 276
236 288
236 290
236 294
236 309
236 320
237 156
237 164
237 168
237 173
237 184
237 189
237 190
237 195
237 199
237 208
237 209
237 211
237 216
237 220
237 229
237 231
237 238
237 245
237 254
237 255
237 262
237 266
237 271
237 272
237 274
237 281
237 291
237 299
237 300
237 304
237 308
237 313
237 328
238 154
238 156
238 162
238 164
238 173
238 184
238 190
238 195
238 198
238 199
238 209
238 211
238 216
238 220
238 229
238 233
238 237
238 245
238 254
238 262
238 266
238 269
238 271
238 272
238 274
238 291
238 295
238 300
238 304
238 308
238 315
238 328
239 149
239 176
239 180
239 183
239 197
239 210
239 213
239 221
239 234
239 247
239 253
239 265
239 277
239 283
239 293
239 306
239 314
240 150
240 174
240 185
240 187
240 193
240 195
240 198
240 204
240 207
240 229
240 230
240 232
240 233
240 242
240 260
240 262
240 263
240 269
240 270
240 280
240 292
240 295
240 301
240 302
240 311
240 312
240 322
241 159
241 172
241 177
241 186
241 188
241 191
241 201
241 205
241 218
241 219
241 224
241 225
241 228
241 243
241 250
241 251
241 256
241 257
241 267
241 275
241 282
241 284
241 286
241 289
241 296
241 307
241 316
241 318
241 331
242 157
242 163
242 171
242 174
242 182
242 187
242 193
242 200
242 202
242 204
242 207
242 214
242 227
242 230
242 232
242 240
242 248
242 251
242 259
242 260
242 263
242 270
242 275
242 278
242 280
242 297
242 298
242 301
242 302
242 312
242 325
243 155
243 172
243 178
243 179
243 186
243 201
243 203
243 205
243 206
243 217
243 219
243 224
243 228
243 241
243 249
243 252
243 257
243 267
243 279
243 282
243 284
243 286
243 287
243 289
243 317
243 323
244 161
244 165
244 166
244 192
244 194
244 196
244 206
244 212
244 215
244 221
244 222
244 223
244 235
244 236
244 246
244 258
244 264
244 265
244 268
244 273
244 276
244 285
244 290
244 294
244 309
244 320
244 327
245 164
245 167
245 168
245 173
245 189
245 190
245 199
245 208
245 211
245 216
245 220
245 226
245 231
245 237
245 238
245 254
245 255
245 261
245 266
245 271
245 272
245 274
245 281
245 299
245 300
245 303
245 304
245 310
245 313
246 160
246 165
246 170
246 179
246 192
246 194
246 203
246 206
246 215
246 217
246 222
246 223
246 235
246 236
246 244
246 249
246 252
246 264
246 273
246 276
246 279
246 287
246 288
246 290
246 309
246 319
246 330
246 333
247 175
247 176
247 180
247 183
247 196
247 197
247 210
247 212
247 213
247 221
247 234
247 235
247 239
247 253
247 258
247 265
247 268
247 277
247 283
247 285
247 293
247 294
247 306
247 314
247 324
248 163
248 169
248 171
248 182
248 187
248 188
248 200
248 202
248 204
248 214
248 218
248 227
248 230
248 232
248 242
248 251
248 256
248 259
248 260
248 270
248 275
248 278
248 297
248 298
248 302
248 325
248 326
248 336
249 178
249 179
249 186
249 192
249 203
249 205
249 206
249 217
249 219
249 223
249 228
249 243
249 246
249 252
249 257
249 273
249 279
249 282
249 287
249 288
249 289
249 317
249 319
249 323
249 339
250 159
250 177
250 188
250 191
250 201
250 205
250 214
250 218
250 224
250 225
250 227
250 228
250 241
250 251
250 256
250 257
250 259
250 267
250 275
250 284
250 286
250 289
250 296
250 298
250 307
250 316
250 318
250 331
251 169
251 182
251 188
251 191
251 201
251 202
251 214
251 218
251 224
251 225
251 227
251 241
251 242
251 248
251 250
251 256
251 259
251 267
251 270
251 275
251 278
251 286
251 296
251 297
251 298
251 307
251 318
251 326
252 160
252 170
252 178
252 179
252 192
252 203
252 206
252 215
252 217
252 219
252 223
252 236
252 243
252 246
252 249
252 264
252 273
252 279
252 282
252 287
252 288
252 290
252 309
252 319
252 323
252 330
253 176
253 180
253 183
253 197
253 210
253 212
253 213
253 221
253 234
253 239
253 247
253 258
253 265
253 277
253 283
253 285
253 293
253 306
253 314
253 324
253 337
254 167
254 168
254 173
254 181
254 189
254 190
254 199
254 208
254 211
254 216
254 220
254 226
254 231
254 237
254 238
254 245
254 255
254 261
254 271
254 272
254 274
254 281
254 299
254 300
254 303
254 304
254 305
254 310
254 313
255 167
255 181
255 189
255 199
255 208
255 216
255 220
255 226
255 231
255 237
255 245
255 254
255 261
255 272
255 274
255 281
255 299
255 303
255 305
255 310
255 313
255 321
255 334
256 188
256 191
256 201
256 214
256 218
256 224
256 225
256 227
256 241
256 248
256 250
256 251
256 257
256 259
256 267
256 275
256 278
256 284
256 286
256 296
256 298
256 307
256 316
256 318
256 326
256 331
256 345
257 172
257 186
257 201
257 203
257 205
257 217
257 219
257 224
257 225
257 228
257 241
257 243
257 249
257 250
257 256
257 267
257 279
257 282
257 284
257 286
257 287
257 289
257 316
257 317
257 318
257 323
257 331
257 332
258 175
258 180
258 194
258 196
258 197
258 212
258 221
258 222
258 234
258 235
258 236
258 244
258 247
258 253
258 264
258 265
258 268
258 276
258 283
258 285
258 290
258 293
258 294
258 314
258 320
258 324
258 327
258 329
259 169
259 182
259 188
259 200
259 202
259 214
259 218
259 225
259 227
259 230
259 242
259 248
259 250
259 251
259 256
259 260
259 270
259 275
259 278
259 296
259 297
259 298
259 302
259 307
259 325
259 326
259 336
259 338
260 174
260 187
260 193
260 200
260 202
260 204
260 207
260 230
260 232
260 233
260 240
260 242
260 248
260 259
260 263
260 269
260 270
260 278
260 280
260 292
260 297
260 301
260 302
260 311
260 312
260 325
260 341
260 350
261 181
261 189
261 208
261 220
261 226
261 231
261 245
261 254
261 255
261 272
261 281
261 299
261 303
261 305
261 310
261 313
261 321
261 334
262 184
262 195
262 198
262 209
262 211
262 229
262 233
262 237
262 238
262 240
262 263
262 266
262 269
262 271
262 274
262 280
262 291
262 292
262 295
262 300
262 304
262 308
262 311
262 315
262 322
262 328
262 340
262 342
262 349
263 174
263 185
263 187
263 193
263 198
263 204
263 207
263 230
263 232
263 233
263 240
263 242
263 260
263 262
263 269
263 270
263 280
263 292
263 295
263 301
263 302
263 311
263 312
263 322
263 341
264 192
264 194
264 206
264 215
264 222
264 223
264 235
264 236
264 244
264 246
264 252
264 258
264 268
264 273
264 276
264 285
264 287
264 288
264 290
264 294
264 309
264 320
264 327
264 330
264 333
264 351
265 180
265 196
265 197
265 212
265 213
265 221
265 234
265 235
265 239
265 244
265 247
265 253
265 258
265 268
265 276
265 277
265 283
265 285
265 293
265 294
265 306
265 314
265 324
265 327
265 329
265 344
265 348
266 184
266 190
266 195
266 198
266 209
266 211
266 216
266 229
266 233
266 237
266 238
266 245
266 262
266 269
266 271
266 274
266 291
266 292
266 295
266 300
266 304
266 308
266 315
266 322
266 328
266 335
266 340
266 349
267 177
267 188
267 191
267 201
267 205
267 218
267 224
267 225
267 227
267 228
267 241
267 243
267 250
267 251
267 256
267 257
267 275
267 282
267 284
267 286
267 289
267 296
267 298
267 307
267 316
267 318
267 331
267 332
268 194
268 196
268 212
268 215
268 221
268 222
268 235
268 236
268 244
268 247
268 258
268 264
268 265
268 276
268 283
268 285
268 290
268 293
268 294
268 320
268 324
268 327
268 329
268 346
269 185
269 193
269 195
269 198
269 207
269 209
269 229
269 232
269 233
269 238
269 240
269 260
269 262
269 263
269 266
269 280
269 291
269 292
269 295
269 301
269 302
269 308
269 311
269 312
269 315
269 322
269 340
269 341
269 342
269 354
270 187
270 200
270 202
270 204
270 214
270 227
270 230
270 232
270 240
270 242
270 248
270 251
270 259
270 260
270 263
270 275
270 278
270 280
270 297
270 298
270 301
270 302
270 312
270 325
270 326
270 336
270 338
270 350
271 190
271 199
271 209
271 211
271 216
271 220
271 229
271 237
271 238
271 245
271 254
271 262
271 266
271 272
271 274
271 291
271 295
271 299
271 300
271 304
271 308
271 313
271 315
271 328
271 335
271 340
272 189
272 199
272 208
272 211
272 216
272 220
272 226
272 231
272 237
272 238
272 245
272 254
272 255
272 261
272 271
272 274
272 281
272 299
272 300
272 303
272 304
272 305
272 310
272 313
272 321
272 328
272 334
272 335
272 343
272 347
273 192
273 206
273 215
273 217
273 222
273 223
273 236
273 244
273 246
273 249
273 252
273 264
273 276
273 279
273 287
273 288
273 290
273 309
273 319
273 320
273 323
273 330
273 333
273 339
273 353
273 358
274 190
274 199
274 209
274 211
274 216
274 220
274 229
274 231
274 237
274 238
274 245
274 254
274 255
274 262
274 266
274 271
274 272
274 281
274 291
274 299
274 300
274 303
274 304
274 308
274 310
274 313
274 315
274 328
274 335
274 343
275 188
275 214
275 218
275 224
275 225
275 227
275 241
275 242
275 248
275 250
275 251
275 256
275 259
275 267
275 270
275 278
275 284
275 286
275 296
275 297
275 298
275 307
275 318
275 325
275 326
275 331
275 336
275 338
275 345
275 361
276 194
276 196
276 212
276 215
276 222
276 223
276 235
276 236
276 244
276 246
276 258
276 264
276 265
276 268
276 273
276 285
276 288
276 290
276 293
276 294
276 309
276 320
276 327
276 329
276 333
276 346
276 351
277 197
277 210
277 213
277 221
277 234
277 239
277 247
277 253
277 265
277 283
277 293
277 306
277 314
277 324
277 337
277 344
277 348
277 364
278 200
278 202
278 214
278 218
278 227
278 230
278 232
278 242
278 248
278 251
278 256
278 259
278 260
278 270
278 275
278 296
278 297
278 298
278 302
278 307
278 312
278 325
278 326
278 336
278 338
278 345
278 360
278 361
278 362
279 203
279 217
279 219
279 228
279 243
279 246
279 249
279 252
279 257
279 273
279 282
279 284
279 287
279 288
279 289
279 309
279 316
279 317
279 319
279 323
279 330
279 332
279 339
279 352
279 355
280 193
280 204
280 207
280 230
280 232
280 233
280 240
280 242
280 260
280 262
280 263
280 269
280 270
280 291
280 292
280 295
280 301
280 302
280 311
280 312
280 322
280 341
280 342
280 350
280 354
280 373
281 208
281 220
281 226
281 231
281 237
281 245
281 254
281 255
281 261
281 272
281 274
281 299
281 303
281 304
281 305
281 310
281 313
281 321
281 334
281 343
281 347
281 365
281 366
282 203
282 205
282 217
282 219
282 228
282 241
282 243
282 249
282 252
282 257
282 267
282 279
282 284
282 286
282 287
282 288
282 289
282 316
282 317
282 319
282 323
282 331
282 332
282 339
282 352
282 355
282 357
283 197
283 212
283 213
283 221
283 234
283 239
283 247
283 253
283 258
283 265
283 268
283 277
283 285
283 293
283 294
283 306
283 314
283 324
283 329
283 337
283 344
283 348
283 364
283 374
283 375
284 201
284 205
284 219
284 224
284 225
284 228
284 241
284 243
284 250
284 256
284 257
284 267
284 275
284 279
284 282
284 286
284 289
284 296
284 307
284 316
284 317
284 318
284 323
284 331
284 332
284 352
284 356
284 357
284 363
284 368
285 212
285 221
285 222
285 234
285 235
285 244
285 247
285 253
285 258
285 264
285 265
285 268
285 276
285 283
285 290
285 293
285 294
285 314
285 320
285 324
285 327
285 329
285 344
285 346
285 348
285 359
286 201
286 218
286 224
286 225
286 228
286 241
286 243
286 250
286 251
286 256
286 257
286 267
286 275
286 282
286 284
286 289
286 296
286 298
286 307
286 316
286 317
286 318
286 326
286 331
286 332
286 345
286 356
286 357
286 363
286 368
287 203
287 206
287 217
287 219
287 223
287 243
287 246
287 249
287 252
287 257
287 264
287 273
287 279
287 282
287 288
287 289
287 290
287 309
287 317
287 319
287 323
287 330
287 333
287 339
287 352
287 353
287 355
287 369
287 376
288 206
288 215
288 217
288 223
288 236
288 246
288 249
288 252
288 264
288 273
288 276
288 279
288 282
288 287
288 290
288 309
288 317
288 319
288 320
288 323
288 330
288 333
288 339
288 351
288 353
288 355
288 358
288 369
289 205
289 219
289 224
289 228
289 241
289 243
289 249
289 250
289 257
289 267
289 279
289 282
289 284
289 286
289 287
289 296
289 316
289 317
289 318
289 319
289 323
289 331
289 332
289 339
289 352
289 356
289 357
289 368
289 380
290 215
290 222
290 223
290 235
290 236
290 244
290 246
290 252
290 258
290 264
290 268
290 273
290 276
290 285
290 287
290 288
290 294
290 309
290 319
290 320
290 327
290 330
290 333
290 346
290 351
290 353
290 358
291 209
291 211
291 229
291 233
291 237
291 238
291 262
291 266
291 269
291 271
291 274
291 280
291 292
291 295
291 300
291 304
291 308
291 311
291 315
291 322
291 328
291 335
291 340
291 342
291 349
291 367
291 378
292 229
292 233
292 240
292 260
292 262
292 263
292 266
292 269
292 280
292 291
292 295
292 301
292 302
292 308
292 311
292 312
292 315
292 322
292 340
292 341
292 342
292 349
292 354
293 212
293 221
293 234
293 235
293 239
293 247
293 253
293 258
293 265
293 268
293 276
293 277
293 283
293 285
293 294
293 306
293 314
293 324
293 327
293 329
293 337
293 344
293 346
293 348
293 359
293 374
293 375
294 212
294 222
294 235
294 236
294 244
294 247
294 258
294 264
294 265
294 268
294 276
294 283
294 285
294 290
294 293
294 309
294 320
294 324
294 327
294 329
294 333
294 344
294 346
294 351
294 359
294 381
295 229
295 233
295 238
295 240
295 262
295 263
295 266
295 269
295 271
295 280
295 291
295 292
295 300
295 301
295 304
295 308
295 311
295 315
295 322
295 328
295 340
295 341
295 342
295 349
295 354
295 378
296 218
296 224
296 225
296 227
296 241
296 250
296 251
296 256
296 259
296 267
296 275
296 278
296 284
296 286
296 289
296 297
296 298
296 307
296 316
296 318
296 326
296 331
296 338
296 345
296 356
296 361
296 362
296 363
296 368
296 379
297 214
297 227
297 230
297 232
297 242
297 248
297 251
297 259
297 260
297 270
297 275
297 278
297 296
297 298
297 301
297 302
297 307
297 312
297 325
297 326
297 336
297 338
297 350
297 360
297 361
297 362
298 214
298 218
298 227
298 242
298 248
298 250
298 251
298 256
298 259
298 267
298 270
298 275
298 278
298 286
298 296
298 297
298 302
298 307
298 318
298 325
298 326
298 336
298 338
298 345
298 360
298 361
298 362
298 363
298 379
299 208
299 216
299 220
299 226
299 231
299 237
299 245
299 254
299 255
299 261
299 271
299 272
299 274
299 281
299 300
299 303
299 304
299 305
299 310
299 313
299 321
299 328
299 334
299 335
299 343
299 347
299 366
299 371
299 377
300 211
300 216
300 229
300 237
300 238
300 245
300 254
300 262
300 266
300 271
300 272
300 274
300 291
300 295
300 299
300 304
300 308
300 313
300 315
300 328
300 335
300 340
300 343
300 349
300 367
300 370
300 371
301 207
301 230
301 232
301 233
301 240
301 242
301 260
301 263
301 269
301 270
301 280
301 292
301 295
301 297
301 302
301 311
301 312
301 322
301 325
301 341
301 342
301 350
301 354
301 372
301 373
302 230
302 232
302 240
302 242
302 248
302 259
302 260
302 263
302 269
302 270
302 278
302 280
302 292
302 297
302 298
302 301
302 311
302 312
302 322
302 325
302 336
302 338
302 341
302 350
302 354
302 360
302 372
302 373
302 383
303 226
303 231
303 245
303 254
303 255
303 261
303 272
303 274
303 281
303 299
303 304
303 305
303 310
303 313
303 321
303 334
303 343
303 347
303 365
303 366
303 371
303 377
304 216
304 237
304 238
304 245
304 254
304 262
304 266
304 271
304 272
304 274
304 281
304 291
304 295
304 299
304 300
304 303
304 308
304 310
304 313
304 315
304 328
304 335
304 340
304 343
304 347
304 349
304 367
304 370
304 371
305 226
305 231
305 254
305 255
305 261
305 272
305 281
305 299
305 303
305 310
305 313
305 321
305 334
305 343
305 347
305 365
305 366
305 377
305 392
306 234
306 239
306 247
306 253
306 265
306 277
306 283
306 293
306 314
306 324
306 337
306 344
306 348
306 364
306 374
306 375
306 382
306 390
307 218
307 225
307 227
307 241
307 250
307 251
307 256
307 259
307 267
307 275
307 278
307 284
307 286
307 296
307 297
307 298
307 316
307 318
307 325
307 326
307 331
307 336
307 338
307 345
307 356
307 361
307 362
307 363
307 368
307 379
308 229
308 237
308 238
308 262
308 266
308 269
308 271
308 274
308 291
308 292
308 295
308 300
308 304
308 313
308 315
308 322
308 328
308 335
308 340
308 342
308 343
308 349
308 367
308 370
308 378
308 395
309 223
309 236
309 244
309 246
309 252
309 264
309 273
309 276
309 279
309 287
309 288
309 290
309 294
309 319
309 320
309 323
309 327
309 330
309 333
309 339
309 346
309 351
309 353
309 355
309 358
309 369
309 386
309 388
310 231
310 245
310 254
310 255
310 261
310 272
310 274
310 281
310 299
310 303
310 304
310 305
310 313
310 321
310 334
310 335
310 343
310 347
310 365
310 366
310 371
310 377
310 392
310 399
311 232
311 233
311 240
311 260
311 262
311 263
311 269
311 280
311 291
311 292
311 295
311 301
311 302
311 312
311 315
311 322
311 325
311 340
311 341
311 342
311 350
311 354
311 372
311 373
311 383
311 385
311 387
311 403
312 230
312 232
312 240
312 242
312 260
312 263
312 269
312 270
312 278
312 280
312 292
312 297
312 301
312 302
312 311
312 322
312 325
312 336
312 338
312 341
312 350
312 354
312 360
312 372
312 373
312 383
313 237
313 245
313 254
313 255
313 261
313 271
313 272
313 274
313 281
313 299
313 300
313 303
313 304
313 305
313 308
313 310
313 321
313 328
313 334
313 335
313 343
313 347
313 366
313 367
313 370
313 371
313 377
313 394
314 234
314 239
314 247
314 253
314 258
314 265
314 277
314 283
314 285
314 293
314 306
314 324
314 329
314 337
314 344
314 348
314 359
314 364
314 374
314 375
314 382
314 390
314 397
315 229
315 238
315 262
315 266
315 269
315 271
315 274
315 291
315 292
315 295
315 300
315 304
315 308
315 311
315 322
315 328
315 335
315 340
315 342
315 349
315 354
315 367
315 370
315 378
315 385
315 395
316 241
316 250
316 256
316 257
316 267
316 279
316 282
316 284
316 286
316 289
316 296
316 307
316 317
316 318
316 323
316 331
316 332
316 345
316 352
316 356
316 357
316 363
316 368
316 380
316 384
316 400
317 243
317 249
317 257
317 279
317 282
317 284
317 286
317 287
317 288
317 289
317 316
317 318
317 319
317 323
317 330
317 331
317 332
317 339
317 352
317 355
317 356
317 357
317 368
317 369
317 376
317 380
317 384
317 401
318 241
318 250
318 251
318 256
318 257
318 267
318 275
318 284
318 286
318 289
318 296
318 298
318 307
318 316
318 317
318 326
318 331
318 332
318 338
318 345
318 356
318 357
318 361
318 363
318 368
318 379
318 384
318 400
318 404
319 246
319 249
319 252
319 273
319 279
319 282
319 287
319 288
319 289
319 290
319 309
319 317
319 323
319 330
319 332
319 333
319 339
319 352
319 353
319 355
319 357
319 358
319 369
319 376
319 380
319 396
319 401
319 405
320 235
320 236
320 244
320 258
320 264
320 268
320 273
320 276
320 285
320 288
320 290
320 294
320 309
320 327
320 329
320 330
320 333
320 346
320 351
320 353
320 358
320 359
320 369
320 381
320 386
320 388
321 255
321 261
321 272
321 281
321 299
321 303
321 305
321 310
321 313
321 334
321 343
321 347
321 365
321 366
321 377
321 392
321 399
322 233
322 240
322 262
322 263
322 266
322 269
322 280
322 291
322 292
322 295
322 301
322 302
322 308
322 311
322 312
322 315
322 328
322 340
322 341
322 342
322 349
322 354
322 372
322 373
322 378
322 385
322 387
322 408
323 243
323 249
323 252
323 257
323 273
323 279
323 282
323 284
323 287
323 288
323 289
323 309
323 316
323 317
323 319
323 330
323 332
323 339
323 352
323 353
323 355
323 357
323 369
323 376
323 380
323 384
323 396
323 401
324 234
324 247
324 253
324 258
324 265
324 268
324 277
324 283
324 285
324 293
324 294
324 306
324 314
324 327
324 329
324 337
324 344
324 346
324 348
324 359
324 364
324 374
324 375
324 381
324 389
324 390
324 397
324 402
325 242
325 248
325 259
325 260
325 270
325 275
325 278
325 297
325 298
325 301
325 302
325 307
325 311
325 312
325 326
325 336
325 338
325 341
325 345
325 350
325 360
325 361
325 362
325 372
325 383
325 391
325 393
325 410
326 248
326 251
326 256
326 259
326 270
326 275
326 278
326 286
326 296
326 297
326 298
326 307
326 318
326 325
326 331
326 336
326 338
326 345
326 350
326 356
326 360
326 361
326 362
326 363
326 379
326 391
326 393
327 235
327 244
327 258
327 264
327 265
327 268
327 276
327 285
327 290
327 293
327 294
327 309
327 320
327 324
327 329
327 333
327 344
327 346
327 351
327 358
327 359
327 381
327 386
327 388
327 389
327 414
328 237
328 238
328 262
328 266
328 271
328 272
328 274
328 291
328 295
328 299
328 300
328 304
328 308
328 313
328 315
328 322
328 335
328 340
328 342
328 343
328 349
328 367
328 370
328 371
328 378
328 394
328 395
328 398
329 258
329 265
329 268
329 276
329 283
329 285
329 293
329 294
329 314
329 320
329 324
329 327
329 344
329 346
329 348
329 351
329 359
329 374
329 375
329 381
329 389
329 402
329 414
330 246
330 252
330 264
330 273
330 279
330 287
330 288
330 290
330 309
330 317
330 319
330 320
330 323
330 333
330 339
330 351
330 352
330 353
330 355
330 358
330 369
330 376
330 386
330 388
330 396
330 405
330 407
330 412
331 241
331 250
331 256
331 257
331 267
331 275
331 282
331 284
331 286
331 289
331 296
331 307
331 316
331 317
331 318
331 326
331 332
331 345
331 352
331 356
331 357
331 361
331 363
331 368
331 379
331 380
331 384
331 400
331 404
331 409
331 419
332 257
332 267
332 279
332 282
332 284
332 286
332 289
332 316
332 317
332 318
332 319
332 323
332 331
332 339
332 352
332 355
332 356
332 357
332 363
332 368
332 376
332 380
332 384
332 400
332 401
332 409
333 246
333 264
333 273
333 276
333 287
333 288
333 290
333 294
333 309
333 319
333 320
333 327
333 330
333 339
333 346
333 351
333 353
333 355
333 358
333 369
333 381
333 386
333 388
333 405
333 407
333 412
333 417
334 255
334 261
334 272
334 281
334 299
334 303
334 305
334 310
334 313
334 321
334 343
334 347
334 365
334 366
334 371
334 377
334 392
334 399
334 406
335 266
335 271
335 272
335 274
335 291
335 299
335 300
335 304
335 308
335 310
335 313
335 315
335 328
335 340
335 343
335 347
335 349
335 367
335 370
335 371
335 377
335 378
335 394
335 395
335 398
336 248
336 259
336 270
336 275
336 278
336 297
336 298
336 302
336 307
336 312
336 325
336 326
336 338
336 345
336 350
336 360
336 361
336 362
336 372
336 379
336 383
336 391
336 393
336 410
337 253
337 277
337 283
337 293
337 306
337 314
337 324
337 344
337 348
337 364
337 374
337 375
337 382
337 390
337 397
337 413
337 425
338 259
338 270
338 275
338 278
338 296
338 297
338 298
338 302
338 307
338 312
338 318
338 325
338 326
338 336
338 345
338 350
338 360
338 361
338 362
338 363
338 379
338 391
338 393
338 410
338 424
339 249
339 273
339 279
339 282
339 287
339 288
339 289
339 309
339 317
339 319
339 323
339 330
339 332
339 333
339 352
339 353
339 355
339 357
339 358
339 369
339 376
339 380
339 384
339 396
339 401
339 405
339 407
339 423
340 262
340 266
340 269
340 271
340 291
340 292
340 295
340 300
340 304
340 308
340 311
340 315
340 322
340 328
340 335
340 341
340 342
340 349
340 354
340 367
340 370
340 373
340 378
340 385
340 387
340 395
340 408
340 415
340 418
341 260
341 263
341 269
341 280
341 292
341 295
341 301
341 302
341 311
341 312
341 322
341 325
341 340
341 342
341 350
341 354
341 360
341 372
341 373
341 383
341 385
341 387
341 403
341 408
341 411
341 432
342 262
342 269
342 280
342 291
342 292
342 295
342 301
342 308
342 311
342 315
342 322
342 328
342 340
342 341
342 349
342 354
342 367
342 372
342 373
342 378
342 385
342 387
342 395
342 403
342 408
342 415
342 418
343 272
343 274
343 281
343 299
343 300
343 303
343 304
343 305
343 308
343 310
343 313
343 321
343 328
343 334
343 335
343 347
343 365
343 366
343 367
343 370
343 371
343 377
343 392
343 394
343 395
343 398
343 399
343 406
343 422
343 429
344 265
344 277
344 283
344 285
344 293
344 294
344 306
344 314
344 324
344 327
344 329
344 337
344 346
344 348
344 359
344 364
344 374
344 375
344 381
344 382
344 389
344 390
344 397
344 402
344 414
344 420
344 431
345 256
345 275
345 278
345 286
345 296
345 298
345 307
345 316
345 318
345 325
345 326
345 331
345 336
345 338
345 356
345 360
345 361
345 362
345 363
345 368
345 379
345 391
345 393
345 400
345 404
345 416
345 419
345 424
345 430
345 433
346 268
346 276
346 285
346 290
346 293
346 294
346 309
346 320
346 324
346 327
346 329
346 333
346 344
346 351
346 358
346 359
346 375
346 381
346 386
346 388
346 389
346 402
346 412
346 414
346 417
346 420
347 272
347 281
347 299
347 303
347 304
347 305
347 310
347 313
347 321
347 334
347 335
347 343
347 365
347 366
347 370
347 371
347 377
347 392
347 394
347 399
347 406
347 422
347 428
347 429
348 265
348 277
348 283
348 285
348 293
348 306
348 314
348 324
348 329
348 337
348 344
348 359
348 364
348 374
348 375
348 381
348 382
348 389
348 390
348 397
348 402
348 413
348 420
348 425
348 431
349 262
349 266
349 291
349 292
349 295
349 300
349 304
349 308
349 315
349 322
349 328
349 335
349 340
349 342
349 354
349 367
349 370
349 378
349 385
349 387
349 395
349 398
349 408
349 415
349 418
349 427
349 438
350 260
350 270
350 280
350 297
350 301
350 302
350 311
350 312
350 325
350 326
350 336
350 338
350 341
350 354
350 360
350 362
350 372
350 373
350 383
350 387
350 391
350 393
350 403
350 410
350 411
350 421
350 432
350 439
351 264
351 276
351 288
351 290
351 294
351 309
351 320
351 327
351 329
351 330
351 333
351 346
351 353
351 358
351 359
351 369
351 381
351 386
351 388
351 389
351 407
351 412
351 414
351 417
352 279
352 282
352 284
352 287
352 289
352 316
352 317
352 319
352 323
352 330
352 331
352 332
352 339
352 353
352 355
352 356
352 357
352 368
352 369
352 376
352 380
352 384
352 396
352 400
352 401
352 405
352 409
352 423
352 434
353 273
353 287
353 288
353 290
353 309
353 319
353 320
353 323
353 330
353 333
353 339
353 351
353 352
353 355
353 358
353 369
353 376
353 380
353 386
353 388
353 396
353 401
353 405
353 407
353 412
353 417
353 423
353 435
353 436
354 269
354 280
354 292
354 295
354 301
354 302
354 311
354 312
354 315
354 322
354 340
354 341
354 342
354 349
354 350
354 372
354 373
354 378
354 383
354 385
354 387
354 403
354 408
354 411
354 415
354 418
354 432
354 437
355 279
355 282
355 287
355 288
355 309
355 317
355 319
355 323
355 330
355 332
355 333
355 339
355 352
355 353
355 357
355 358
355 369
355 376
355 380
355 384
355 386
355 396
355 401
355 405
355 407
355 412
355 423
355 435
355 436
356 284
356 286
356 289
356 296
356 307
356 316
356 317
356 318
356 326
356 331
356 332
356 345
356 352
356 357
356 361
356 363
356 368
356 379
356 380
356 384
356 400
356 404
356 409
356 416
356 419
356 433
357 282
357 284
357 286
357 289
357 316
357 317
357 318
357 319
357 323
357 331
357 332
357 339
357 352
357 355
357 356
357 363
357 368
357 376
357 380
357 384
357 396
357 400
357 401
357 404
357 409
357 419
357 423
357 434
357 444
358 273
358 288
358 290
358 309
358 319
358 320
358 327
358 330
358 333
358 339
358 346
358 351
358 353
358 355
358 369
358 376
358 381
358 386
358 388
358 396
358 405
358 407
358 412
358 414
358 417
358 436
358 447
359 285
359 293
359 294
359 314
359 320
359 324
359 327
359 329
359 344
359 346
359 348
359 351
359 364
359 374
359 375
359 381
359 388
359 389
359 397
359 402
359 414
359 417
359 420
359 443
359 450
360 278
360 297
360 298
360 302
360 312
360 325
360 326
360 336
360 338
360 341
360 345
360 350
360 361
360 362
360 372
360 373
360 379
360 383
360 391
360 393
360 403
360 410
360 411
360 421
360 424
360 439
360 440
361 275
361 278
361 296
361 297
361 298
361 307
361 318
361 325
361 326
361 331
361 336
361 338
361 345
361 356
361 360
361 362
361 363
361 379
361 391
361 393
361 404
361 410
361 416
361 424
361 430
361 433
362 278
362 296
362 297
362 298
362 307
362 325
362 326
362 336
362 338
362 345
362 350
362 360
362 361
362 363
362 379
362 383
362 391
362 393
362 410
362 416
362 421
362 424
362 430
362 440
363 284
363 286
363 296
363 298
363 307
363 316
363 318
363 326
363 331
363 332
363 338
363 345
363 356
363 357
363 361
363 362
363 368
363 379
363 384
363 393
363 400
363 404
363 409
363 416
363 419
363 430
363 433
364 277
364 283
364 306
364 314
364 324
364 337
364 344
364 348
364 359
364 374
364 375
364 382
364 390
364 397
364 402
364 413
364 425
364 431
365 281
365 303
365 305
365 310
365 321
365 334
365 343
365 347
365 366
365 371
365 377
365 392
365 399
365 406
365 428
365 429
365 442
366 281
366 299
366 303
366 305
366 310
366 313
366 321
366 334
366 343
366 347
366 365
366 371
366 377
366 392
366 394
366 399
366 406
366 422
366 428
366 429
366 441
366 442
366 453
367 291
367 300
367 304
367 308
367 313
367 315
367 328
367 335
367 340
367 342
367 343
367 349
367 370
367 371
367 378
367 385
367 394
367 395
367 398
367 415
367 418
367 422
367 426
367 427
367 438
368 284
368 286
368 289
368 296
368 307
368 316
368 317
368 318
368 331
368 332
368 345
368 352
368 356
368 357
368 363
368 379
368 380
368 384
368 400
368 401
368 404
368 409
368 416
368 419
368 433
368 434
368 444
369 287
369 288
369 309
369 317
369 319
369 320
369 323
369 330
369 333
369 339
369 351
369 352
369 353
369 355
369 358
369 376
369 380
369 386
369 388
369 396
369 401
369 405
369 407
369 412
369 417
369 423
369 435
369 436
369 454
370 300
370 304
370 308
370 313
370 315
370 328
370 335
370 340
370 343
370 347
370 349
370 367
370 371
370 377
370 378
370 394
370 395
370 398
370 406
370 418
370 422
370 426
370 427
370 449
371 299
371 300
371 303
371 304
371 310
371 313
371 328
371 334
371 335
371 343
371 347
371 365
371 366
371 367
371 370
371 377
371 392
371 394
371 395
371 398
371 399
371 406
371 422
371 426
371 427
371 428
371 429
371 441
371 449
372 301
372 302
372 311
372 312
372 322
372 325
372 336
372 341
372 342
372 350
372 354
372 360
372 373
372 383
372 385
372 387
372 391
372 403
372 408
372 410
372 411
372 421
372 432
372 437
372 439
372 446
373 280
373 301
373 302
373 311
373 312
373 322
373 340
373 341
373 342
373 350
373 354
373 360
373 372
373 378
373 383
373 385
373 387
373 403
373 408
373 411
373 415
373 421
373 432
373 437
373 439
373 446
374 283
374 293
374 306
374 314
374 324
374 329
374 337
374 344
374 348
374 359
374 364
374 375
374 382
374 389
374 390
374 397
374 402
374 413
374 420
374 425
374 431
374 443
374 455
374 456
375 283
375 293
375 306
375 314
375 324
375 329
375 337
375 344
375 346
375 348
375 359
375 364
375 374
375 381
375 382
375 389
375 390
375 397
375 402
375 413
375 414
375 420
375 425
375 431
375 443
375 450
375 456
376 287
376 317
376 319
376 323
376 330
376 332
376 339
376 352
376 353
376 355
376 357
376 358
376 369
376 380
376 384
376 386
376 396
376 401
376 405
376 407
376 409
376 412
376 423
376 434
376 435
376 436
376 448
376 463
377 299
377 303
377 305
377 310
377 313
377 321
377 334
377 335
377 343
377 347
377 365
377 366
377 370
377 371
377 392
377 394
377 398
377 399
377 406
377 422
377 428
377 429
377 441
377 442
377 449
377 453
378 291
378 295
378 308
378 315
378 322
378 328
378 335
378 340
378 342
378 349
378 354
378 367
378 370
378 373
378 385
378 387
378 395
378 398
378 408
378 415
378 418
378 426
378 427
378 437
378 438
378 452
378 458
379 296
379 298
379 307
379 318
379 326
379 331
379 336
379 338
379 345
379 356
379 360
379 361
379 362
379 363
379 368
379 391
379 393
379 400
379 404
379 410
379 416
379 419
379 424
379 430
379 433
379 457
380 289
380 316
380 317
380 319
380 323
380 331
380 332
380 339
380 352
380 353
380 355
380 356
380 357
380 368
380 369
380 376
380 384
380 396
380 400
380 401
380 404
380 405
380 409
380 419
380 423
380 434
380 435
380 444
380 448
381 294
381 320
381 324
381 327
381 329
381 333
381 344
381 346
381 348
381 351
381 358
381 359
381 375
381 386
381 388
381 389
381 402
381 412
381 414
381 417
381 420
381 443
381 445
381 447
381 450
381 451
381 464
382 306
382 314
382 337
382 344
382 348
382 364
382 374
382 375
382 390
382 397
382 413
382 425
382 431
382 455
383 302
383 311
383 312
383 325
383 336
383 341
383 350
383 354
383 360
383 362
383 372
383 373
383 385
383 387
383 391
383 393
383 403
383 408
383 410
383 411
383 421
383 432
383 437
383 439
383 440
383 446
383 465
383 469
384 316
384 317
384 318
384 323
384 331
384 332
384 339
384 352
384 355
384 356
384 357
384 363
384 368
384 376
384 380
384 396
384 400
384 401
384 404
384 409
384 419
384 423
384 434
384 444
384 448
384 462
384 468
384 472
385 311
385 315
385 322
385 340
385 341
385 342
385 349
385 354
385 367
385 372
385 373
385 378
385 383
385 387
385 395
385 403
385 408
385 415
385 418
385 427
385 432
385 437
385 438
385 446
385 452
385 466
386 309
386 320
386 327
386 330
386 333
386 346
386 351
386 353
386 355
386 358
386 369
386 376
386 381
386 388
386 396
386 405
386 407
386 412
386 414
386 417
386 435
386 436
386 445
386 447
386 451
386 454
387 311
387 322
387 340
387 341
387 342
387 349
387 350
387 354
387 372
387 373
387 378
387 383
387 385
387 403
387 408
387 411
387 415
387 418
387 421
387 432
387 437
387 438
387 439
387 446
387 452
387 470
388 309
388 320
388 327
388 330
388 333
388 346
388 351
388 353
388 358
388 359
388 369
388 381
388 386
388 389
388 405
388 407
388 412
388 414
388 417
388 420
388 436
388 445
388 447
388 450
388 451
388 464
388 478
389 324
389 327
389 329
389 344
389 346
389 348
389 351
389 359
389 374
389 375
389 381
389 388
389 390
389 397
389 402
389 414
389 417
389 420
389 431
389 443
389 445
389 450
389 451
389 464
389 473
390 306
390 314
390 324
390 337
390 344
390 348
390 364
390 374
390 375
390 382
390 389
390 397
390 402
390 413
390 425
390 431
390 443
390 455
390 456
391 325
391 326
391 336
391 338
391 345
391 350
391 360
391 361
391 362
391 372
391 379
391 383
391 393
391 410
391 411
391 416
391 421
391 424
391 430
391 432
391 439
391 440
391 459
391 465
391 467
392 305
392 310
392 321
392 334
392 343
392 347
392 365
392 366
392 371
392 377
392 394
392 399
392 406
392 428
392 429
392 441
392 442
392 453
392 461
392 475
393 325
393 326
393 336
393 338
393 345
393 350
393 360
393 361
393 362
393 363
393 379
393 383
393 391
393 404
393 410
393 411
393 416
393 421
393 424
393 430
393 433
393 439
393 440
393 457
393 459
393 465
393 467
394 313
394 328
394 335
394 343
394 347
394 366
394 367
394 370
394 371
394 377
394 392
394 395
394 398
394 399
394 406
394 422
394 426
394 427
394 428
394 429
394 441
394 449
394 453
394 460
394 476
394 479
395 308
395 315
395 328
395 335
395 340
395 342
395 343
395 349
395 367
395 370
395 371
395 378
395 385
395 394
395 398
395 408
395 415
395 418
395 422
395 426
395 427
395 438
395 449
395 452
395 458
395 460
395 466
396 319
396 323
396 330
396 339
396 352
396 353
396 355
396 357
396 358
396 369
396 376
396 380
396 384
396 386
396 401
396 405
396 407
396 409
396 412
396 423
396 434
396 435
396 436
396 448
396 454
396 463
397 314
397 324
397 337
397 344
397 348
397 359
397 364
397 374
397 375
397 382
397 389
397 390
397 402
397 413
397 414
397 420
397 425
397 431
397 443
397 450
397 455
397 456
397 481
398 328
398 335
398 343
398 349
398 367
398 370
398 371
398 377
398 378
398 394
398 395
398 406
398 415
398 418
398 422
398 426
398 427
398 429
398 438
398 441
398 449
398 458
398 460
398 479
399 310
399 321
399 334
399 343
399 347
399 365
399 366
399 371
399 377
399 392
399 394
399 406
399 422
399 428
399 429
399 441
399 442
399 449
399 453
399 461
399 475
399 476
400 316
400 318
400 331
400 332
400 345
400 352
400 356
400 357
400 363
400 368
400 379
400 380
400 384
400 401
400 404
400 409
400 416
400 419
400 430
400 433
400 434
400 444
400 462
400 468
400 471
400 472
400 474
401 317
401 319
401 323
401 332
401 339
401 352
401 353
401 355
401 357
401 368
401 369
401 376
401 380
401 384
401 396
401 400
401 405
401 407
401 409
401 423
401 434
401 435
401 436
401 444
401 448
401 454
401 463
401 468
401 472
402 324
402 329
402 344
402 346
402 348
402 359
402 364
402 374
402 375
402 381
402 389
402 390
402 397
402 413
402 414
402 420
402 425
402 431
402 443
402 445
402 450
402 455
402 456
402 464
402 473
402 481
403 311
403 341
403 342
403 350
403 354
403 360
403 372
403 373
403 383
403 385
403 387
403 408
403 410
403 411
403 415
403 421
403 432
403 437
403 439
403 446
403 452
403 469
403 470
403 477
403 482
403 488
404 318
404 331
404 345
404 356
404 357
404 361
404 363
404 368
404 379
404 380
404 384
404 393
404 400
404 409
404 416
404 419
404 424
404 430
404 433
404 434
404 444
404 457
404 462
404 471
404 472
404 474
405 319
405 330
405 333
405 339
405 352
405 353
405 355
405 358
405 369
405 376
405 380
405 386
405 388
405 396
405 401
405 407
405 412
405 417
405 423
405 434
405 435
405 436
405 447
405 448
405 454
405 463
405 480
405 483
406 334
406 343
406 347
406 365
406 366
406 370
406 371
406 377
406 392
406 394
406 398
406 399
406 422
406 426
406 428
406 429
406 441
406 442
406 449
406 453
406 461
406 475
406 476
406 479
407 330
407 333
407 339
407 351
407 353
407 355
407 358
407 369
407 376
407 386
407 388
407 396
407 401
407 405
407 412
407 417
407 423
407 435
407 436
407 447
407 448
407 451
407 454
407 463
407 480
407 483
408 322
408 340
408 341
408 342
408 349
408 354
408 372
408 373
408 378
408 383
408 385
408 387
408 395
408 403
408 411
408 415
408 418
408 421
408 427
408 432
408 437
408 438
408 439
408 446
408 452
408 466
408 469
408 470
408 482
408 488
409 331
409 332
409 352
409 356
409 357
409 363
409 368
409 376
409 380
409 384
409 396
409 400
409 401
409 404
409 419
409 423
409 433
409 434
409 435
409 444
409 448
409 462
409 468
409 472
409 474
410 325
410 336
410 338
410 350
410 360
410 361
410 362
410 372
410 379
410 383
410 391
410 393
410 403
410 411
410 416
410 421
410 424
410 430
410 432
410 439
410 440
410 446
410 457
410 459
410 465
410 467
410 469
410 477
410 485
411 341
411 350
411 354
411 360
411 372
411 373
411 383
411 387
411 391
411 393
411 403
411 408
411 410
411 421
411 424
411 432
411 437
411 439
411 440
411 446
411 465
411 467
411 469
411 470
411 477
411 487
412 330
412 333
412 346
412 351
412 353
412 355
412 358
412 369
412 376
412 381
412 386
412 388
412 396
412 405
412 407
412 414
412 417
412 435
412 436
412 445
412 447
412 451
412 454
412 464
412 478
412 480
412 483
413 337
413 348
413 364
413 374
413 375
413 382
413 390
413 397
413 402
413 425
413 431
413 443
413 455
413 456
413 486
414 327
414 329
414 344
414 346
414 351
414 358
414 359
414 375
414 381
414 386
414 388
414 389
414 397
414 402
414 412
414 417
414 420
414 431
414 443
414 445
414 447
414 450
414 451
414 464
414 473
414 478
414 484
414 498
415 340
415 342
415 349
415 354
415 367
415 373
415 378
415 385
415 387
415 395
415 398
415 403
415 408
415 418
415 426
415 427
415 432
415 437
415 438
415 446
415 452
415 458
415 460
415 466
415 470
415 482
415 493
416 345
416 356
416 361
416 362
416 363
416 368
416 379
416 391
416 393
416 400
416 404
416 410
416 419
416 424
416 430
416 433
416 440
416 457
416 459
416 462
416 467
416 471
416 474
416 485
416 494
417 333
417 346
417 351
417 353
417 358
417 359
417 369
417 381
417 386
417 388
417 389
417 405
417 407
417 412
417 414
417 420
417 436
417 445
417 447
417 450
417 451
417 454
417 464
417 478
417 480
417 498
418 340
418 342
418 349
418 354
418 367
418 370
418 378
418 385
418 387
418 395
418 398
418 408
418 415
418 422
418 426
418 427
418 437
418 438
418 449
418 452
418 458
418 460
418 466
418 482
418 492
418 493
418 499
419 331
419 345
419 356
419 357
419 363
419 368
419 379
419 380
419 384
419 400
419 404
419 409
419 416
419 430
419 433
419 434
419 444
419 457
419 462
419 468
419 471
419 472
419 474
420 344
420 346
420 348
420 359
420 374
420 375
420 381
420 388
420 389
420 397
420 402
420 414
420 417
420 425
420 431
420 443
420 445
420 447
420 450
420 451
420 456
420 464
420 473
420 478
420 481
420 484
420 498
420 507
421 350
421 360
421 362
421 372
421 373
421 383
421 387
421 391
421 393
421 403
421 408
421 410
421 411
421 424
421 432
421 437
421 439
421 440
421 446
421 459
421 465
421 467
421 469
421 470
421 477
421 487
421 496
422 343
422 347
422 366
422 367
422 370
422 371
422 377
422 394
422 395
422 398
422 399
422 406
422 418
422 426
422 427
422 428
422 429
422 441
422 449
422 453
422 458
422 460
422 475
422 476
422 479
422 500
422 504
423 339
423 352
423 353
423 355
423 357
423 369
423 376
423 380
423 384
423 396
423 401
423 405
423 407
423 409
423 434
423 435
423 436
423 444
423 448
423 454
423 463
423 468
423 472
423 483
423 489
423 490
423 497
424 338
424 345
424 360
424 361
424 362
424 379
424 391
424 393
424 404
424 410
424 411
424 416
424 421
424 430
424 433
424 439
424 440
424 457
424 459
424 465
424 467
424 471
424 485
424 494
424 501
425 337
425 348
425 364
425 374
425 375
425 382
425 390
425 397
425 402
425 413
425 420
425 431
425 443
425 455
425 456
425 481
425 486
425 491
426 367
426 370
426 371
426 378
426 394
426 395
426 398
426 406
426 415
426 418
426 422
426 427
426 429
426 438
426 441
426 449
426 452
426 458
426 460
426 466
426 476
426 479
426 492
426 499
426 500
427 349
427 367
427 370
427 371
427 378
427 385
427 394
427 395
427 398
427 408
427 415
427 418
427 422
427 426
427 437
427 438
427 449
427 452
427 458
427 460
427 466
427 479
427 492
427 493
427 499
427 500
427 505
428 347
428 365
428 366
428 371
428 377
428 392
428 394
428 399
428 406
428 422
428 429
428 441
428 442
428 449
428 453
428 461
428 475
428 476
428 495
428 514
429 343
429 347
429 365
429 366
429 371
429 377
429 392
429 394
429 398
429 399
429 406
429 422
429 426
429 428
429 441
429 442
429 449
429 453
429 461
429 475
429 476
429 479
429 495
429 504
429 511
430 345
430 361
430 362
430 363
430 379
430 391
430 393
430 400
430 404
430 410
430 416
430 419
430 424
430 433
430 440
430 457
430 459
430 462
430 467
430 471
430 474
430 485
430 494
430 501
430 503
431 344
431 348
431 364
431 374
431 375
431 382
431 389
431 390
431 397
431 402
431 413
431 414
431 420
431 425
431 443
431 450
431 455
431 456
431 473
431 481
431 484
431 486
431 491
431 510
432 341
432 350
432 354
432 372
432 373
432 383
432 385
432 387
432 391
432 403
432 408
432 410
432 411
432 415
432 421
432 437
432 439
432 440
432 446
432 452
432 465
432 469
432 470
432 477
432 482
432 487
432 488
432 496
433 345
433 356
433 361
433 363
433 368
433 379
433 393
433 400
433 404
433 409
433 416
433 419
433 424
433 430
433 444
433 457
433 459
433 462
433 467
433 471
433 472
433 474
433 485
433 494
433 503
433 508
434 352
434 357
434 368
434 376
434 380
434 384
434 396
434 400
434 401
434 404
434 405
434 409
434 419
434 423
434 435
434 436
434 444
434 448
434 462
434 463
434 468
434 472
434 474
434 489
434 490
434 497
434 506
435 353
435 355
435 369
435 376
435 380
435 386
435 396
435 401
435 405
435 407
435 409
435 412
435 423
435 434
435 436
435 444
435 447
435 448
435 454
435 463
435 468
435 480
435 483
435 489
435 490
435 497
435 502
435 512
436 353
436 355
436 358
436 369
436 376
436 386
436 388
436 396
436 401
436 405
436 407
436 412
436 417
436 423
436 434
436 435
436 447
436 448
436 451
436 454
436 463
436 478
436 480
436 483
436 489
436 502
436 512
437 354
437 372
437 373
437 378
437 383
437 385
437 387
437 403
437 408
437 411
437 415
437 418
437 421
437 427
437 432
437 438
437 439
437 446
437 452
437 458
437 466
437 469
437 470
437 477
437 482
437 487
437 488
437 493
437 496
437 505
437 513
438 349
438 367
438 378
438 385
438 387
438 395
438 398
438 408
438 415
438 418
438 426
438 427
438 437
438 449
438 452
438 458
438 460
438 466
438 470
438 479
438 482
438 492
438 493
438 499
438 505
439 350
439 360
439 372
439 373
439 383
439 387
439 391
439 393
439 403
439 408
439 410
439 411
439 421
439 424
439 432
439 437
439 440
439 446
439 459
439 465
439 467
439 469
439 470
439 477
439 487
439 488
439 496
439 501
439 516
439 522
440 360
440 362
440 383
440 391
440 393
440 410
440 411
440 416
440 421
440 424
440 430
440 432
440 439
440 446
440 457
440 459
440 465
440 467
440 469
440 477
440 485
440 487
440 494
440 501
441 366
441 371
441 377
441 392
441 394
441 398
441 399
441 406
441 422
441 426
441 428
441 429
441 442
441 449
441 453
441 460
441 461
441 475
441 476
441 479
441 495
441 500
441 504
441 511
441 514
442 365
442 366
442 377
442 392
442 399
442 406
442 428
442 429
442 441
442 453
442 461
442 475
442 476
442 495
442 514
443 359
443 374
443 375
443 381
443 389
443 390
443 397
443 402
443 413
443 414
443 420
443 425
443 431
443 445
443 450
443 451
443 455
443 456
443 464
443 473
443 481
443 484
443 491
443 498
443 507
443 510
444 357
444 368
444 380
444 384
444 400
444 401
444 404
444 409
444 419
444 423
444 433
444 434
444 435
444 448
444 462
444 463
444 468
444 471
444 472
444 474
444 489
444 490
444 497
444 506
444 508
445 381
445 386
445 388
445 389
445 402
445 412
445 414
445 417
445 420
445 443
445 447
445 450
445 451
445 456
445 464
445 473
445 478
445 480
445 481
445 484
445 498
445 507
445 509
445 520
446 372
446 373
446 383
446 385
446 387
446 403
446 408
446 410
446 411
446 415
446 421
446 432
446 437
446 439
446 440
446 452
446 465
446 466
446 469
446 470
446 477
446 482
446 487
446 488
446 496
446 513
446 516
447 358
447 381
447 386
447 388
447 405
447 407
447 412
447 414
447 417
447 420
447 435
447 436
447 445
447 450
447 451
447 454
447 464
447 478
447 480
447 483
447 484
447 498
447 502
447 509
447 512
448 376
448 380
448 384
448 396
448 401
448 405
448 407
448 409
448 423
448 434
448 435
448 436
448 444
448 454
448 462
448 463
448 468
448 472
448 483
448 489
448 490
448 497
448 506
448 512
448 519
448 525
449 370
449 371
449 377
449 394
449 395
449 398
449 399
449 406
449 418
449 422
449 426
449 427
449 428
449 429
449 438
449 441
449 453
449 458
449 460
449 475
449 476
449 479
449 492
449 499
449 500
449 504
449 511
449 521
449 528
450 359
450 375
450 381
450 388
450 389
450 397
450 402
450 414
450 417
450 420
450 431
450 443
450 445
450 447
450 451
450 455
450 456
450 464
450 473
450 478
450 481
450 484
450 498
450 507
450 510
450 520
451 381
451 386
451 388
451 389
451 407
451 412
451 414
451 417
451 420
451 436
451 443
451 445
451 447
451 450
451 454
451 464
451 473
451 478
451 480
451 483
451 484
451 498
451 502
451 507
451 509
451 520
452 378
452 385
452 387
452 395
452 403
452 408
452 415
452 418
452 426
452 427
452 432
452 437
452 438
452 446
452 458
452 460
452 466
452 469
452 470
452 482
452 488
452 492
452 493
452 496
452 499
452 505
452 513
452 526
453 366
453 377
453 392
453 394
453 399
453 406
453 422
453 428
453 429
453 441
453 442
453 449
453 461
453 475
453 476
453 479
453 495
453 504
453 511
453 514
453 527
454 369
454 386
454 396
454 401
454 405
454 407
454 412
454 417
454 423
454 435
454 436
454 447
454 448
454 451
454 463
454 478
454 480
454 483
454 489
454 490
454 502
454 509
454 512
454 519
454 529
455 374
455 382
455 390
455 397
455 402
455 413
455 425
455 431
455 443
455 450
455 456
455 473
455 481
455 486
455 491
455 510
455 515
455 517
455 532
456 374
456 375
456 390
456 397
456 402
456 413
456 420
456 425
456 431
456 443
456 445
456 450
456 455
456 473
456 481
456 484
456 486
456 491
456 507
456 510
456 515
456 517
456 531
456 532
457 379
457 393
457 404
457 410
457 416
457 419
457 424
457 430
457 433
457 440
457 459
457 462
457 465
457 467
457 471
457 474
457 485
457 494
457 501
457 503
457 508
457 518
457 523
457 524
458 378
458 395
458 398
458 415
458 418
458 422
458 426
458 427
458 437
458 438
458 449
458 452
458 460
458 466
458 479
458 482
458 492
458 493
458 499
458 500
458 505
458 521
458 526
458 528
458 530
458 545
459 391
459 393
459 410
459 416
459 421
459 424
459 430
459 433
459 439
459 440
459 457
459 465
459 467
459 471
459 474
459 477
459 485
459 494
459 501
459 503
459 518
459 523
459 535
460 394
460 395
460 398
460 415
460 418
460 422
460 426
460 427
460 438
460 441
460 449
460 452
460 458
460 466
460 476
460 479
460 492
460 493
460 499
460 500
460 504
460 505
460 521
460 528
460 530
461 392
461 399
461 406
461 428
461 429
461 441
461 442
461 453
461 475
461 476
461 495
461 504
461 511
461 514
461 527
461 540
462 384
462 400
462 404
462 409
462 416
462 419
462 430
462 433
462 434
462 444
462 448
462 457
462 468
462 471
462 472
462 474
462 490
462 494
462 497
462 503
462 506
462 508
462 518
462 524
462 525
462 534
462 538
463 376
463 396
463 401
463 405
463 407
463 423
463 434
463 435
463 436
463 444
463 448
463 454
463 468
463 472
463 480
463 483
463 489
463 490
463 497
463 502
463 506
463 512
463 519
463 525
463 529
463 539
464 381
464 388
464 389
464 402
464 412
464 414
464 417
464 420
464 443
464 445
464 447
464 450
464 451
464 473
464 478
464 480
464 481
464 484
464 498
464 502
464 507
464 509
464 510
464 520
464 536
464 537
464 552
465 383
465 391
465 393
465 410
465 411
465 421
465 424
465 432
465 439
465 440
465 446
465 457
465 459
465 467
465 469
465 470
465 477
465 485
465 487
465 488
465 496
465 501
465 516
465 522
465 535
465 551
466 385
466 395
466 408
466 415
466 418
466 426
466 427
466 437
466 438
466 446
466 452
466 458
466 460
466 470
466 482
466 488
466 492
466 493
466 496
466 499
466 505
466 513
466 521
466 526
466 530
466 553
467 391
467 393
467 410
467 411
467 416
467 421
467 424
467 430
467 433
467 439
467 440
467 457
467 459
467 465
467 469
467 471
467 477
467 485
467 487
467 494
467 501
467 516
467 518
467 522
467 523
467 535
467 546
468 384
468 400
468 401
468 409
468 419
468 423
468 434
468 435
468 444
468 448
468 462
468 463
468 472
468 474
468 483
468 489
468 490
468 497
468 506
468 508
468 519
468 525
468 534
468 550
469 383
469 403
469 408
469 410
469 411
469 421
469 432
469 437
469 439
469 440
469 446
469 452
469 465
469 467
469 470
469 477
469 482
469 487
469 488
469 496
469 501
469 513
469 516
469 522
469 533
469 544
470 387
470 403
470 408
470 411
470 415
470 421
470 432
470 437
470 438
470 439
470 446
470 452
470 465
470 466
470 469
470 477
470 482
470 487
470 488
470 493
470 496
470 505
470 513
470 516
470 526
470 533
470 544
471 400
471 404
471 416
471 419
471 424
471 430
471 433
471 444
471 457
471 459
471 462
471 467
471 472
471 474
471 485
471 494
471 501
471 503
471 506
471 508
471 518
471 523
471 524
471 538
471 543
472 384
472 400
472 401
472 404
472 409
472 419
472 423
472 433
472 434
472 444
472 448
472 462
472 463
472 468
472 471
472 474
472 489
472 490
472 497
472 503
472 506
472 508
472 519
472 524
472 525
472 534
472 538
472 550
473 389
473 402
473 414
473 420
473 431
473 443
473 445
473 450
473 451
473 455
473 456
473 464
473 478
473 481
473 484
473 491
473 498
473 507
473 510
473 517
473 520
473 531
473 537
474 400
474 404
474 409
474 416
474 419
474 430
474 433
474 434
474 444
474 457
474 459
474 462
474 468
474 471
474 472
474 485
474 494
474 497
474 503
474 506
474 508
474 518
474 523
474 524
474 534
474 538
474 543
475 392
475 399
475 406
475 422
475 428
475 429
475 441
475 442
475 449
475 453
475 461
475 476
475 479
475 495
475 500
475 504
475 511
475 514
475 527
475 540
475 542
475 547
475 554
476 394
476 399
476 406
476 422
476 426
476 428
476 429
476 441
476 442
476 449
476 453
476 460
476 461
476 475
476 479
476 495
476 499
476 500
476 504
476 511
476 514
476 521
476 527
476 528
476 540
476 542
476 547
476 554
477 403
477 410
477 411
477 421
477 432
477 437
477 439
477 440
477 446
477 459
477 465
477 467
477 469
477 470
477 482
477 485
477 487
477 488
477 496
477 501
477 513
477 516
477 522
477 533
477 535
477 551
477 556
478 388
478 412
478 414
478 417
478 420
478 436
478 445
478 447
478 450
478 451
478 454
478 464
478 473
478 480
478 483
478 484
478 498
478 502
478 507
478 509
478 512
478 520
478 529
478 536
478 537
478 541
478 552
478 559
479 394
479 398
479 406
479 422
479 426
479 427
479 429
479 438
479 441
479 449
479 453
479 458
479 460
479 475
479 476
479 492
479 499
479 500
479 504
479 505
479 511
479 514
479 521
479 527
479 528
479 530
479 542
479 554
479 555
480 405
480 407
480 412
480 417
480 435
480 436
480 445
480 447
480 451
480 454
480 463
480 464
480 478
480 483
480 484
480 489
480 498
480 502
480 509
480 512
480 520
480 529
480 536
480 541
480 557
480 559
481 397
481 402
481 420
481 425
481 431
481 443
481 445
481 450
481 455
481 456
481 464
481 473
481 484
481 486
481 491
481 498
481 507
481 510
481 515
481 517
481 531
481 532
481 537
481 548
482 403
482 408
482 415
482 418
482 432
482 437
482 438
482 446
482 452
482 458
482 466
482 469
482 470
482 477
482 487
482 488
482 492
482 493
482 496
482 505
482 513
482 516
482 526
482 530
482 533
482 544
482 553
483 405
483 407
483 412
483 423
483 435
483 436
483 447
483 448
483 451
483 454
483 463
483 468
483 478
483 480
483 489
483 490
483 497
483 502
483 509
483 512
483 519
483 529
483 536
483 539
483 541
483 557
483 558
483 563
483 566
484 414
484 420
484 431
484 443
484 445
484 447
484 450
484 451
484 456
484 464
484 473
484 478
484 480
484 481
484 491
484 498
484 507
484 509
484 510
484 517
484 520
484 531
484 536
484 537
484 552
484 564
485 410
485 416
485 424
485 430
485 433
485 440
485 457
485 459
485 465
485 467
485 471
485 474
485 477
485 494
485 501
485 503
485 508
485 518
485 522
485 523
485 524
485 535
485 543
485 546
485 549
485 562
486 413
486 425
486 431
486 455
486 456
486 481
486 491
486 510
486 515
486 517
486 532
486 548
487 411
487 421
487 432
487 437
487 439
487 440
487 446
487 465
487 467
487 469
487 470
487 477
487 482
487 488
487 496
487 501
487 513
487 516
487 522
487 533
487 535
487 544
487 551
487 556
487 570
488 403
488 408
488 432
488 437
488 439
488 446
488 452
488 465
488 466
488 469
488 470
488 477
488 482
488 487
488 493
488 496
488 505
488 513
488 516
488 522
488 526
488 533
488 544
488 556
488 570
489 423
489 434
489 435
489 436
489 444
489 448
489 454
489 463
489 468
489 472
489 480
489 483
489 490
489 497
489 502
489 506
489 512
489 519
489 525
489 529
489 534
489 539
489 541
489 550
489 558
489 563
489 565
490 423
490 434
490 435
490 444
490 448
490 454
490 462
490 463
490 468
490 472
490 483
490 489
490 497
490 502
490 506
490 512
490 519
490 525
490 529
490 534
490 539
490 550
490 558
490 563
490 565
490 568
491 425
491 431
491 443
491 455
491 456
491 473
491 481
491 484
491 486
491 507
491 510
491 515
491 517
491 531
491 532
491 537
491 548
491 567
492 418
492 426
492 427
492 438
492 449
492 452
492 458
492 460
492 466
492 479
492 482
492 493
492 499
492 500
492 505
492 513
492 521
492 526
492 528
492 530
492 545
492 553
492 555
492 569
493 415
493 418
493 427
493 437
493 438
493 452
493 458
493 460
493 466
493 470
493 482
493 488
493 492
493 496
493 499
493 505
493 513
493 521
493 526
493 530
493 533
493 544
493 545
493 553
493 569
493 571
493 585
494 416
494 424
494 430
494 433
494 440
494 457
494 459
494 462
494 467
494 471
494 474
494 485
494 501
494 503
494 508
494 518
494 523
494 524
494 535
494 538
494 543
494 546
494 549
494 560
494 562
494 579
495 428
495 429
495 441
495 442
495 453
495 461
495 475
495 476
495 504
495 511
495 514
495 527
495 540
495 547
495 554
495 561
495 572
496 421
496 432
496 437
496 439
496 446
496 452
496 465
496 466
496 469
496 470
496 477
496 482
496 487
496 488
496 493
496 513
496 516
496 522
496 526
496 533
496 535
496 544
496 551
496 556
496 570
496 577
497 423
497 434
497 435
497 444
497 448
497 462
497 463
497 468
497 472
497 474
497 483
497 489
497 490
497 506
497 508
497 512
497 519
497 524
497 525
497 534
497 538
497 539
497 550
497 558
497 565
497 568
497 583
498 414
498 417
498 420
498 443
498 445
498 447
498 450
498 451
498 464
498 473
498 478
498 480
498 481
498 484
498 502
498 507
498 509
498 510
498 520
498 531
498 536
498 537
498 541
498 552
498 557
498 559
498 564
498 578
499 418
499 426
499 427
499 438
499 449
499 452
499 458
499 460
499 466
499 476
499 479
499 492
499 493
499 500
499 504
499 505
499 511
499 521
499 526
499 528
499 530
499 542
499 545
499 553
499 555
499 569
499 576
500 422
500 426
500 427
500 441
500 449
500 458
500 460
500 475
500 476
500 479
500 492
500 499
500 504
500 505
500 511
500 514
500 521
500 527
500 528
500 530
500 542
500 545
500 547
500 554
500 555
500 576
500 582
501 424
501 430
501 439
501 440
501 457
501 459
501 465
501 467
501 469
501 471
501 477
501 485
501 487
501 494
501 503
501 516
501 518
501 522
501 523
501 535
501 546
501 549
501 551
501 556
501 574
501 579
502 435
502 436
502 447
502 451
502 454
502 463
502 464
502 478
502 480
502 483
502 489
502 490
502 498
502 509
502 512
502 519
502 520
502 529
502 536
502 539
502 541
502 557
502 559
502 563
502 566
502 580
503 430
503 433
503 457
503 459
503 462
503 471
503 472
503 474
503 485
503 494
503 501
503 506
503 508
503 518
503 523
503 524
503 534
503 538
503 543
503 549
503 560
503 562
503 575
503 587
504 422
504 429
504 441
504 449
504 453
504 460
504 461
504 475
504 476
504 479
504 495
504 499
504 500
504 511
504 514
504 521
504 527
504 528
504 540
504 542
504 547
504 554
504 555
504 561
504 572
504 581
504 582
505 427
505 437
505 438
505 452
505 458
505 460
505 466
505 470
505 479
505 482
505 488
505 492
505 493
505 499
505 500
505 513
505 521
505 526
505 528
505 530
505 544
505 545
505 553
505 555
505 569
505 571
505 585
506 434
506 444
506 448
506 462
506 463
506 468
506 471
506 472
506 474
506 489
506 490
506 497
506 503
506 508
506 519
506 524
506 525
506 534
506 538
506 539
506 543
506 550
506 558
506 560
506 565
506 568
506 575
506 583
507 420
507 443
507 445
507 450
507 451
507 456
507 464
507 473
507 478
507 481
507 484
507 491
507 498
507 509
507 510
507 517
507 520
507 531
507 532
507 536
507 537
507 552
507 559
507 564
507 567
507 573
507 578
508 433
508 444
508 457
508 462
508 468
508 471
508 472
508 474
508 485
508 494
508 497
508 503
508 506
508 518
508 523
508 524
508 525
508 534
508 538
508 543
508 550
508 560
508 562
508 568
508 575
508 587
509 445
509 447
509 451
509 454
509 464
509 478
509 480
509 483
509 484
509 498
509 502
509 507
509 512
509 520
509 529
509 536
509 537
509 541
509 552
509 557
509 559
509 566
509 578
509 580
509 584
509 591
510 431
510 443
510 450
510 455
510 456
510 464
510 473
510 481
510 484
510 486
510 491
510 498
510 507
510 515
510 517
510 520
510 531
510 532
510 537
510 548
510 552
510 564
510 567
510 573
510 593
511 429
511 441
511 449
511 453
511 461
511 475
511 476
511 479
511 495
511 499
511 500
511 504
511 514
511 521
511 527
511 528
511 540
511 542
511 547
511 554
511 555
511 561
511 572
511 581
511 582
512 435
512 436
512 447
512 448
512 454
512 463
512 478
512 480
512 483
512 489
512 490
512 497
512 502
512 509
512 519
512 525
512 529
512 536
512 539
512 541
512 550
512 557
512 558
512 559
512 563
512 565
512 566
512 580
512 589
512 591
512 592
512 595
513 437
513 446
513 452
513 466
513 469
513 470
513 477
513 482
513 487
513 488
513 492
513 493
513 496
513 505
513 516
513 522
513 526
513 530
513 533
513 544
513 545
513 553
513 556
513 570
513 571
513 577
513 585
514 428
514 441
514 442
514 453
514 461
514 475
514 476
514 479
514 495
514 500
514 504
514 511
514 527
514 528
514 540
514 542
514 547
514 554
514 561
514 572
514 581
514 588
515 455
515 456
515 481
515 486
515 491
515 510
515 517
515 531
515 532
515 548
515 567
515 590
516 439
516 446
516 465
516 467
516 469
516 470
516 477
516 482
516 487
516 488
516 496
516 501
516 513
516 522
516 533
516 535
516 544
516 546
516 551
516 556
516 570
516 574
516 577
516 586
517 455
517 456
517 473
517 481
517 484
517 486
517 491
517 507
517 510
517 515
517 531
517 532
517 537
517 548
517 564
517 567
517 573
517 590
517 593
517 597
518 457
518 459
518 462
518 467
518 471
518 474
518 485
518 494
518 501
518 503
518 508
518 523
518 524
518 535
518 538
518 543
518 546
518 549
518 560
518 562
518 575
518 579
518 587
518 604
519 448
519 454
519 463
519 468
519 472
519 483
519 489
519 490
519 497
519 502
519 506
519 512
519 525
519 529
519 534
519 539
519 541
519 550
519 557
519 558
519 563
519 565
519 566
519 568
519 583
519 589
519 592
519 595
520 445
520 450
520 451
520 464
520 473
520 478
520 480
520 484
520 498
520 502
520 507
520 509
520 510
520 529
520 531
520 536
520 537
520 541
520 552
520 557
520 559
520 564
520 573
520 578
520 580
520 584
520 596
521 449
521 458
521 460
521 466
521 476
521 479
521 492
521 493
521 499
521 500
521 504
521 505
521 511
521 526
521 528
521 530
521 542
521 545
521 553
521 554
521 555
521 569
521 576
521 582
521 585
521 594
521 601
521 605
522 439
522 465
522 467
522 469
522 477
522 485
522 487
522 488
522 496
522 501
522 513
522 516
522 523
522 533
522 535
522 544
522 546
522 549
522 551
522 556
522 570
522 574
522 586
522 606
523 457
523 459
523 467
523 471
523 474
523 485
523 494
523 501
523 503
523 508
523 518
523 522
523 524
523 535
523 538
523 543
523 546
523 549
523 551
523 560
523 562
523 574
523 579
523 587
523 604
523 609
524 457
524 462
524 471
524 472
524 474
524 485
524 494
524 497
524 503
524 506
524 508
524 518
524 523
524 525
524 534
524 538
524 543
524 549
524 550
524 560
524 562
524 568
524 575
524 587
524 599
524 604
524 611
525 448
525 462
525 463
525 468
525 472
525 489
525 490
525 497
525 506
525 508
525 512
525 519
525 524
525 534
525 538
525 539
525 550
525 558
525 563
525 565
525 568
525 575
525 583
525 589
525 598
525 614
526 452
526 458
526 466
526 470
526 482
526 488
526 492
526 493
526 496
526 499
526 505
526 513
526 521
526 530
526 533
526 544
526 545
526 553
526 569
526 570
526 571
526 577
526 585
526 594
526 601
526 602
527 453
527 461
527 475
527 476
527 479
527 495
527 500
527 504
527 511
527 514
527 528
527 540
527 542
527 547
527 554
527 555
527 561
527 572
527 581
527 582
527 588
527 600
528 449
528 458
528 460
528 476
528 479
528 492
528 499
528 500
528 504
528 505
528 511
528 514
528 521
528 527
528 530
528 542
528 545
528 547
528 553
528 554
528 555
528 569
528 572
528 576
528 581
528 582
528 594
528 605
528 610
529 454
529 463
529 478
529 480
529 483
529 489
529 490
529 502
529 509
529 512
529 519
529 520
529 536
529 539
529 541
529 557
529 558
529 559
529 563
529 565
529 566
529 580
529 584
529 589
529 591
529 592
529 595
529 608
530 458
530 460
530 466
530 479
530 482
530 492
530 493
530 499
530 500
530 505
530 513
530 521
530 526
530 528
530 542
530 544
530 545
530 553
530 555
530 569
530 571
530 576
530 582
530 585
530 594
530 601
530 605
530 617
531 456
531 473
531 481
531 484
531 491
531 498
531 507
531 510
531 515
531 517
531 520
531 532
531 537
531 548
531 552
531 564
531 567
531 573
531 578
531 590
531 593
531 596
531 597
531 620
532 455
532 456
532 481
532 486
532 491
532 507
532 510
532 515
532 517
532 531
532 537
532 548
532 564
532 567
532 573
532 590
532 593
532 597
532 616
533 469
533 470
533 477
533 482
533 487
533 488
533 493
533 496
533 513
533 516
533 522
533 526
533 535
533 544
533 551
533 553
533 556
533 570
533 571
533 577
533 586
533 602
533 603
533 615
534 462
534 468
534 472
534 474
534 489
534 490
534 497
534 503
534 506
534 508
534 519
534 524
534 525
534 538
534 539
534 543
534 550
534 558
534 560
534 565
534 568
534 575
534 583
534 587
534 589
534 598
534 599
534 614
535 459
535 465
535 467
535 477
535 485
535 487
535 494
535 496
535 501
535 516
535 518
535 522
535 523
535 533
535 546
535 549
535 551
535 556
535 562
535 574
535 579
535 586
535 606
535 607
535 609
536 464
536 478
536 480
536 483
536 484
536 498
536 502
536 507
536 509
536 512
536 520
536 529
536 537
536 541
536 552
536 557
536 559
536 563
536 564
536 566
536 578
536 580
536 584
536 591
536 592
536 596
536 608
536 613
537 464
537 473
537 478
537 481
537 484
537 491
537 498
537 507
537 509
537 510
537 517
537 520
537 531
537 532
537 536
537 552
537 559
537 564
537 567
537 573
537 578
537 584
537 593
537 596
537 597
537 620
537 623
538 462
538 471
538 472
538 474
538 494
538 497
538 503
538 506
538 508
538 518
538 523
538 524
538 525
538 534
538 543
538 550
538 560
538 562
538 565
538 568
538 575
538 583
538 587
538 598
538 599
538 604
538 611
538 626
539 463
539 483
539 489
539 490
539 497
539 502
539 506
539 512
539 519
539 525
539 529
539 534
539 541
539 550
539 557
539 558
539 563
539 565
539 566
539 568
539 580
539 583
539 589
539 591
539 592
539 595
539 612
539 614
539 622
539 624
540 461
540 475
540 476
540 495
540 504
540 511
540 514
540 527
540 542
540 547
540 554
540 561
540 572
540 581
540 588
540 600
540 618
540 625
541 478
541 480
541 483
541 489
541 498
541 502
541 509
541 512
541 519
541 520
541 529
541 536
541 539
541 552
541 557
541 558
541 559
541 563
541 566
541 578
541 580
541 584
541 589
541 591
541 592
541 595
541 608
541 613
541 622
541 628
542 475
542 476
542 479
542 499
542 500
542 504
542 511
542 514
542 521
542 527
542 528
542 530
542 540
542 545
542 547
542 554
542 555
542 561
542 569
542 572
542 576
542 581
542 582
542 594
542 600
542 605
542 610
542 621
542 625
542 630
543 471
543 474
543 485
543 494
543 503
543 506
543 508
543 518
543 523
543 524
543 534
543 538
543 546
543 549
543 560
543 562
543 568
543 575
543 579
543 587
543 598
543 599
543 604
543 609
543 611
543 626
544 469
544 470
544 482
544 487
544 488
544 493
544 496
544 505
544 513
544 516
544 522
544 526
544 530
544 533
544 551
544 553
544 556
544 570
544 571
544 577
544 585
544 586
544 602
544 603
544 615
544 619
544 629
545 458
545 492
545 493
545 499
545 500
545 505
545 513
545 521
545 526
545 528
545 530
545 542
545 553
545 555
545 569
545 571
545 576
545 582
545 585
545 594
545 601
545 605
545 617
545 619
545 621
545 627
546 467
546 485
546 494
546 501
546 516
546 518
546 522
546 523
546 535
546 543
546 549
546 551
546 556
546 562
546 574
546 579
546 586
546 604
546 606
546 607
546 609
547 475
547 476
547 495
547 500
547 504
547 511
547 514
547 527
547 528
547 540
547 542
547 554
547 555
547 561
547 572
547 581
547 582
547 588
547 600
547 610
547 618
547 625
547 630
548 481
548 486
548 491
548 510
548 515
548 517
548 531
548 532
548 567
548 573
548 590
548 593
548 597
548 616
549 485
549 494
549 501
549 503
549 518
549 522
549 523
549 524
549 535
549 543
549 546
549 551
549 560
549 562
549 574
549 579
549 587
549 604
549 607
549 609
549 611
549 634
550 468
550 472
550 489
550 490
550 497
550 506
550 508
550 512
550 519
550 524
550 525
550 534
550 538
550 539
550 558
550 560
550 563
550 565
550 568
550 575
550 583
550 589
550 595
550 598
550 599
550 612
550 614
550 624
551 465
551 477
551 487
551 496
551 501
551 516
551 522
551 523
551 533
551 535
551 544
551 546
551 549
551 556
551 570
551 574
551 577
551 579
551 586
551 603
551 606
551 607
551 615
551 633
552 464
552 478
552 484
552 498
552 507
552 509
552 510
552 520
552 531
552 536
552 537
552 541
552 557
552 559
552 564
552 567
552 573
552 578
552 580
552 584
552 591
552 593
552 596
552 608
552 613
552 620
552 623
553 466
553 482
553 492
553 493
553 499
553 505
553 513
553 521
553 526
553 528
553 530
553 533
553 544
553 545
553 555
553 569
553 570
553 571
553 576
553 577
553 585
553 594
553 601
553 602
553 605
553 617
553 619
553 627
554 475
554 476
554 479
554 495
554 500
554 504
554 511
554 514
554 521
554 527
554 528
554 540
554 542
554 547
554 555
554 561
554 572
554 576
554 581
554 582
554 588
554 600
554 610
554 618
554 621
554 625
554 630
555 479
555 492
555 499
555 500
555 504
555 505
555 511
555 521
555 527
555 528
555 530
555 542
555 545
555 547
555 553
555 554
555 569
555 572
555 576
555 581
555 582
555 585
555 594
555 601
555 605
555 610
555 621
555 627
556 477
556 487
556 488
556 496
556 501
556 513
556 516
556 522
556 533
556 535
556 544
556 546
556 551
556 570
556 571
556 574
556 577
556 586
556 603
556 606
556 607
556 615
556 629
556 633
556 641
557 480
557 483
557 498
557 502
557 509
557 512
557 519
557 520
557 529
557 536
557 539
557 541
557 552
557 558
557 559
557 563
557 566
557 578
557 580
557 584
557 591
557 592
557 595
557 596
557 608
557 613
557 622
557 628
557 635
557 637
558 483
558 489
558 490
558 497
558 506
558 512
558 519
558 525
558 529
558 534
558 539
558 541
558 550
558 557
558 563
558 565
558 566
558 568
558 583
558 589
558 591
558 592
558 595
558 598
558 612
558 614
558 622
558 624
558 644
559 478
559 480
559 498
559 502
559 507
559 509
559 512
559 520
559 529
559 536
559 537
559 541
559 552
559 557
559 563
559 564
559 566
559 578
559 580
559 584
559 591
559 592
559 596
559 608
559 613
559 623
559 628
559 635
559 637
560 494
560 503
560 506
560 508
560 518
560 523
560 524
560 534
560 538
560 543
560 549
560 550
560 562
560 568
560 575
560 579
560 583
560 587
560 598
560 599
560 604
560 609
560 611
560 626
560 632
561 495
561 504
561 511
561 514
561 527
561 540
561 542
561 547
561 554
561 572
561 581
561 582
561 588
561 600
561 610
561 618
561 625
561 630
561 638
561 646
562 485
562 494
562 503
562 508
562 518
562 523
562 524
562 535
562 538
562 543
562 546
562 549
562 560
562 574
562 575
562 579
562 587
562 599
562 604
562 607
562 609
562 611
562 626
562 632
562 634
563 483
563 489
563 490
563 502
563 512
563 519
563 525
563 529
563 536
563 539
563 541
563 550
563 557
563 558
563 559
563 565
563 566
563 580
563 583
563 584
563 589
563 591
563 592
563 595
563 608
563 612
563 614
563 622
563 624
563 628
563 656
564 484
564 498
564 507
564 510
564 517
564 520
564 531
564 532
564 536
564 537
564 552
564 559
564 567
564 573
564 578
564 584
564 590
564 593
564 596
564 597
564 613
564 620
564 623
564 631
564 639
564 647
565 489
565 490
565 497
565 506
565 512
565 519
565 525
565 529
565 534
565 538
565 539
565 550
565 558
565 563
565 566
565 568
565 575
565 583
565 589
565 592
565 595
565 598
565 599
565 612
565 614
565 622
565 624
565 643
565 644
566 483
566 502
566 509
566 512
566 519
566 529
566 536
566 539
566 541
566 557
566 558
566 559
566 563
566 565
566 580
566 584
566 589
566 591
566 592
566 595
566 608
566 612
566 613
566 622
566 624
566 628
566 635
566 655
567 491
567 507
567 510
567 515
567 517
567 531
567 532
567 537
567 548
567 552
567 564
567 573
567 578
567 590
567 593
567 596
567 597
567 616
567 620
567 631
567 639
567 640
568 490
568 497
568 506
568 508
568 519
568 524
568 525
568 534
568 538
568 539
568 543
568 550
568 558
568 560
568 565
568 575
568 583
568 587
568 589
568 598
568 599
568 611
568 612
568 614
568 626
568 643
568 649
569 492
569 493
569 499
569 505
569 521
569 526
569 528
569 530
569 542
569 545
569 553
569 555
569 571
569 576
569 577
569 582
569 585
569 594
569 601
569 602
569 605
569 610
569 617
569 619
569 621
569 627
569 645
569 648
569 653
570 487
570 488
570 496
570 513
570 516
570 522
570 526
570 533
570 544
570 551
570 553
570 556
570 571
570 574
570 577
570 585
570 586
570 602
570 603
570 606
570 615
570 619
570 629
570 636
570 641
570 650
571 493
571 505
571 513
571 526
571 530
571 533
571 544
571 545
571 553
571 556
571 569
571 570
571 577
571 585
571 586
571 594
571 601
571 602
571 603
571 615
571 617
571 619
571 627
571 629
571 636
571 653
572 495
572 504
572 511
572 514
572 527
572 528
572 540
572 542
572 547
572 554
572 555
572 561
572 581
572 582
572 588
572 600
572 610
572 618
572 621
572 625
572 630
572 638
572 642
572 646
573 507
573 510
573 517
573 520
573 531
573 532
573 537
573 548
573 552
573 564
573 567
573 578
573 590
573 593
573 596
573 597
573 616
573 620
573 623
573 631
573 639
573 640
573 647
573 658
574 501
574 516
574 522
574 523
574 535
574 546
574 549
574 551
574 556
574 562
574 570
574 579
574 586
574 603
574 604
574 606
574 607
574 609
574 615
574 633
574 634
574 641
574 654
575 503
575 506
575 508
575 518
575 524
575 525
575 534
575 538
575 543
575 550
575 560
575 562
575 565
575 568
575 583
575 587
575 598
575 599
575 604
575 611
575 614
575 626
575 632
575 643
575 649
575 651
576 499
576 500
576 521
576 528
576 530
576 542
576 545
576 553
576 554
576 555
576 569
576 581
576 582
576 585
576 594
576 601
576 605
576 610
576 617
576 621
576 627
576 630
576 642
576 645
576 648
576 652
576 659
577 496
577 513
577 516
577 526
577 533
577 544
577 551
577 553
577 556
577 569
577 570
577 571
577 585
577 586
577 601
577 602
577 603
577 606
577 615
577 617
577 619
577 629
577 636
577 650
578 498
578 507
578 509
578 520
578 531
578 536
578 537
578 541
578 552
578 557
578 559
578 564
578 567
578 573
578 580
578 584
578 591
578 593
578 596
578 597
578 608
578 613
578 620
578 623
578 631
578 635
578 637
578 639
578 647
578 657
579 494
579 501
579 518
579 523
579 535
579 543
579 546
579 549
579 551
579 560
579 562
579 574
579 587
579 604
579 606
579 607
579 609
579 611
579 632
579 633
579 634
579 654
579 665
580 502
580 509
580 512
580 520
580 529
580 536
580 539
580 541
580 552
580 557
580 559
580 563
580 566
580 578
580 584
580 591
580 592
580 595
580 596
580 608
580 613
580 622
580 623
580 624
580 628
580 635
580 637
580 655
580 657
581 504
581 511
581 514
581 527
581 528
581 540
581 542
581 547
581 554
581 555
581 561
581 572
581 576
581 582
581 588
581 594
581 600
581 605
581 610
581 618
581 621
581 625
581 630
581 638
581 642
581 646
581 652
581 659
582 500
582 504
582 511
582 521
582 527
582 528
582 530
582 542
582 545
582 547
582 554
582 555
582 561
582 569
582 572
582 576
582 581
582 594
582 600
582 601
582 605
582 610
582 621
582 625
582 627
582 630
582 642
582 645
582 646
582 652
582 659
583 497
583 506
583 519
583 525
583 534
583 538
583 539
583 550
583 558
583 560
583 563
583 565
583 568
583 575
583 589
583 592
583 595
583 598
583 599
583 612
583 614
583 622
583 624
583 626
583 643
583 644
583 649
583 660
583 661
583 662
584 509
584 520
584 529
584 536
584 537
584 541
584 552
584 557
584 559
584 563
584 564
584 566
584 578
584 580
584 591
584 592
584 595
584 596
584 608
584 613
584 622
584 623
584 628
584 635
584 637
584 647
584 655
584 657
584 667
585 493
585 505
585 513
585 521
585 526
585 530
585 544
585 545
585 553
585 555
585 569
585 570
585 571
585 576
585 577
585 594
585 601
585 602
585 603
585 605
585 617
585 619
585 627
585 629
585 636
585 645
585 648
585 653
586 516
586 522
586 533
586 535
586 544
586 546
586 551
586 556
586 570
586 571
586 574
586 577
586 602
586 603
586 606
586 607
586 615
586 629
586 633
586 636
586 641
586 650
586 664
587 503
587 508
587 518
587 523
587 524
587 534
587 538
587 543
587 549
587 560
587 562
587 568
587 575
587 579
587 598
587 599
587 604
587 609
587 611
587 626
587 632
587 634
587 649
587 651
587 663
588 514
588 527
588 540
588 547
588 554
588 561
588 572
588 581
588 600
588 618
588 625
588 630
588 638
588 646
588 668
589 512
589 519
589 525
589 529
589 534
589 539
589 541
589 550
589 558
589 563
589 565
589 566
589 568
589 583
589 591
589 592
589 595
589 598
589 612
589 614
589 622
589 624
589 628
589 643
589 644
589 656
589 660
589 661
590 515
590 517
590 531
590 532
590 548
590 564
590 567
590 573
590 593
590 597
590 616
590 620
590 631
590 640
590 666
591 509
591 512
591 529
591 536
591 539
591 541
591 552
591 557
591 558
591 559
591 563
591 566
591 578
591 580
591 584
591 589
591 592
591 595
591 596
591 608
591 612
591 613
591 622
591 623
591 624
591 628
591 635
591 637
591 655
591 656
591 657
591 667
591 673
592 512
592 519
592 529
592 536
592 539
592 541
592 557
592 558
592 559
592 563
592 565
592 566
592 580
592 583
592 584
592 589
592 591
592 595
592 608
592 612
592 613
592 622
592 624
592 628
592 635
592 637
592 644
592 655
592 656
592 661
592 673
593 510
593 517
593 531
593 532
593 537
593 548
593 552
593 564
593 567
593 573
593 578
593 590
593 596
593 597
593 613
593 616
593 620
593 623
593 631
593 639
593 640
593 647
593 658
593 671
593 672
594 521
594 526
594 528
594 530
594 542
594 545
594 553
594 555
594 569
594 571
594 576
594 581
594 582
594 585
594 601
594 602
594 605
594 610
594 617
594 619
594 621
594 627
594 642
594 645
594 648
594 652
594 653
594 659
594 669
594 675
594 676
595 512
595 519
595 529
595 539
595 541
595 550
595 557
595 558
595 563
595 565
595 566
595 580
595 583
595 584
595 589
595 591
595 592
595 608
595 612
595 614
595 622
595 624
595 628
595 635
595 644
595 655
595 656
595 661
596 520
596 531
596 536
596 537
596 552
596 557
596 559
596 564
596 567
596 573
596 578
596 580
596 584
596 591
596 593
596 597
596 608
596 613
596 620
596 623
596 631
596 635
596 637
596 639
596 647
596 657
596 658
596 667
596 672
597 517
597 531
597 532
597 537
597 548
597 564
597 567
597 573
597 578
597 590
597 593
597 596
597 616
597 620
597 623
597 631
597 639
597 640
597 647
597 658
597 666
597 671
598 525
598 534
598 538
598 543
598 550
598 558
598 560
598 565
598 568
598 575
598 583
598 587
598 589
598 599
598 611
598 612
598 614
598 624
598 626
598 643
598 644
598 649
598 651
598 660
598 661
598 662
599 524
599 534
599 538
599 543
599 550
599 560
599 562
599 565
599 568
599 575
599 583
599 587
599 598
599 604
599 611
599 612
599 614
599 626
599 632
599 643
599 649
599 651
599 660
599 662
599 663
600 527
600 540
600 542
600 547
600 554
600 561
600 572
600 581
600 582
600 588
600 610
600 618
600 621
600 625
600 630
600 638
600 642
600 646
600 659
600 668
600 674
601 521
601 526
601 530
601 545
601 553
601 555
601 569
601 571
601 576
601 577
601 582
601 585
601 594
601 602
601 605
601 610
601 617
601 619
601 621
601 627
601 636
601 645
601 648
601 652
601 653
601 669
601 675
601 676
602 526
602 533
602 544
602 553
602 569
602 570
602 571
602 577
602 585
602 586
602 594
602 601
602 603
602 615
602 617
602 619
602 627
602 629
602 636
602 648
602 650
602 653
602 664
602 669
602 670
603 533
603 544
603 551
603 556
603 570
603 571
603 574
603 577
603 585
603 586
603 602
603 606
603 615
603 617
603 619
603 629
603 633
603 636
603 641
603 650
603 664
603 670
604 518
604 523
604 524
604 538
604 543
604 546
604 549
604 560
604 562
604 574
604 575
604 579
604 587
604 599
604 607
604 609
604 611
604 626
604 632
604 634
604 649
604 651
604 654
604 663
604 665
605 521
605 528
605 530
605 542
605 545
605 553
605 555
605 569
605 576
605 581
605 582
605 585
605 594
605 601
605 610
605 617
605 619
605 621
605 627
605 630
605 642
605 645
605 648
605 652
605 653
605 659
605 669
605 675
605 676
605 677
606 522
606 535
606 546
606 551
606 556
606 570
606 574
606 577
606 579
606 586
606 603
606 607
606 609
606 615
606 629
606 633
606 634
606 641
606 650
606 654
606 664
607 535
607 546
607 549
607 551
607 556
607 562
607 574
607 579
607 586
607 604
607 606
607 609
607 615
607 632
607 633
607 634
607 641
607 654
607 665
608 529
608 536
608 541
608 552
608 557
608 559
608 563
608 566
608 578
608 580
608 584
608 591
608 592
608 595
608 596
608 613
608 622
608 623
608 624
608 628
608 635
608 637
608 647
608 655
608 656
608 657
608 667
608 672
608 673
609 523
609 535
609 543
609 546
609 549
609 560
609 562
609 574
609 579
609 587
609 604
609 606
609 607
609 611
609 632
609 633
609 634
609 651
609 654
609 663
609 665
610 528
610 542
610 547
610 554
610 555
610 561
610 569
610 572
610 576
610 581
610 582
610 594
610 600
610 601
610 605
610 618
610 621
610 625
610 627
610 630
610 638
610 642
610 645
610 646
610 648
610 652
610 659
610 675
610 676
610 677
611 524
611 538
611 543
611 549
611 560
611 562
611 568
611 575
611 579
611 587
611 598
611 599
611 604
611 609
611 626
611 632
611 634
611 643
611 649
611 651
611 662
611 663
611 665
612 539
612 550
612 558
612 563
612 565
612 566
612 568
612 583
612 589
612 591
612 592
612 595
612 598
612 599
612 614
612 622
612 624
612 626
612 628
612 643
612 644
612 649
612 655
612 656
612 660
612 661
612 662
613 536
613 541
613 552
613 557
613 559
613 564
613 566
613 578
613 580
613 584
613 591
613 592
613 593
613 596
613 608
613 620
613 622
613 623
613 628
613 635
613 637
613 639
613 647
613 655
613 657
613 667
613 672
613 673
614 525
614 534
614 539
614 550
614 558
614 563
614 565
614 568
614 575
614 583
614 589
614 595
614 598
614 599
614 612
614 622
614 624
614 626
614 643
614 644
614 649
614 651
614 656
614 660
614 661
614 662
615 533
615 544
615 551
615 556
615 570
615 571
615 574
615 577
615 586
615 602
615 603
615 606
615 607
615 619
615 629
615 633
615 636
615 641
615 650
615 654
615 664
615 670
616 532
616 548
616 567
616 573
616 590
616 593
616 597
616 620
616 631
616 639
616 640
616 658
616 666
616 671
617 530
617 545
617 553
617 569
617 571
617 576
617 577
617 585
617 594
617 601
617 602
617 603
617 605
617 619
617 621
617 627
617 629
617 636
617 645
617 648
617 652
617 653
617 669
617 670
617 675
617 676
618 540
618 547
618 554
618 561
618 572
618 581
618 588
618 600
618 610
618 625
618 630
618 638
618 642
618 646
618 668
618 674
619 544
619 545
619 553
619 569
619 570
619 571
619 577
619 585
619 594
619 601
619 602
619 603
619 605
619 615
619 617
619 627
619 629
619 636
619 645
619 648
619 650
619 653
619 664
619 669
619 670
619 676
620 531
620 537
620 552
620 564
620 567
620 573
620 578
620 590
620 593
620 596
620 597
620 613
620 616
620 623
620 631
620 637
620 639
620 640
620 647
620 657
620 658
620 666
620 671
620 672
621 542
621 545
621 554
621 555
621 569
621 572
621 576
621 581
621 582
621 594
621 600
621 601
621 605
621 610
621 617
621 625
621 627
621 630
621 642
621 645
621 646
621 648
621 652
621 659
621 669
621 675
621 676
621 677
622 539
622 541
622 557
622 558
622 563
622 565
622 566
622 580
622 583
622 584
622 589
622 591
622 592
622 595
622 608
622 612
622 613
622 614
622 624
622 628
622 635
622 637
622 643
622 644
622 655
622 656
622 660
622 661
622 667
622 673
623 537
623 552
623 559
623 564
623 573
623 578
623 580
623 584
623 591
623 593
623 596
623 597
623 608
623 613
623 620
623 628
623 631
623 635
623 637
623 639
623 647
623 657
623 658
623 667
623 671
623 672
623 673
624 539
624 550
624 558
624 563
624 565
624 566
624 580
624 583
624 589
624 591
624 592
624 595
624 598
624 608
624 612
624 614
624 622
624 628
624 635
624 643
624 644
624 655
624 656
624 660
624 661
624 662
624 673
625 540
625 542
625 547
625 554
625 561
625 572
625 581
625 582
625 588
625 600
625 610
625 618
625 621
625 630
625 638
625 642
625 646
625 652
625 659
625 668
625 674
625 677
626 538
626 543
626 560
626 562
626 568
626 575
626 583
626 587
626 598
626 599
626 604
626 611
626 612
626 614
626 632
626 643
626 644
626 649
626 651
626 660
626 662
626 663
627 545
627 553
627 555
627 569
627 571
627 576
627 582
627 585
627 594
627 601
627 602
627 605
627 610
627 617
627 619
627 621
627 636
627 642
627 645
627 648
627 652
627 653
627 659
627 669
627 670
627 675
627 676
627 677
628 541
628 557
628 559
628 563
628 566
628 580
628 584
628 589
628 591
628 592
628 595
628 608
628 612
628 613
628 622
628 623
628 624
628 635
628 637
628 644
628 655
628 656
628 657
628 661
628 667
628 673
629 544
629 556
629 570
629 571
629 577
629 585
629 586
629 602
629 603
629 606
629 615
629 617
629 619
629 633
629 636
629 641
629 650
629 653
629 664
629 670
630 542
630 547
630 554
630 561
630 572
630 576
630 581
630 582
630 588
630 600
630 605
630 610
630 618
630 621
630 625
630 638
630 642
630 645
630 646
630 652
630 659
630 668
630 674
630 675
630 677
631 564
631 567
631 573
631 578
631 590
631 593
631 596
631 597
631 616
631 620
631 623
631 639
631 640
631 647
631 657
631 658
631 666
631 671
631 672
632 560
632 562
632 575
632 579
632 587
632 599
632 604
632 607
632 609
632 611
632 626
632 634
632 649
632 651
632 654
632 663
632 665
633 551
633 556
633 574
633 579
633 586
633 603
633 606
633 607
633 609
633 615
633 629
633 634
633 641
633 650
633 654
633 664
633 665
634 549
634 562
634 574
634 579
634 587
634 604
634 606
634 607
634 609
634 611
634 632
634 633
634 651
634 654
634 663
634 665
635 557
635 559
635 566
635 578
635 580
635 584
635 591
635 592
635 595
635 596
635 608
635 613
635 622
635 623
635 624
635 628
635 637
635 647
635 655
635 656
635 657
635 667
635 672
635 673
636 570
636 571
636 577
636 585
636 586
636 601
636 602
636 603
636 615
636 617
636 619
636 627
636 629
636 641
636 648
636 650
636 653
636 664
636 669
636 670
637 557
637 559
637 578
637 580
637 584
637 591
637 592
637 596
637 608
637 613
637 620
637 622
637 623
637 628
637 635
637 639
637 647
637 655
637 656
637 657
637 667
637 672
637 673
638 561
638 572
638 581
638 588
638 600
638 610
638 618
638 625
638 630
638 642
638 646
638 659
638 668
638 674
639 564
639 567
639 573
639 578
639 593
639 596
639 597
639 613
639 616
639 620
639 623
639 631
639 637
639 640
639 647
639 657
639 658
639 666
639 667
639 671
639 672
640 567
640 573
640 590
640 593
640 597
640 616
640 620
640 631
640 639
640 658
640 666
640 671
641 556
641 570
641 574
641 586
641 603
641 606
641 607
641 615
641 629
641 633
641 636
641 650
641 654
641 664
641 670
642 572
642 576
642 581
642 582
642 594
642 600
642 605
642 610
642 618
642 621
642 625
642 627
642 630
642 638
642 645
642 646
642 648
642 652
642 659
642 668
642 674
642 675
642 676
642 677
643 565
643 568
643 575
643 583
643 589
643 598
643 599
643 611
643 612
643 614
643 622
643 624
643 626
643 644
643 649
643 651
643 656
643 660
643 661
643 662
644 558
644 565
644 583
644 589
644 592
644 595
644 598
644 612
644 614
644 622
644 624
644 626
644 628
644 643
644 649
644 655
644 656
644 660
644 661
644 662
645 569
645 576
645 582
645 585
645 594
645 601
645 605
645 610
645 617
645 619
645 621
645 627
645 630
645 642
645 646
645 648
645 652
645 653
645 659
645 669
645 675
645 676
645 677
646 561
646 572
646 581
646 582
646 588
646 600
646 610
646 618
646 621
646 625
646 630
646 638
646 642
646 645
646 652
646 659
646 668
646 674
646 675
646 677
647 564
647 573
647 578
647 584
647 593
647 596
647 597
647 608
647 613
647 620
647 623
647 631
647 635
647 637
647 639
647 657
647 658
647 667
647 671
647 672
647 673
648 569
648 576
648 585
648 594
648 601
648 602
648 605
648 610
648 617
648 619
648 621
648 627
648 636
648 642
648 645
648 652
648 653
648 659
648 669
648 670
648 675
648 676
648 677
649 568
649 575
649 583
649 587
649 598
649 599
649 604
649 611
649 612
649 614
649 626
649 632
649 643
649 644
649 651
649 660
649 661
649 662
649 663
650 570
650 577
650 586
650 602
650 603
650 606
650 615
650 619
650 629
650 633
650 636
650 641
650 654
650 664
650 670
651 575
651 587
651 598
651 599
651 604
651 609
651 611
651 614
651 626
651 632
651 634
651 643
651 649
651 660
651 662
651 663
651 665
652 576
652 581
652 582
652 594
652 601
652 605
652 610
652 617
652 621
652 625
652 627
652 630
652 642
652 645
652 646
652 648
652 653
652 659
652 669
652 674
652 675
652 676
652 677
653 569
653 571
653 585
653 594
653 601
653 602
653 605
653 617
653 619
653 627
653 629
653 636
653 645
653 648
653 652
653 664
653 669
653 670
653 675
653 676
654 574
654 579
654 604
654 606
654 607
654 609
654 615
654 632
654 633
654 634
654 641
654 650
654 663
654 665
655 566
655 580
655 584
655 591
655 592
655 595
655 608
655 612
655 613
655 622
655 624
655 628
655 635
655 637
655 644
655 656
655 657
655 661
655 667
655 673
656 563
656 589
656 591
656 592
656 595
656 608
656 612
656 614
656 622
656 624
656 628
656 635
656 637
656 643
656 644
656 655
656 660
656 661
656 667
656 673
657 578
657 580
657 584
657 591
657 596
657 608
657 613
657 620
657 623
657 628
657 631
657 635
657 637
657 639
657 647
657 655
657 658
657 667
657 672
657 673
658 573
658 593
658 596
658 597
658 616
658 620
658 623
658 631
658 639
658 640
658 647
658 657
658 666
658 671
658 672
659 576
659 581
659 582
659 594
659 600
659 605
659 610
659 621
659 625
659 627
659 630
659 638
659 642
659 645
659 646
659 648
659 652
659 669
659 674
659 675
659 676
659 677
660 583
660 589
660 598
660 599
660 612
660 614
660 622
660 624
660 626
660 643
660 644
660 649
660 651
660 656
660 661
660 662
661 583
661 589
661 592
661 595
661 598
661 612
661 614
661 622
661 624
661 628
661 643
661 644
661 649
661 655
661 656
661 660
661 662
661 673
662 583
662 598
662 599
662 611
662 612
662 614
662 624
662 626
662 643
662 644
662 649
662 651
662 660
662 661
662 663
663 587
663 599
663 604
663 609
663 611
663 626
663 632
663 634
663 649
663 651
663 654
663 662
663 665
664 586
664 602
664 603
664 606
664 615
664 619
664 629
664 633
664 636
664 641
664 650
664 653
664 670
665 579
665 604
665 607
665 609
665 611
665 632
665 633
665 634
665 651
665 654
665 663
666 590
666 597
666 616
666 620
666 631
666 639
666 640
666 658
666 671
667 584
667 591
667 596
667 608
667 613
667 622
667 623
667 628
667 635
667 637
667 639
667 647
667 655
667 656
667 657
667 672
667 673
668 588
668 600
668 618
668 625
668 630
668 638
668 642
668 646
668 674
669 594
669 601
669 602
669 605
669 617
669 619
669 621
669 627
669 636
669 645
669 648
669 652
669 653
669 659
669 670
669 675
669 676
669 677
670 602
670 603
670 615
670 617
670 619
670 627
670 629
670 636
670 641
670 648
670 650
670 653
670 664
670 669
671 593
671 597
671 616
671 620
671 623
671 631
671 639
671 640
671 647
671 658
671 666
671 672
672 593
672 596
672 608
672 613
672 620
672 623
672 631
672 635
672 637
672 639
672 647
672 657
672 658
672 667
672 671
672 673
673 591
673 592
673 608
673 613
673 622
673 623
673 624
673 628
673 635
673 637
673 647
673 655
673 656
673 657
673 661
673 667
673 672
674 600
674 618
674 625
674 630
674 638
674 642
674 646
674 652
674 659
674 668
674 677
675 594
675 601
675 605
675 610
675 617
675 621
675 627
675 630
675 642
675 645
675 646
675 648
675 652
675 653
675 659
675 669
675 676
675 677
676 594
676 601
676 605
676 610
676 617
676 619
676 621
676 627
676 642
676 645
676 648
676 652
676 653
676 659
676 669
676 675
676 677
677 605
677 610
677 621
677 625
677 627
677 630
677 642
677 645
677 646
677 648
677 652
677 659
677 669
677 674
677 675
677 676
