1 5
1 18
1 19
1 31
1 41
1 47
1 57
2 3
2 10
2 14
2 21
2 22
2 32
2 34
2 36
2 48
2 64
3 2
3 10
3 22
3 25
3 32
3 34
3 48
3 54
3 67
3 71
4 6
4 14
4 20
4 26
4 27
4 33
4 37
4 38
4 56
4 58
4 60
4 61
4 70
5 1
5 18
5 29
5 31
5 41
5 47
5 57
6 4
6 7
6 20
6 26
6 27
6 33
6 38
6 51
6 56
6 58
6 60
6 70
7 6
7 9
7 12
7 23
7 26
7 33
7 50
7 51
7 53
8 24
8 25
8 39
8 40
8 42
8 54
9 7
9 12
9 13
9 16
9 23
9 44
9 50
9 51
9 53
9 59
9 73
9 78
10 2
10 3
10 14
10 20
10 21
10 22
10 32
10 34
10 36
10 37
10 48
10 64
10 66
11 17
11 19
11 28
11 30
11 43
11 45
11 46
11 55
11 62
11 68
12 7
12 9
12 13
12 16
12 23
12 35
12 44
12 50
12 53
12 59
12 73
12 78
13 9
13 12
13 15
13 16
13 23
13 35
13 44
13 49
13 50
13 53
13 59
14 2
14 4
14 10
14 20
14 21
14 27
14 32
14 36
14 37
14 38
14 58
14 61
14 66
14 81
15 13
15 16
15 29
15 35
15 44
15 49
15 52
15 65
15 69
15 83
16 9
16 12
16 13
16 15
16 29
16 35
16 44
16 49
16 50
16 52
16 59
16 69
16 87
17 11
17 28
17 30
17 43
17 46
17 55
17 62
17 74
18 1
18 5
18 19
18 31
18 41
18 45
18 47
18 57
18 63
18 75
19 1
19 11
19 18
19 28
19 30
19 41
19 45
19 46
19 57
19 62
19 63
19 68
20 4
20 6
20 10
20 14
20 21
20 26
20 27
20 36
20 37
20 38
20 58
20 60
20 61
20 70
20 81
21 2
21 10
21 14
21 20
21 22
21 32
21 34
21 36
21 37
21 38
21 48
21 61
21 64
21 66
21 81
21 88
21 89
22 2
22 3
22 10
22 21
22 32
22 34
22 36
22 48
22 54
22 64
22 67
22 71
22 82
23 7
23 9
23 12
23 13
23 33
23 50
23 51
23 53
23 59
23 73
23 78
24 8
24 25
24 39
24 40
24 42
24 54
24 72
24 77
24 85
24 86
25 3
25 8
25 24
25 34
25 39
25 40
25 42
25 54
25 67
25 72
25 77
25 85
25 86
26 4
26 6
26 7
26 20
26 27
26 33
26 38
26 51
26 56
26 58
26 60
26 70
26 76
26 84
26 99
27 4
27 6
27 14
27 20
27 26
27 33
27 37
27 38
27 56
27 58
27 60
27 61
27 70
27 76
27 84
27 91
28 11
28 17
28 19
28 30
28 41
28 43
28 45
28 46
28 62
28 63
28 68
28 80
28 95
29 5
29 15
29 16
29 31
29 35
29 49
29 52
29 65
29 69
29 79
29 83
29 90
30 11
30 17
30 19
30 28
30 43
30 45
30 46
30 55
30 62
30 68
30 74
30 80
30 93
30 95
31 1
31 5
31 18
31 29
31 41
31 47
31 57
31 65
31 75
31 79
31 90
31 107
32 2
32 3
32 10
32 14
32 21
32 22
32 34
32 36
32 37
32 48
32 61
32 64
32 66
32 71
32 81
32 82
32 88
32 89
32 106
32 108
33 4
33 6
33 7
33 23
33 26
33 27
33 38
33 51
33 56
33 58
33 60
33 70
33 76
33 84
33 94
33 99
34 2
34 3
34 10
34 21
34 22
34 25
34 32
34 36
34 48
34 54
34 64
34 67
34 71
34 72
34 82
34 88
34 96
34 102
34 106
35 12
35 13
35 15
35 16
35 29
35 44
35 49
35 50
35 52
35 59
35 69
35 78
35 83
35 87
35 92
36 2
36 10
36 14
36 20
36 21
36 22
36 32
36 34
36 37
36 38
36 48
36 58
36 61
36 64
36 66
36 81
36 82
36 88
36 89
36 108
37 4
37 10
37 14
37 20
37 21
37 27
37 32
37 36
37 38
37 58
37 60
37 61
37 64
37 66
37 70
37 81
37 88
37 89
37 91
37 114
38 4
38 6
38 14
38 20
38 21
38 26
38 27
38 33
38 36
38 37
38 56
38 58
38 60
38 61
38 66
38 70
38 81
38 84
38 89
38 91
38 105
38 114
39 8
39 24
39 25
39 40
39 42
39 54
39 77
39 85
39 86
39 97
40 8
40 24
40 25
40 39
40 42
40 54
40 72
40 77
40 85
40 86
40 97
41 1
41 5
41 18
41 19
41 28
41 31
41 45
41 46
41 47
41 57
41 63
41 68
41 75
41 101
41 103
42 8
42 24
42 25
42 39
42 40
42 54
42 67
42 72
42 77
42 85
42 86
42 97
43 11
43 17
43 28
43 30
43 45
43 46
43 55
43 62
43 68
43 74
43 80
43 93
43 95
43 111
44 9
44 12
44 13
44 15
44 16
44 35
44 49
44 50
44 53
44 59
44 69
44 73
44 78
44 87
44 92
44 98
44 104
44 113
45 11
45 18
45 19
45 28
45 30
45 41
45 43
45 46
45 57
45 62
45 63
45 68
45 80
45 95
45 101
46 11
46 17
46 19
46 28
46 30
46 41
46 43
46 45
46 55
46 62
46 63
46 68
46 74
46 80
46 93
46 95
46 101
46 111
47 1
47 5
47 18
47 31
47 41
47 57
47 63
47 75
47 79
47 90
47 103
47 107
48 2
48 3
48 10
48 21
48 22
48 32
48 34
48 36
48 54
48 64
48 66
48 67
48 71
48 72
48 82
48 88
48 89
48 96
48 102
48 106
48 108
48 117
49 13
49 15
49 16
49 29
49 35
49 44
49 52
49 59
49 65
49 69
49 79
49 83
49 87
49 92
49 110
49 115
50 7
50 9
50 12
50 13
50 16
50 23
50 35
50 44
50 53
50 59
50 73
50 78
50 87
50 92
50 98
50 100
50 104
50 113
51 6
51 7
51 9
51 23
51 26
51 33
51 53
51 56
51 60
51 73
51 76
51 84
51 94
51 98
51 99
51 100
51 116
51 119
51 122
52 15
52 16
52 29
52 35
52 49
52 65
52 69
52 79
52 83
52 90
52 92
52 109
52 110
52 115
52 126
53 7
53 9
53 12
53 13
53 23
53 44
53 50
53 51
53 59
53 73
53 78
53 94
53 98
53 100
53 104
53 116
53 122
54 3
54 8
54 22
54 24
54 25
54 34
54 39
54 40
54 42
54 48
54 67
54 71
54 72
54 77
54 82
54 85
54 86
54 96
54 102
54 112
54 120
54 127
55 11
55 17
55 30
55 43
55 46
55 62
55 74
55 80
55 93
55 111
56 4
56 6
56 26
56 27
56 33
56 38
56 51
56 58
56 60
56 70
56 76
56 84
56 91
56 94
56 99
56 100
56 105
56 116
56 119
57 1
57 5
57 18
57 19
57 31
57 41
57 45
57 47
57 63
57 75
57 90
57 101
57 103
57 107
57 121
57 123
57 124
58 4
58 6
58 14
58 20
58 26
58 27
58 33
58 36
58 37
58 38
58 56
58 60
58 61
58 66
58 70
58 76
58 81
58 84
58 89
58 91
58 99
58 105
58 114
58 128
58 129
59 9
59 12
59 13
59 16
59 23
59 35
59 44
59 49
59 50
59 53
59 69
59 73
59 78
59 87
59 92
59 98
59 104
59 113
60 4
60 6
60 20
60 26
60 27
60 33
60 37
60 38
60 51
60 56
60 58
60 61
60 70
60 76
60 81
60 84
60 91
60 94
60 99
60 105
60 119
60 128
60 129
61 4
61 14
61 20
61 21
61 27
61 32
61 36
61 37
61 38
61 58
61 60
61 64
61 66
61 70
61 81
61 84
61 88
61 89
61 91
61 105
61 108
61 114
61 128
61 133
62 11
62 17
62 19
62 28
62 30
62 43
62 45
62 46
62 55
62 63
62 68
62 74
62 80
62 93
62 95
62 101
62 111
62 131
63 18
63 19
63 28
63 41
63 45
63 46
63 47
63 57
63 62
63 68
63 75
63 95
63 101
63 103
63 121
63 124
64 2
64 10
64 21
64 22
64 32
64 34
64 36
64 37
64 48
64 61
64 66
64 67
64 71
64 81
64 82
64 88
64 89
64 96
64 102
64 106
64 108
64 117
64 132
65 15
65 29
65 31
65 49
65 52
65 69
65 79
65 83
65 90
65 92
65 107
65 109
65 110
65 115
65 125
65 126
66 10
66 14
66 21
66 32
66 36
66 37
66 38
66 48
66 58
66 61
66 64
66 71
66 81
66 82
66 88
66 89
66 91
66 106
66 108
66 114
66 132
66 133
67 3
67 22
67 25
67 34
67 42
67 48
67 54
67 64
67 71
67 72
67 82
67 85
67 86
67 96
67 102
67 106
67 112
67 117
67 120
67 127
67 135
68 11
68 19
68 28
68 30
68 41
68 43
68 45
68 46
68 62
68 63
68 74
68 80
68 93
68 95
68 101
68 111
68 124
68 131
69 15
69 16
69 29
69 35
69 44
69 49
69 52
69 59
69 65
69 79
69 83
69 87
69 92
69 109
69 110
69 113
69 115
69 126
69 130
69 137
70 4
70 6
70 20
70 26
70 27
70 33
70 37
70 38
70 56
70 58
70 60
70 61
70 76
70 81
70 84
70 91
70 94
70 99
70 105
70 114
70 119
70 128
70 129
70 133
70 141
71 3
71 22
71 32
71 34
71 48
71 54
71 64
71 66
71 67
71 72
71 82
71 85
71 88
71 96
71 102
71 106
71 108
71 112
71 117
71 135
72 24
72 25
72 34
72 40
72 42
72 48
72 54
72 67
72 71
72 77
72 82
72 85
72 86
72 96
72 102
72 112
72 117
72 118
72 120
72 127
72 135
72 144
73 9
73 12
73 23
73 44
73 50
73 51
73 53
73 59
73 76
73 78
73 87
73 94
73 98
73 100
73 104
73 113
73 116
73 122
73 134
73 138
74 17
74 30
74 43
74 46
74 55
74 62
74 68
74 80
74 93
74 95
74 111
75 18
75 31
75 41
75 47
75 57
75 63
75 79
75 90
75 101
75 103
75 107
75 109
75 121
75 123
75 124
75 125
75 143
75 150
76 26
76 27
76 33
76 51
76 56
76 58
76 60
76 70
76 73
76 84
76 91
76 94
76 99
76 100
76 105
76 116
76 119
76 122
76 129
76 139
76 140
76 141
77 24
77 25
77 39
77 40
77 42
77 54
77 72
77 85
77 86
77 97
77 112
77 118
77 120
77 127
77 136
77 146
78 9
78 12
78 23
78 35
78 44
78 50
78 53
78 59
78 73
78 87
78 92
78 98
78 100
78 104
78 113
78 122
78 134
78 138
79 29
79 31
79 47
79 49
79 52
79 65
79 69
79 75
79 83
79 90
79 107
79 109
79 110
79 115
79 123
79 125
79 126
79 137
79 143
79 148
79 152
80 28
80 30
80 43
80 45
80 46
80 55
80 62
80 68
80 74
80 93
80 95
80 101
80 111
80 131
81 14
81 20
81 21
81 32
81 36
81 37
81 38
81 58
81 60
81 61
81 64
81 66
81 70
81 84
81 88
81 89
81 91
81 105
81 106
81 108
81 114
81 128
81 132
81 133
81 142
81 156
82 22
82 32
82 34
82 36
82 48
82 54
82 64
82 66
82 67
82 71
82 72
82 88
82 89
82 96
82 102
82 106
82 108
82 112
82 117
82 132
82 135
83 15
83 29
83 35
83 49
83 52
83 65
83 69
83 79
83 87
83 90
83 92
83 109
83 110
83 115
83 125
83 126
83 130
83 137
83 148
83 153
84 26
84 27
84 33
84 38
84 51
84 56
84 58
84 60
84 61
84 70
84 76
84 81
84 91
84 94
84 99
84 105
84 114
84 116
84 119
84 128
84 129
84 140
84 141
84 154
85 24
85 25
85 39
85 40
85 42
85 54
85 67
85 71
85 72
85 77
85 86
85 96
85 97
85 102
85 112
85 118
85 120
85 127
85 135
85 136
85 144
86 24
86 25
86 39
86 40
86 42
86 54
86 67
86 72
86 77
86 85
86 97
86 102
86 112
86 118
86 120
86 127
86 136
86 144
86 146
87 16
87 35
87 44
87 49
87 50
87 59
87 69
87 73
87 78
87 83
87 92
87 98
87 104
87 113
87 115
87 130
87 134
87 145
87 147
88 21
88 32
88 34
88 36
88 37
88 48
88 61
88 64
88 66
88 71
88 81
88 82
88 89
88 96
88 106
88 108
88 114
88 117
88 132
88 133
88 159
89 21
89 32
89 36
89 37
89 38
89 48
89 58
89 61
89 64
89 66
89 81
89 82
89 88
89 91
89 105
89 106
89 108
89 114
89 128
89 132
89 133
89 142
89 157
90 29
90 31
90 47
90 52
90 57
90 65
90 75
90 79
90 83
90 103
90 107
90 109
90 110
90 121
90 123
90 125
90 126
90 143
90 150
90 152
91 27
91 37
91 38
91 56
91 58
91 60
91 61
91 66
91 70
91 76
91 81
91 84
91 89
91 99
91 105
91 114
91 119
91 128
91 129
91 132
91 133
91 141
91 142
91 154
91 156
92 35
92 44
92 49
92 50
92 52
92 59
92 65
92 69
92 78
92 83
92 87
92 104
92 110
92 113
92 115
92 126
92 130
92 137
92 145
92 147
92 153
93 30
93 43
93 46
93 55
93 62
93 68
93 74
93 80
93 95
93 111
93 131
94 33
94 51
94 53
94 56
94 60
94 70
94 73
94 76
94 84
94 98
94 99
94 100
94 105
94 116
94 119
94 122
94 129
94 138
94 139
94 140
94 141
94 149
94 155
95 28
95 30
95 43
95 45
95 46
95 62
95 63
95 68
95 74
95 80
95 93
95 101
95 111
95 124
95 131
95 161
96 34
96 48
96 54
96 64
96 67
96 71
96 72
96 82
96 85
96 88
96 102
96 106
96 108
96 112
96 117
96 127
96 135
96 158
96 160
97 39
97 40
97 42
97 77
97 85
97 86
97 118
97 120
97 127
97 136
97 144
97 146
97 163
98 44
98 50
98 51
98 53
98 59
98 73
98 78
98 87
98 94
98 100
98 104
98 113
98 116
98 122
98 134
98 138
98 139
98 149
99 26
99 33
99 51
99 56
99 58
99 60
99 70
99 76
99 84
99 91
99 94
99 100
99 105
99 116
99 119
99 122
99 128
99 129
99 139
99 140
99 141
99 154
99 155
99 167
100 50
100 51
100 53
100 56
100 73
100 76
100 78
100 94
100 98
100 99
100 104
100 116
100 119
100 122
100 134
100 138
100 139
100 140
100 149
101 41
101 45
101 46
101 57
101 62
101 63
101 68
101 75
101 80
101 95
101 103
101 111
101 121
101 123
101 124
101 131
101 151
101 161
101 168
102 34
102 48
102 54
102 64
102 67
102 71
102 72
102 82
102 85
102 86
102 96
102 106
102 112
102 117
102 120
102 127
102 135
102 144
102 158
102 160
102 166
103 41
103 47
103 57
103 63
103 75
103 90
103 101
103 107
103 121
103 123
103 124
103 125
103 143
103 150
103 151
103 168
104 44
104 50
104 53
104 59
104 73
104 78
104 87
104 92
104 98
104 100
104 113
104 115
104 122
104 130
104 134
104 138
104 145
104 147
104 164
104 165
105 38
105 56
105 58
105 60
105 61
105 70
105 76
105 81
105 84
105 89
105 91
105 94
105 99
105 114
105 119
105 128
105 129
105 133
105 140
105 141
105 142
105 154
105 155
105 156
105 167
106 32
106 34
106 48
106 64
106 66
106 67
106 71
106 81
106 82
106 88
106 89
106 96
106 102
106 108
106 112
106 117
106 132
106 135
106 157
106 158
106 159
107 31
107 47
107 57
107 65
107 75
107 79
107 90
107 103
107 109
107 110
107 121
107 123
107 125
107 126
107 143
107 150
107 151
107 152
107 171
107 176
108 32
108 36
108 48
108 61
108 64
108 66
108 71
108 81
108 82
108 88
108 89
108 96
108 106
108 114
108 117
108 132
108 133
108 142
108 156
108 157
108 159
108 170
108 178
109 52
109 65
109 69
109 75
109 79
109 83
109 90
109 107
109 110
109 115
109 123
109 125
109 126
109 137
109 143
109 148
109 150
109 152
109 171
109 180
110 49
110 52
110 65
110 69
110 79
110 83
110 90
110 92
110 107
110 109
110 115
110 125
110 126
110 130
110 137
110 143
110 145
110 148
110 152
110 153
110 180
111 43
111 46
111 55
111 62
111 68
111 74
111 80
111 93
111 95
111 101
111 131
111 172
112 54
112 67
112 71
112 72
112 77
112 82
112 85
112 86
112 96
112 102
112 106
112 117
112 118
112 120
112 127
112 135
112 136
112 144
112 158
112 160
112 162
112 166
112 175
112 177
113 44
113 50
113 59
113 69
113 73
113 78
113 87
113 92
113 98
113 104
113 115
113 130
113 134
113 138
113 145
113 147
113 153
113 164
113 165
113 185
114 37
114 38
114 58
114 61
114 66
114 70
114 81
114 84
114 88
114 89
114 91
114 105
114 108
114 128
114 129
114 132
114 133
114 141
114 142
114 154
114 156
114 157
114 170
115 49
115 52
115 65
115 69
115 79
115 83
115 87
115 92
115 104
115 109
115 110
115 113
115 126
115 130
115 137
115 145
115 147
115 148
115 153
115 164
115 181
115 182
116 51
116 53
116 56
116 73
116 76
116 84
116 94
116 98
116 99
116 100
116 119
116 122
116 129
116 134
116 138
116 139
116 140
116 141
116 149
116 155
116 169
116 174
117 48
117 64
117 67
117 71
117 72
117 82
117 88
117 96
117 102
117 106
117 108
117 112
117 127
117 132
117 135
117 144
117 158
117 159
117 160
117 166
117 175
117 179
118 72
118 77
118 85
118 86
118 97
118 112
118 120
118 127
118 135
118 136
118 144
118 146
118 162
118 163
118 166
118 186
119 51
119 56
119 60
119 70
119 76
119 84
119 91
119 94
119 99
119 100
119 105
119 116
119 122
119 128
119 129
119 139
119 140
119 141
119 149
119 154
119 155
119 167
119 174
119 187
120 54
120 67
120 72
120 77
120 85
120 86
120 97
120 102
120 112
120 118
120 127
120 135
120 136
120 144
120 146
120 160
120 162
120 163
120 166
120 177
120 186
121 57
121 63
121 75
121 90
121 101
121 103
121 107
121 123
121 124
121 125
121 143
121 150
121 151
121 161
121 168
121 173
121 176
121 189
122 51
122 53
122 73
122 76
122 78
122 94
122 98
122 99
122 100
122 104
122 116
122 119
122 134
122 138
122 139
122 140
122 141
122 149
122 155
122 169
122 174
123 57
123 75
123 79
123 90
123 101
123 103
123 107
123 109
123 121
123 124
123 125
123 143
123 150
123 151
123 152
123 168
123 171
123 176
124 57
124 63
124 68
124 75
124 95
124 101
124 103
124 121
124 123
124 131
124 150
124 151
124 161
124 168
124 173
124 189
125 65
125 75
125 79
125 83
125 90
125 103
125 107
125 109
125 110
125 121
125 123
125 126
125 137
125 143
125 148
125 150
125 151
125 152
125 171
125 176
125 180
125 192
125 193
126 52
126 65
126 69
126 79
126 83
126 90
126 92
126 107
126 109
126 110
126 115
126 125
126 130
126 137
126 143
126 145
126 148
126 150
126 152
126 153
126 171
126 180
126 182
126 197
127 54
127 67
127 72
127 77
127 85
127 86
127 96
127 97
127 102
127 112
127 117
127 118
127 120
127 135
127 136
127 144
127 146
127 158
127 160
127 162
127 163
127 166
127 175
127 177
127 186
127 190
128 58
128 60
128 61
128 70
128 81
128 84
128 89
128 91
128 99
128 105
128 114
128 119
128 129
128 132
128 133
128 140
128 141
128 142
128 154
128 155
128 156
128 157
128 167
128 170
128 183
128 187
129 58
129 60
129 70
129 76
129 84
129 91
129 94
129 99
129 105
129 114
129 116
129 119
129 128
129 133
129 139
129 140
129 141
129 142
129 154
129 155
129 156
129 167
129 183
129 187
130 69
130 83
130 87
130 92
130 104
130 110
130 113
130 115
130 126
130 134
130 137
130 145
130 147
130 148
130 153
130 164
130 165
130 181
130 182
130 185
131 62
131 68
131 80
131 93
131 95
131 101
131 111
131 124
131 161
131 168
131 172
131 173
131 184
131 199
132 64
132 66
132 81
132 82
132 88
132 89
132 91
132 106
132 108
132 114
132 117
132 128
132 133
132 142
132 156
132 157
132 159
132 170
132 178
132 202
133 61
133 66
133 70
133 81
133 88
133 89
133 91
133 105
133 108
133 114
133 128
133 129
133 132
133 141
133 142
133 154
133 156
133 157
133 159
133 167
133 170
133 178
133 183
133 196
133 198
134 73
134 78
134 87
134 98
134 100
134 104
134 113
134 116
134 122
134 130
134 138
134 139
134 145
134 147
134 149
134 164
134 165
134 169
134 174
134 185
134 188
134 194
135 67
135 71
135 72
135 82
135 85
135 96
135 102
135 106
135 112
135 117
135 118
135 120
135 127
135 136
135 144
135 158
135 160
135 162
135 166
135 175
135 177
135 179
135 190
136 77
136 85
136 86
136 97
136 112
136 118
136 120
136 127
136 135
136 144
136 146
136 160
136 162
136 163
136 166
136 177
136 186
136 201
137 69
137 79
137 83
137 92
137 109
137 110
137 115
137 125
137 126
137 130
137 145
137 147
137 148
137 152
137 153
137 164
137 180
137 181
137 182
137 197
137 205
138 73
138 78
138 94
138 98
138 100
138 104
138 113
138 116
138 122
138 134
138 139
138 147
138 149
138 155
138 164
138 165
138 169
138 174
138 188
138 194
139 76
139 94
139 98
139 99
139 100
139 116
139 119
139 122
139 129
139 134
139 138
139 140
139 141
139 149
139 155
139 167
139 169
139 174
139 187
139 191
139 194
139 204
140 76
140 84
140 94
140 99
140 100
140 105
140 116
140 119
140 122
140 128
140 129
140 139
140 141
140 142
140 149
140 154
140 155
140 167
140 174
140 187
140 191
140 200
140 204
141 70
141 76
141 84
141 91
141 94
141 99
141 105
141 114
141 116
141 119
141 122
141 128
141 129
141 133
141 139
141 140
141 142
141 149
141 154
141 155
141 156
141 167
141 183
141 187
141 191
141 200
142 81
142 89
142 91
142 105
142 108
142 114
142 128
142 129
142 132
142 133
142 140
142 141
142 154
142 156
142 157
142 167
142 170
142 178
142 183
142 187
142 196
142 198
142 200
143 75
143 79
143 90
143 103
143 107
143 109
143 110
143 121
143 123
143 125
143 126
143 148
143 150
143 151
143 152
143 171
143 176
143 180
143 192
143 193
144 72
144 85
144 86
144 97
144 102
144 112
144 117
144 118
144 120
144 127
144 135
144 136
144 146
144 158
144 160
144 162
144 163
144 166
144 175
144 177
144 186
144 190
144 201
144 210
145 87
145 92
145 104
145 110
145 113
145 115
145 126
145 130
145 134
145 137
145 147
145 148
145 153
145 164
145 165
145 181
145 182
145 185
145 197
145 203
145 205
145 207
146 77
146 86
146 97
146 118
146 120
146 127
146 136
146 144
146 162
146 163
146 166
146 186
146 201
146 214
147 87
147 92
147 104
147 113
147 115
147 130
147 134
147 137
147 138
147 145
147 153
147 164
147 165
147 169
147 181
147 185
147 188
147 203
147 207
148 79
148 83
148 109
148 110
148 115
148 125
148 126
148 130
148 137
148 143
148 145
148 150
148 152
148 153
148 171
148 180
148 181
148 182
148 192
148 197
148 205
149 94
149 98
149 100
149 116
149 119
149 122
149 134
149 138
149 139
149 140
149 141
149 155
149 165
149 169
149 174
149 188
149 191
149 194
149 204
149 211
150 75
150 90
150 103
150 107
150 109
150 121
150 123
150 124
150 125
150 126
150 143
150 148
150 151
150 152
150 168
150 171
150 176
150 180
150 189
150 192
150 193
150 217
151 101
151 103
151 107
151 121
151 123
151 124
151 125
151 143
151 150
151 161
151 168
151 171
151 173
151 176
151 189
151 193
151 217
151 220
152 79
152 90
152 107
152 109
152 110
152 123
152 125
152 126
152 137
152 143
152 148
152 150
152 153
152 171
152 176
152 180
152 182
152 192
152 193
152 197
153 83
153 92
153 110
153 113
153 115
153 126
153 130
153 137
153 145
153 147
153 148
153 152
153 164
153 165
153 180
153 181
153 182
153 185
153 197
153 203
153 205
154 84
154 91
154 99
154 105
154 114
154 119
154 128
154 129
154 133
154 140
154 141
154 142
154 155
154 156
154 157
154 167
154 170
154 183
154 187
154 196
154 198
154 200
154 215
154 216
155 94
155 99
155 105
155 116
155 119
155 122
155 128
155 129
155 138
155 139
155 140
155 141
155 149
155 154
155 167
155 174
155 187
155 191
155 194
155 200
155 204
155 211
155 216
155 218
156 81
156 91
156 105
156 108
156 114
156 128
156 129
156 132
156 133
156 141
156 142
156 154
156 157
156 159
156 167
156 170
156 178
156 183
156 187
156 196
156 198
156 200
156 202
156 212
156 215
157 89
157 106
157 108
157 114
157 128
157 132
157 133
157 142
157 154
157 156
157 159
157 170
157 178
157 179
157 183
157 195
157 196
157 198
157 202
157 212
157 227
158 96
158 102
158 106
158 112
158 117
158 127
158 135
158 144
158 159
158 160
158 162
158 166
158 175
158 177
158 178
158 179
158 190
158 195
158 206
158 210
158 221
158 225
158 226
159 88
159 106
159 108
159 117
159 132
159 133
159 156
159 157
159 158
159 160
159 170
159 175
159 178
159 179
159 195
159 196
159 202
159 206
159 212
159 221
159 225
159 227
160 96
160 102
160 112
160 117
160 120
160 127
160 135
160 136
160 144
160 158
160 159
160 162
160 166
160 175
160 177
160 179
160 186
160 190
160 195
160 201
160 206
160 210
160 226
161 95
161 101
161 121
161 124
161 131
161 151
161 168
161 172
161 173
161 184
161 189
161 199
161 213
161 222
162 112
162 118
162 120
162 127
162 135
162 136
162 144
162 146
162 158
162 160
162 163
162 166
162 175
162 177
162 186
162 190
162 201
162 210
162 214
162 231
163 97
163 118
163 120
163 127
163 136
163 144
163 146
163 162
163 166
163 177
163 186
163 201
163 214
163 231
164 104
164 113
164 115
164 130
164 134
164 137
164 138
164 145
164 147
164 153
164 165
164 169
164 181
164 182
164 185
164 188
164 203
164 205
164 207
164 223
164 224
165 104
165 113
165 130
165 134
165 138
165 145
165 147
165 149
165 153
165 164
165 169
165 174
165 181
165 185
165 188
165 194
165 203
165 207
165 219
165 223
165 235
166 102
166 112
166 117
166 118
166 120
166 127
166 135
166 136
166 144
166 146
166 158
166 160
166 162
166 163
166 175
166 177
166 179
166 186
166 190
166 201
166 206
166 210
166 226
166 231
166 240
167 99
167 105
167 119
167 128
167 129
167 133
167 139
167 140
167 141
167 142
167 154
167 155
167 156
167 174
167 183
167 187
167 191
167 198
167 200
167 204
167 215
167 216
167 218
167 238
168 101
168 103
168 121
168 123
168 124
168 131
168 150
168 151
168 161
168 173
168 176
168 189
168 199
168 213
168 220
169 116
169 122
169 134
169 138
169 139
169 147
169 149
169 164
169 165
169 174
169 185
169 188
169 191
169 194
169 204
169 207
169 211
169 219
169 223
169 233
169 235
170 108
170 114
170 128
170 132
170 133
170 142
170 154
170 156
170 157
170 159
170 178
170 183
170 195
170 196
170 198
170 200
170 202
170 212
170 215
170 221
170 227
170 234
171 107
171 109
171 123
171 125
171 126
171 143
171 148
171 150
171 151
171 152
171 176
171 180
171 189
171 192
171 193
171 197
171 217
171 220
171 236
172 111
172 131
172 161
172 184
172 199
172 208
172 209
172 213
172 222
172 228
172 237
173 121
173 124
173 131
173 151
173 161
173 168
173 176
173 189
173 199
173 213
173 220
173 222
173 242
174 116
174 119
174 122
174 134
174 138
174 139
174 140
174 149
174 155
174 165
174 167
174 169
174 187
174 188
174 191
174 194
174 204
174 211
174 218
174 219
174 230
174 233
174 235
175 112
175 117
175 127
175 135
175 144
175 158
175 159
175 160
175 162
175 166
175 177
175 178
175 179
175 190
175 195
175 201
175 206
175 210
175 221
175 225
175 226
175 240
175 241
176 107
176 121
176 123
176 125
176 143
176 150
176 151
176 152
176 168
176 171
176 173
176 180
176 189
176 192
176 193
176 217
176 220
176 243
177 112
177 120
177 127
177 135
177 136
177 144
177 158
177 160
177 162
177 163
177 166
177 175
177 179
177 186
177 190
177 201
177 206
177 210
177 225
177 226
177 231
177 240
177 241
178 108
178 132
178 133
178 142
178 156
178 157
178 158
178 159
178 170
178 175
178 179
178 195
178 196
178 198
178 202
178 206
178 212
178 221
178 225
178 227
178 234
178 247
179 117
179 135
179 157
179 158
179 159
179 160
179 166
179 175
179 177
179 178
179 190
179 195
179 202
179 206
179 210
179 212
179 221
179 225
179 226
179 227
179 241
179 254
180 109
180 110
180 125
180 126
180 137
180 143
180 148
180 150
180 152
180 153
180 171
180 176
180 181
180 182
180 192
180 193
180 197
180 205
180 229
180 232
180 236
181 115
181 130
181 137
181 145
181 147
181 148
181 153
181 164
181 165
181 180
181 182
181 185
181 188
181 197
181 203
181 205
181 207
181 223
181 224
181 229
181 232
181 244
182 115
182 126
182 130
182 137
182 145
182 148
182 152
182 153
182 164
182 180
182 181
182 185
182 192
182 197
182 203
182 205
182 224
182 229
182 232
182 236
182 244
183 128
183 129
183 133
183 141
183 142
183 154
183 156
183 157
183 167
183 170
183 187
183 196
183 198
183 200
183 212
183 215
183 216
183 234
183 238
183 239
183 246
183 257
184 131
184 161
184 172
184 199
184 208
184 209
184 213
184 222
184 228
184 237
184 249
185 113
185 130
185 134
185 145
185 147
185 153
185 164
185 165
185 169
185 181
185 182
185 188
185 194
185 203
185 205
185 207
185 219
185 223
185 224
185 232
185 235
185 248
186 118
186 120
186 127
186 136
186 144
186 146
186 160
186 162
186 163
186 166
186 177
186 190
186 201
186 210
186 214
186 231
186 240
186 245
187 119
187 128
187 129
187 139
187 140
187 141
187 142
187 154
187 155
187 156
187 167
187 174
187 183
187 191
187 196
187 198
187 200
187 204
187 211
187 215
187 216
187 218
187 230
187 238
187 239
187 251
187 258
188 134
188 138
188 147
188 149
188 164
188 165
188 169
188 174
188 181
188 185
188 194
188 203
188 204
188 207
188 211
188 219
188 223
188 233
188 235
188 248
188 250
188 263
189 121
189 124
189 150
189 151
189 161
189 168
189 171
189 173
189 176
189 193
189 199
189 213
189 217
189 220
189 242
189 243
189 255
189 259
190 127
190 135
190 144
190 158
190 160
190 162
190 166
190 175
190 177
190 179
190 186
190 195
190 201
190 206
190 210
190 221
190 225
190 226
190 231
190 240
190 241
190 253
190 254
190 271
191 139
191 140
191 141
191 149
191 155
191 167
191 169
191 174
191 187
191 194
191 200
191 204
191 211
191 216
191 218
191 219
191 230
191 233
191 238
191 251
191 252
191 270
192 125
192 143
192 148
192 150
192 152
192 171
192 176
192 180
192 182
192 193
192 197
192 205
192 217
192 229
192 236
192 243
192 256
193 125
193 143
193 150
193 151
193 152
193 171
193 176
193 180
193 189
193 192
193 197
193 217
193 220
193 229
193 236
193 243
193 268
194 134
194 138
194 139
194 149
194 155
194 165
194 169
194 174
194 185
194 188
194 191
194 204
194 207
194 211
194 218
194 219
194 223
194 230
194 233
194 235
194 250
194 252
195 157
195 158
195 159
195 160
195 170
195 175
195 178
195 179
195 190
195 196
195 202
195 206
195 212
195 221
195 225
195 226
195 227
195 234
195 241
195 247
195 254
195 261
196 133
196 142
196 154
196 156
196 157
196 159
196 170
196 178
196 183
196 187
196 195
196 198
196 200
196 202
196 212
196 215
196 216
196 221
196 227
196 234
196 239
196 246
196 247
196 257
196 260
197 126
197 137
197 145
197 148
197 152
197 153
197 171
197 180
197 181
197 182
197 192
197 193
197 203
197 205
197 224
197 229
197 232
197 236
197 244
197 256
197 273
198 133
198 142
198 154
198 156
198 157
198 167
198 170
198 178
198 183
198 187
198 196
198 200
198 202
198 212
198 215
198 216
198 227
198 234
198 239
198 246
198 257
198 258
198 260
199 131
199 161
199 168
199 172
199 173
199 184
199 189
199 208
199 213
199 222
199 228
199 237
199 242
199 249
199 255
199 264
199 265
200 140
200 141
200 142
200 154
200 155
200 156
200 167
200 170
200 183
200 187
200 191
200 196
200 198
200 204
200 215
200 216
200 218
200 230
200 234
200 238
200 239
200 246
200 251
200 257
200 258
201 136
201 144
201 146
201 160
201 162
201 163
201 166
201 175
201 177
201 186
201 190
201 206
201 210
201 214
201 226
201 231
201 240
201 245
201 253
201 266
201 272
202 132
202 156
202 157
202 159
202 170
202 178
202 179
202 195
202 196
202 198
202 206
202 212
202 221
202 225
202 227
202 234
202 246
202 247
202 254
202 260
202 261
203 145
203 147
203 153
203 164
203 165
203 181
203 182
203 185
203 188
203 197
203 205
203 207
203 223
203 224
203 229
203 232
203 235
203 244
203 248
203 262
203 269
203 273
204 139
204 140
204 149
204 155
204 167
204 169
204 174
204 187
204 188
204 191
204 194
204 200
204 211
204 216
204 218
204 219
204 230
204 233
204 235
204 238
204 250
204 251
204 252
204 270
205 137
205 145
205 148
205 153
205 164
205 180
205 181
205 182
205 185
205 192
205 197
205 203
205 207
205 224
205 229
205 232
205 236
205 244
205 248
205 256
205 262
205 273
206 158
206 159
206 160
206 166
206 175
206 177
206 178
206 179
206 190
206 195
206 201
206 202
206 210
206 221
206 225
206 226
206 227
206 231
206 240
206 241
206 247
206 253
206 254
206 261
206 271
206 276
207 145
207 147
207 164
207 165
207 169
207 181
207 185
207 188
207 194
207 203
207 205
207 219
207 223
207 224
207 232
207 233
207 235
207 244
207 248
207 250
207 262
207 263
207 269
208 172
208 184
208 199
208 209
208 213
208 222
208 228
208 237
208 249
208 264
208 265
208 267
209 172
209 184
209 208
209 222
209 228
209 237
209 249
209 264
209 267
210 144
210 158
210 160
210 162
210 166
210 175
210 177
210 179
210 186
210 190
210 201
210 206
210 214
210 225
210 226
210 231
210 240
210 241
210 245
210 253
210 254
210 266
210 271
210 272
210 280
211 149
211 155
211 169
211 174
211 187
211 188
211 191
211 194
211 204
211 216
211 218
211 219
211 223
211 230
211 233
211 235
211 238
211 250
211 251
211 252
211 270
211 287
212 156
212 157
212 159
212 170
212 178
212 179
212 183
212 195
212 196
212 198
212 202
212 215
212 221
212 225
212 227
212 234
212 239
212 246
212 247
212 254
212 257
212 260
212 261
212 277
213 161
213 168
213 172
213 173
213 184
213 189
213 199
213 208
213 220
213 222
213 228
213 237
213 242
213 255
213 259
213 264
213 265
213 282
214 146
214 162
214 163
214 186
214 201
214 210
214 231
214 240
214 245
214 266
214 272
214 291
215 154
215 156
215 167
215 170
215 183
215 187
215 196
215 198
215 200
215 212
215 216
215 218
215 234
215 238
215 239
215 246
215 257
215 258
215 260
215 275
215 279
216 154
216 155
216 167
216 183
216 187
216 191
216 196
216 198
216 200
216 204
216 211
216 215
216 218
216 230
216 238
216 239
216 246
216 251
216 252
216 257
216 258
216 270
216 275
216 278
217 150
217 151
217 171
217 176
217 189
217 192
217 193
217 220
217 236
217 242
217 243
217 259
217 268
217 274
217 286
218 155
218 167
218 174
218 187
218 191
218 194
218 200
218 204
218 211
218 215
218 216
218 230
218 233
218 238
218 239
218 251
218 252
218 258
218 270
218 275
218 278
219 165
219 169
219 174
219 185
219 188
219 191
219 194
219 204
219 207
219 211
219 223
219 230
219 233
219 235
219 248
219 250
219 252
219 263
219 269
219 285
219 294
220 151
220 168
220 171
220 173
220 176
220 189
220 193
220 213
220 217
220 242
220 243
220 255
220 259
220 268
220 281
220 282
220 286
221 158
221 159
221 170
221 175
221 178
221 179
221 190
221 195
221 196
221 202
221 206
221 212
221 225
221 226
221 227
221 234
221 241
221 247
221 253
221 254
221 260
221 261
221 271
221 276
221 277
222 161
222 172
222 173
222 184
222 199
222 208
222 209
222 213
222 228
222 237
222 242
222 249
222 255
222 264
222 265
222 267
222 292
223 164
223 165
223 169
223 181
223 185
223 188
223 194
223 203
223 207
223 211
223 219
223 224
223 233
223 235
223 248
223 250
223 262
223 263
223 269
223 284
223 285
224 164
224 181
224 182
224 185
224 197
224 203
224 205
224 207
224 223
224 229
224 232
224 235
224 244
224 248
224 256
224 262
224 263
224 269
224 273
224 284
224 288
224 299
225 158
225 159
225 175
225 177
225 178
225 179
225 190
225 195
225 202
225 206
225 210
225 212
225 221
225 226
225 227
225 240
225 241
225 247
225 253
225 254
225 261
225 271
225 276
225 277
225 280
226 158
226 160
226 166
226 175
226 177
226 179
226 190
226 195
226 201
226 206
226 210
226 221
226 225
226 231
226 240
226 241
226 245
226 253
226 254
226 261
226 266
226 271
226 272
226 276
226 280
226 296
227 157
227 159
227 170
227 178
227 179
227 195
227 196
227 198
227 202
227 206
227 212
227 221
227 225
227 234
227 241
227 246
227 247
227 254
227 257
227 260
227 261
227 276
227 277
227 289
227 295
228 172
228 184
228 199
228 208
228 209
228 213
228 222
228 237
228 249
228 264
228 265
228 267
229 180
229 181
229 182
229 192
229 193
229 197
229 203
229 205
229 224
229 232
229 236
229 244
229 256
229 262
229 273
229 274
229 283
229 288
229 290
230 174
230 187
230 191
230 194
230 200
230 204
230 211
230 216
230 218
230 219
230 233
230 235
230 238
230 250
230 251
230 252
230 270
230 275
230 278
230 287
230 301
231 162
231 163
231 166
231 177
231 186
231 190
231 201
231 206
231 210
231 214
231 226
231 240
231 241
231 245
231 253
231 266
231 271
231 272
231 280
231 291
231 296
231 298
232 180
232 181
232 182
232 185
232 197
232 203
232 205
232 207
232 224
232 229
232 236
232 244
232 248
232 256
232 262
232 269
232 273
232 274
232 284
232 288
232 290
233 169
233 174
233 188
233 191
233 194
233 204
233 207
233 211
233 218
233 219
233 223
233 230
233 235
233 248
233 250
233 251
233 252
233 263
233 270
233 278
233 285
233 287
233 294
234 170
234 178
234 183
234 195
234 196
234 198
234 200
234 202
234 212
234 215
234 221
234 227
234 239
234 246
234 247
234 257
234 258
234 260
234 261
234 277
234 279
234 289
234 295
235 165
235 169
235 174
235 185
235 188
235 194
235 203
235 204
235 207
235 211
235 219
235 223
235 224
235 230
235 233
235 248
235 250
235 252
235 263
235 269
235 285
235 294
236 171
236 180
236 182
236 192
236 193
236 197
236 205
236 217
236 229
236 232
236 243
236 244
236 256
236 268
236 273
236 274
236 283
236 290
237 172
237 184
237 199
237 208
237 209
237 213
237 222
237 228
237 242
237 249
237 255
237 264
237 265
237 267
237 292
238 167
238 183
238 187
238 191
238 200
238 204
238 211
238 215
238 216
238 218
238 230
238 239
238 246
238 251
238 252
238 257
238 258
238 270
238 275
238 278
238 279
238 287
238 293
238 301
239 183
239 187
239 196
239 198
239 200
239 212
239 215
239 216
239 218
239 234
239 238
239 246
239 251
239 257
239 258
239 260
239 270
239 275
239 278
239 279
239 289
239 293
240 166
240 175
240 177
240 186
240 190
240 201
240 206
240 210
240 214
240 225
240 226
240 231
240 241
240 245
240 253
240 254
240 266
240 271
240 272
240 280
240 296
240 298
241 175
241 177
241 179
241 190
241 195
241 206
241 210
241 221
241 225
241 226
241 227
241 231
241 240
241 247
241 253
241 254
241 261
241 271
241 272
241 276
241 277
241 280
241 296
241 302
242 173
242 189
242 199
242 213
242 217
242 220
242 222
242 237
242 243
242 255
242 259
242 265
242 281
242 282
242 286
242 292
242 297
242 315
243 176
243 189
243 192
243 193
243 217
243 220
243 236
243 242
243 259
243 268
243 274
243 281
243 282
243 283
243 286
243 305
244 181
244 182
244 197
244 203
244 205
244 207
244 224
244 229
244 232
244 236
244 248
244 256
244 262
244 269
244 273
244 274
244 284
244 288
244 290
244 299
244 306
245 186
245 201
245 210
245 214
245 226
245 231
245 240
245 253
245 266
245 272
245 280
245 291
245 296
245 298
246 183
246 196
246 198
246 200
246 202
246 212
246 215
246 216
246 227
246 234
246 238
246 239
246 247
246 257
246 258
246 260
246 261
246 275
246 279
246 289
246 293
246 295
246 304
246 312
247 178
247 195
247 196
247 202
247 206
247 212
247 221
247 225
247 227
247 234
247 241
247 246
247 254
247 257
247 260
247 261
247 276
247 277
247 289
247 295
247 303
247 304
247 308
248 185
248 188
248 203
248 205
248 207
248 219
248 223
248 224
248 232
248 233
248 235
248 244
248 250
248 262
248 263
248 269
248 273
248 284
248 285
248 288
248 294
248 299
248 300
248 309
248 317
248 321
249 184
249 199
249 208
249 209
249 222
249 228
249 237
249 264
249 265
249 267
249 307
250 188
250 194
250 204
250 207
250 211
250 219
250 223
250 230
250 233
250 235
250 248
250 251
250 252
250 263
250 269
250 270
250 285
250 287
250 294
250 309
251 187
251 191
251 200
251 204
251 211
251 216
251 218
251 230
251 233
251 238
251 239
251 250
251 252
251 258
251 270
251 275
251 278
251 287
251 293
251 301
251 310
251 311
252 191
252 194
252 204
252 211
252 216
252 218
252 219
252 230
252 233
252 235
252 238
252 250
252 251
252 263
252 270
252 275
252 278
252 287
252 294
252 301
252 310
252 319
253 190
253 201
253 206
253 210
253 221
253 225
253 226
253 231
253 240
253 241
253 245
253 254
253 261
253 266
253 271
253 272
253 276
253 280
253 296
253 298
253 302
253 314
254 179
254 190
254 195
254 202
254 206
254 210
254 212
254 221
254 225
254 226
254 227
254 240
254 241
254 247
254 253
254 260
254 261
254 271
254 276
254 277
254 280
254 295
254 302
254 303
254 314
255 189
255 199
255 213
255 220
255 222
255 237
255 242
255 259
255 264
255 265
255 281
255 282
255 286
255 292
255 297
255 307
255 315
255 320
256 192
256 197
256 205
256 224
256 229
256 232
256 236
256 244
256 262
256 268
256 273
256 274
256 283
256 288
256 290
256 306
256 313
256 322
257 183
257 196
257 198
257 200
257 212
257 215
257 216
257 227
257 234
257 238
257 239
257 246
257 247
257 258
257 260
257 275
257 279
257 289
257 293
257 295
257 304
257 311
257 312
258 187
258 198
258 200
258 215
258 216
258 218
258 234
258 238
258 239
258 246
258 251
258 257
258 260
258 270
258 275
258 278
258 279
258 289
258 293
258 301
258 310
258 311
258 312
258 325
259 189
259 213
259 217
259 220
259 242
259 243
259 255
259 265
259 268
259 281
259 282
259 286
259 292
259 297
259 305
259 315
259 318
260 196
260 198
260 202
260 212
260 215
260 221
260 227
260 234
260 239
260 246
260 247
260 254
260 257
260 258
260 261
260 276
260 277
260 279
260 289
260 295
260 303
260 304
260 308
260 312
260 328
261 195
261 202
261 206
261 212
261 221
261 225
261 226
261 227
261 234
261 241
261 246
261 247
261 253
261 254
261 260
261 271
261 276
261 277
261 289
261 295
261 302
261 303
261 304
261 308
262 203
262 205
262 207
262 223
262 224
262 229
262 232
262 244
262 248
262 256
262 263
262 269
262 273
262 284
262 285
262 288
262 290
262 299
262 300
262 306
262 321
262 322
262 323
263 188
263 207
263 219
263 223
263 224
263 233
263 235
263 248
263 250
263 252
263 262
263 269
263 284
263 285
263 288
263 294
263 299
263 300
263 309
263 317
263 321
264 199
264 208
264 209
264 213
264 222
264 228
264 237
264 249
264 255
264 265
264 267
264 282
264 292
264 297
264 307
264 320
264 324
265 199
265 208
265 213
265 222
265 228
265 237
265 242
265 249
265 255
265 259
265 264
265 267
265 281
265 282
265 292
265 297
265 307
265 320
265 324
266 201
266 210
266 214
266 226
266 231
266 240
266 245
266 253
266 271
266 272
266 280
266 291
266 296
266 298
266 316
267 208
267 209
267 222
267 228
267 237
267 249
267 264
267 265
267 307
268 193
268 217
268 220
268 236
268 243
268 256
268 259
268 274
268 281
268 283
268 286
268 290
268 305
268 313
268 318
268 332
269 203
269 207
269 219
269 223
269 224
269 232
269 235
269 244
269 248
269 250
269 262
269 263
269 273
269 284
269 285
269 288
269 294
269 299
269 300
269 309
269 317
269 321
269 323
270 191
270 204
270 211
270 216
270 218
270 230
270 233
270 238
270 239
270 250
270 251
270 252
270 258
270 275
270 278
270 287
270 293
270 294
270 301
270 310
270 311
270 319
270 326
270 330
271 190
271 206
271 210
271 221
271 225
271 226
271 231
271 240
271 241
271 253
271 254
271 261
271 266
271 272
271 276
271 277
271 280
271 296
271 298
271 302
271 303
271 314
271 327
271 329
271 338
272 201
272 210
272 214
272 226
272 231
272 240
272 241
272 245
272 253
272 266
272 271
272 280
272 291
272 296
272 298
272 302
272 314
272 316
272 329
273 197
273 203
273 205
273 224
273 229
273 232
273 236
273 244
273 248
273 256
273 262
273 269
273 274
273 283
273 284
273 288
273 290
273 299
273 300
273 306
273 313
273 322
273 323
273 339
274 217
274 229
274 232
274 236
274 243
274 244
274 256
274 268
274 273
274 283
274 288
274 290
274 305
274 306
274 313
274 322
274 332
274 341
275 215
275 216
275 218
275 230
275 238
275 239
275 246
275 251
275 252
275 257
275 258
275 270
275 278
275 279
275 287
275 289
275 293
275 301
275 310
275 311
275 312
275 325
275 326
275 344
276 206
276 221
276 225
276 226
276 227
276 241
276 247
276 253
276 254
276 260
276 261
276 271
276 277
276 280
276 295
276 296
276 302
276 303
276 308
276 314
276 327
276 334
276 338
277 212
277 221
277 225
277 227
277 234
277 241
277 247
277 254
277 260
277 261
277 271
277 276
277 289
277 295
277 302
277 303
277 304
277 308
277 327
277 334
277 337
277 340
278 216
278 218
278 230
278 233
278 238
278 239
278 251
278 252
278 258
278 270
278 275
278 279
278 287
278 293
278 294
278 301
278 310
278 311
278 319
278 325
278 326
278 330
278 343
279 215
279 234
279 238
279 239
279 246
279 257
279 258
279 260
279 275
279 278
279 289
279 293
279 295
279 304
279 308
279 310
279 311
279 312
279 325
279 326
279 328
279 344
279 348
280 210
280 225
280 226
280 231
280 240
280 241
280 245
280 253
280 254
280 266
280 271
280 272
280 276
280 291
280 296
280 298
280 302
280 314
280 316
280 327
280 329
280 338
281 220
281 242
281 243
281 255
281 259
281 265
281 268
281 282
281 286
281 292
281 297
281 305
281 315
281 318
281 320
281 333
281 345
281 354
282 213
282 220
282 242
282 243
282 255
282 259
282 264
282 265
282 281
282 286
282 292
282 297
282 307
282 315
282 318
282 320
282 324
282 333
282 345
282 352
283 229
283 236
283 243
283 256
283 268
283 273
283 274
283 286
283 290
283 305
283 306
283 313
283 318
283 322
283 332
283 341
283 347
284 223
284 224
284 232
284 244
284 248
284 262
284 263
284 269
284 273
284 285
284 288
284 294
284 299
284 300
284 306
284 309
284 317
284 321
284 322
284 323
284 336
284 339
284 342
285 219
285 223
285 233
285 235
285 248
285 250
285 262
285 263
285 269
285 284
285 288
285 294
285 299
285 300
285 309
285 317
285 319
285 321
285 323
285 331
285 336
285 342
286 217
286 220
286 242
286 243
286 255
286 259
286 268
286 281
286 282
286 283
286 292
286 297
286 305
286 315
286 318
286 333
286 345
286 349
286 354
287 211
287 230
287 233
287 238
287 250
287 251
287 252
287 270
287 275
287 278
287 294
287 301
287 309
287 310
287 311
287 319
287 326
287 330
287 331
287 343
287 351
288 224
288 229
288 232
288 244
288 248
288 256
288 262
288 263
288 269
288 273
288 274
288 284
288 285
288 290
288 299
288 300
288 306
288 313
288 317
288 321
288 322
288 323
288 339
288 342
288 357
289 227
289 234
289 239
289 246
289 247
289 257
289 258
289 260
289 261
289 275
289 277
289 279
289 293
289 295
289 303
289 304
289 308
289 311
289 312
289 325
289 328
289 337
289 348
289 350
290 229
290 232
290 236
290 244
290 256
290 262
290 268
290 273
290 274
290 283
290 288
290 299
290 306
290 313
290 322
290 323
290 332
290 339
290 341
290 359
291 214
291 231
291 245
291 266
291 272
291 280
291 296
291 298
291 316
291 346
292 222
292 237
292 242
292 255
292 259
292 264
292 265
292 281
292 282
292 286
292 297
292 307
292 315
292 320
292 324
292 333
292 345
292 352
293 238
293 239
293 246
293 251
293 257
293 258
293 270
293 275
293 278
293 279
293 289
293 301
293 304
293 310
293 311
293 312
293 325
293 326
293 328
293 344
293 348
294 219
294 233
294 235
294 248
294 250
294 252
294 263
294 269
294 270
294 278
294 284
294 285
294 287
294 300
294 301
294 309
294 317
294 319
294 321
294 330
294 331
294 336
294 351
295 227
295 234
295 246
295 247
295 254
295 257
295 260
295 261
295 276
295 277
295 279
295 289
295 302
295 303
295 304
295 308
295 312
295 328
295 334
295 337
295 340
295 350
295 363
296 226
296 231
296 240
296 241
296 245
296 253
296 266
296 271
296 272
296 276
296 280
296 291
296 298
296 302
296 314
296 316
296 327
296 329
296 338
296 346
296 355
297 242
297 255
297 259
297 264
297 265
297 281
297 282
297 286
297 292
297 307
297 315
297 318
297 320
297 324
297 333
297 345
297 352
297 354
297 367
298 231
298 240
298 245
298 253
298 266
298 271
298 272
298 280
298 291
298 296
298 302
298 314
298 316
298 329
298 338
298 346
298 355
298 365
299 224
299 244
299 248
299 262
299 263
299 269
299 273
299 284
299 285
299 288
299 290
299 300
299 306
299 309
299 317
299 321
299 322
299 323
299 336
299 339
299 342
299 357
299 360
299 361
300 248
300 262
300 263
300 269
300 273
300 284
300 285
300 288
300 294
300 299
300 306
300 309
300 317
300 321
300 323
300 331
300 336
300 339
300 342
300 357
300 360
300 361
300 364
301 230
301 238
301 251
301 252
301 258
301 270
301 275
301 278
301 287
301 293
301 294
301 310
301 311
301 319
301 325
301 326
301 330
301 331
301 343
301 344
301 351
301 358
301 374
302 241
302 253
302 254
302 261
302 271
302 272
302 276
302 277
302 280
302 295
302 296
302 298
302 303
302 308
302 314
302 327
302 329
302 334
302 338
302 340
302 368
302 370
303 247
303 254
303 260
303 261
303 271
303 276
303 277
303 289
303 295
303 302
303 304
303 308
303 314
303 327
303 328
303 334
303 337
303 338
303 340
303 376
304 246
304 247
304 257
304 260
304 261
304 277
304 279
304 289
304 293
304 295
304 303
304 308
304 312
304 325
304 328
304 337
304 340
304 348
304 350
304 363
304 371
304 380
305 243
305 259
305 268
305 274
305 281
305 283
305 286
305 313
305 315
305 318
305 332
305 341
305 345
305 347
305 349
305 354
305 362
305 372
306 244
306 256
306 262
306 273
306 274
306 283
306 284
306 288
306 290
306 299
306 300
306 313
306 321
306 322
306 323
306 332
306 339
306 341
306 342
306 357
306 359
306 360
306 385
307 249
307 255
307 264
307 265
307 267
307 282
307 292
307 297
307 315
307 320
307 324
307 333
307 335
307 352
307 353
307 356
307 367
307 369
307 377
307 383
308 247
308 260
308 261
308 276
308 277
308 279
308 289
308 295
308 302
308 303
308 304
308 312
308 327
308 328
308 334
308 337
308 340
308 348
308 350
308 363
308 371
308 376
308 380
309 248
309 250
309 263
309 269
309 284
309 285
309 287
309 294
309 299
309 300
309 317
309 319
309 321
309 330
309 331
309 336
309 342
309 351
309 361
309 364
309 366
309 373
309 384
310 251
310 252
310 258
310 270
310 275
310 278
310 279
310 287
310 293
310 301
310 311
310 319
310 325
310 326
310 330
310 343
310 344
310 351
310 358
310 373
310 374
310 379
311 251
311 257
311 258
311 270
311 275
311 278
311 279
311 287
311 289
311 293
311 301
311 310
311 312
311 325
311 326
311 328
311 330
311 343
311 344
311 348
311 358
311 374
311 375
311 379
312 246
312 257
312 258
312 260
312 275
312 279
312 289
312 293
312 295
312 304
312 308
312 311
312 325
312 326
312 328
312 337
312 344
312 348
312 350
312 363
312 371
312 375
313 256
313 268
313 273
313 274
313 283
313 288
313 290
313 305
313 306
313 322
313 323
313 332
313 339
313 341
313 347
313 349
313 357
313 359
313 362
313 382
313 387
314 253
314 254
314 271
314 272
314 276
314 280
314 296
314 298
314 302
314 303
314 316
314 327
314 329
314 334
314 338
314 346
314 355
314 368
314 370
314 378
315 242
315 255
315 259
315 281
315 282
315 286
315 292
315 297
315 305
315 307
315 318
315 320
315 324
315 333
315 345
315 349
315 352
315 354
315 367
315 372
315 381
315 383
316 266
316 272
316 280
316 291
316 296
316 298
316 314
316 327
316 329
316 338
316 346
316 355
316 365
316 368
316 378
317 248
317 263
317 269
317 284
317 285
317 288
317 294
317 299
317 300
317 309
317 319
317 321
317 323
317 331
317 336
317 339
317 342
317 357
317 360
317 361
317 364
317 366
317 384
317 386
318 259
318 268
318 281
318 282
318 283
318 286
318 297
318 305
318 315
318 332
318 333
318 345
318 347
318 349
318 354
318 367
318 372
318 381
319 252
319 270
319 278
319 285
319 287
319 294
319 301
319 309
319 310
319 317
319 326
319 330
319 331
319 336
319 343
319 351
319 358
319 364
319 366
319 373
319 374
319 391
320 255
320 264
320 265
320 281
320 282
320 292
320 297
320 307
320 315
320 324
320 333
320 335
320 345
320 352
320 354
320 356
320 367
320 377
320 381
320 383
321 248
321 262
321 263
321 269
321 284
321 285
321 288
321 294
321 299
321 300
321 306
321 309
321 317
321 322
321 323
321 331
321 336
321 339
321 342
321 357
321 360
321 361
321 364
321 384
321 386
322 256
322 262
322 273
322 274
322 283
322 284
322 288
322 290
322 299
322 306
322 313
322 321
322 323
322 332
322 339
322 341
322 342
322 357
322 359
322 360
322 362
322 382
322 385
322 387
322 402
323 262
323 269
323 273
323 284
323 285
323 288
323 290
323 299
323 300
323 306
323 313
323 317
323 321
323 322
323 336
323 339
323 341
323 342
323 357
323 359
323 360
323 361
323 385
323 386
324 264
324 265
324 282
324 292
324 297
324 307
324 315
324 320
324 333
324 335
324 352
324 353
324 356
324 367
324 369
324 377
324 383
324 393
325 258
325 275
325 278
325 279
325 289
325 293
325 301
325 304
325 310
325 311
325 312
325 326
325 328
325 343
325 344
325 348
325 350
325 358
325 371
325 374
325 375
325 379
325 390
325 394
326 270
326 275
326 278
326 279
326 287
326 293
326 301
326 310
326 311
326 312
326 319
326 325
326 330
326 343
326 344
326 348
326 351
326 358
326 373
326 374
326 375
326 379
326 394
326 406
327 271
327 276
327 277
327 280
327 296
327 302
327 303
327 308
327 314
327 316
327 329
327 334
327 337
327 338
327 340
327 355
327 368
327 370
327 376
327 378
327 388
328 260
328 279
328 289
328 293
328 295
328 303
328 304
328 308
328 311
328 312
328 325
328 337
328 340
328 344
328 348
328 350
328 363
328 371
328 375
328 380
328 390
328 400
329 271
329 272
329 280
329 296
329 298
329 302
329 314
329 316
329 327
329 334
329 338
329 346
329 355
329 365
329 368
329 370
329 378
329 388
329 404
330 270
330 278
330 287
330 294
330 301
330 309
330 310
330 311
330 319
330 326
330 331
330 336
330 343
330 344
330 351
330 358
330 366
330 373
330 374
330 379
330 391
330 394
330 406
331 285
331 287
331 294
331 300
331 301
331 309
331 317
331 319
331 321
331 330
331 336
331 343
331 351
331 361
331 364
331 366
331 373
331 374
331 384
331 391
331 407
332 268
332 274
332 283
332 290
332 305
332 306
332 313
332 318
332 322
332 341
332 347
332 349
332 354
332 359
332 362
332 372
332 382
332 387
332 392
332 395
332 396
333 281
333 282
333 286
333 292
333 297
333 307
333 315
333 318
333 320
333 324
333 345
333 352
333 354
333 356
333 367
333 377
333 381
333 383
333 398
334 276
334 277
334 295
334 302
334 303
334 308
334 314
334 327
334 329
334 337
334 338
334 340
334 363
334 368
334 370
334 376
334 380
334 388
334 397
335 307
335 320
335 324
335 352
335 353
335 356
335 369
335 377
335 383
335 393
335 405
336 284
336 285
336 294
336 299
336 300
336 309
336 317
336 319
336 321
336 323
336 330
336 331
336 342
336 351
336 360
336 361
336 364
336 366
336 373
336 384
336 386
336 391
336 403
337 277
337 289
337 295
337 303
337 304
337 308
337 312
337 327
337 328
337 334
337 340
337 348
337 350
337 363
337 371
337 375
337 376
337 380
337 388
337 390
337 397
337 400
338 271
338 276
338 280
338 296
338 298
338 302
338 303
338 314
338 316
338 327
338 329
338 334
338 340
338 346
338 355
338 368
338 370
338 376
338 378
338 388
338 404
338 410
339 273
339 284
339 288
339 290
339 299
339 300
339 306
339 313
339 317
339 321
339 322
339 323
339 341
339 342
339 357
339 359
339 360
339 361
339 385
339 386
339 387
339 402
340 277
340 295
340 302
340 303
340 304
340 308
340 327
340 328
340 334
340 337
340 338
340 350
340 363
340 370
340 371
340 376
340 380
340 388
340 397
340 400
341 274
341 283
341 290
341 305
341 306
341 313
341 322
341 323
341 332
341 339
341 347
341 349
341 357
341 359
341 362
341 382
341 385
341 387
341 392
341 395
341 396
341 402
342 284
342 285
342 288
342 299
342 300
342 306
342 309
342 317
342 321
342 322
342 323
342 336
342 339
342 357
342 359
342 360
342 361
342 364
342 384
342 385
342 386
342 403
343 278
343 287
343 301
343 310
343 311
343 319
343 325
343 326
343 330
343 331
343 344
343 351
343 358
343 366
343 373
343 374
343 379
343 391
343 394
343 406
343 411
344 275
344 279
344 293
344 301
344 310
344 311
344 312
344 325
344 326
344 328
344 330
344 343
344 348
344 350
344 351
344 358
344 371
344 374
344 375
344 379
344 390
344 394
344 406
344 409
344 420
345 281
345 282
345 286
345 292
345 297
345 305
345 315
345 318
345 320
345 333
345 347
345 349
345 352
345 354
345 367
345 372
345 381
345 383
345 392
345 398
345 399
345 413
346 291
346 296
346 298
346 314
346 316
346 329
346 338
346 355
346 365
346 368
346 370
346 378
346 389
346 401
346 404
346 415
347 283
347 305
347 313
347 318
347 332
347 341
347 345
347 349
347 354
347 359
347 362
347 372
347 382
347 387
347 392
347 395
347 396
347 399
347 412
348 279
348 289
348 293
348 304
348 308
348 311
348 312
348 325
348 326
348 328
348 337
348 344
348 350
348 358
348 363
348 371
348 375
348 379
348 380
348 390
348 394
348 400
348 409
348 423
349 286
349 305
349 313
349 315
349 318
349 332
349 341
349 345
349 347
349 354
349 362
349 372
349 381
349 382
349 392
349 395
349 399
349 412
350 289
350 295
350 304
350 308
350 312
350 325
350 328
350 337
350 340
350 344
350 348
350 363
350 371
350 375
350 376
350 380
350 390
350 397
350 400
350 421
351 287
351 294
351 301
351 309
351 310
351 319
351 326
351 330
351 331
351 336
351 343
351 344
351 358
351 364
351 366
351 373
351 374
351 379
351 391
351 394
351 406
351 407
351 411
351 416
352 282
352 292
352 297
352 307
352 315
352 320
352 324
352 333
352 335
352 345
352 354
352 356
352 367
352 369
352 377
352 381
352 383
352 393
352 398
352 408
352 413
352 422
353 307
353 324
353 335
353 356
353 369
353 377
353 393
353 405
353 418
354 281
354 286
354 297
354 305
354 315
354 318
354 320
354 332
354 333
354 345
354 347
354 349
354 352
354 362
354 367
354 372
354 381
354 383
354 392
354 398
354 399
354 412
355 296
355 298
355 314
355 316
355 327
355 329
355 338
355 346
355 365
355 368
355 370
355 378
355 389
355 401
355 404
355 410
355 415
355 429
356 307
356 320
356 324
356 333
356 335
356 352
356 353
356 367
356 369
356 377
356 383
356 393
356 398
356 405
356 408
356 418
356 422
356 432
357 288
357 299
357 300
357 306
357 313
357 317
357 321
357 322
357 323
357 339
357 341
357 342
357 359
357 360
357 361
357 364
357 384
357 385
357 386
357 387
357 396
357 402
357 403
357 414
357 424
358 301
358 310
358 311
358 319
358 325
358 326
358 330
358 343
358 344
358 348
358 351
358 373
358 374
358 375
358 379
358 391
358 394
358 406
358 409
358 411
358 420
358 436
359 290
359 306
359 313
359 322
359 323
359 332
359 339
359 341
359 342
359 347
359 357
359 360
359 362
359 382
359 385
359 386
359 387
359 395
359 396
359 402
359 414
359 424
359 430
360 299
360 300
360 306
360 317
360 321
360 322
360 323
360 336
360 339
360 342
360 357
360 359
360 361
360 364
360 384
360 385
360 386
360 387
360 402
360 403
360 424
361 299
361 300
361 309
361 317
361 321
361 323
361 331
361 336
361 339
361 342
361 357
361 360
361 364
361 366
361 384
361 385
361 386
361 403
362 305
362 313
362 322
362 332
362 341
362 347
362 349
362 354
362 359
362 372
362 382
362 385
362 387
362 392
362 395
362 396
362 399
362 402
362 412
362 414
362 425
362 430
362 437
363 295
363 304
363 308
363 312
363 328
363 334
363 337
363 340
363 348
363 350
363 371
363 375
363 376
363 380
363 390
363 397
363 400
363 421
363 431
364 300
364 309
364 317
364 319
364 321
364 331
364 336
364 342
364 351
364 357
364 360
364 361
364 366
364 373
364 384
364 386
364 391
364 403
364 407
364 416
364 433
365 298
365 316
365 329
365 346
365 355
365 368
365 378
365 389
365 401
365 404
365 415
365 426
365 429
366 309
366 317
366 319
366 330
366 331
366 336
366 343
366 351
366 361
366 364
366 373
366 374
366 384
366 391
366 403
366 407
366 411
366 416
366 433
367 297
367 307
367 315
367 318
367 320
367 324
367 333
367 345
367 352
367 354
367 356
367 372
367 377
367 381
367 383
367 398
367 399
367 408
367 413
367 422
367 434
368 302
368 314
368 316
368 327
368 329
368 334
368 338
368 346
368 355
368 365
368 370
368 376
368 378
368 388
368 401
368 404
368 410
368 415
368 417
368 419
368 429
368 435
369 307
369 324
369 335
369 352
369 353
369 356
369 377
369 383
369 393
369 405
369 408
369 418
369 432
370 302
370 314
370 327
370 329
370 334
370 338
370 340
370 346
370 355
370 368
370 376
370 378
370 388
370 397
370 404
370 410
370 417
370 419
370 428
370 435
371 304
371 308
371 312
371 325
371 328
371 337
371 340
371 344
371 348
371 350
371 363
371 375
371 376
371 379
371 380
371 390
371 397
371 400
371 409
371 421
371 423
371 431
372 305
372 315
372 318
372 332
372 345
372 347
372 349
372 354
372 362
372 367
372 381
372 382
372 392
372 395
372 399
372 412
372 425
372 427
372 444
373 309
373 310
373 319
373 326
373 330
373 331
373 336
373 343
373 351
373 358
373 364
373 366
373 374
373 379
373 384
373 391
373 394
373 406
373 407
373 411
373 416
373 433
373 438
374 301
374 310
374 311
374 319
374 325
374 326
374 330
374 331
374 343
374 344
374 351
374 358
374 366
374 373
374 379
374 391
374 394
374 406
374 407
374 409
374 411
374 420
374 436
374 438
375 311
375 312
375 325
375 326
375 328
375 337
375 344
375 348
375 350
375 358
375 363
375 371
375 379
375 380
375 390
375 394
375 400
375 406
375 409
375 420
375 421
375 423
375 431
376 303
376 308
376 327
376 334
376 337
376 338
376 340
376 350
376 363
376 368
376 370
376 371
376 380
376 388
376 397
376 400
376 410
376 417
376 419
376 421
376 428
376 439
377 307
377 320
377 324
377 333
377 335
377 352
377 353
377 356
377 367
377 369
377 381
377 383
377 393
377 398
377 408
377 413
377 418
377 422
377 432
377 443
378 314
378 316
378 327
378 329
378 338
378 346
378 355
378 365
378 368
378 370
378 388
378 389
378 401
378 404
378 410
378 415
378 419
378 426
378 429
378 435
379 310
379 311
379 325
379 326
379 330
379 343
379 344
379 348
379 351
379 358
379 371
379 373
379 374
379 375
379 390
379 391
379 394
379 406
379 409
379 411
379 420
379 423
379 436
379 450
380 304
380 308
380 328
380 334
380 337
380 340
380 348
380 350
380 363
380 371
380 375
380 376
380 388
380 390
380 397
380 400
380 417
380 421
380 428
380 431
380 439
381 315
381 318
381 320
381 333
381 345
381 349
381 352
381 354
381 367
381 372
381 377
381 383
381 392
381 398
381 399
381 408
381 412
381 413
381 422
381 425
381 427
381 434
381 447
382 313
382 322
382 332
382 341
382 347
382 349
382 359
382 362
382 372
382 385
382 387
382 392
382 395
382 396
382 399
382 402
382 412
382 414
382 425
382 430
382 437
382 444
383 307
383 315
383 320
383 324
383 333
383 335
383 345
383 352
383 354
383 356
383 367
383 369
383 377
383 381
383 393
383 398
383 408
383 413
383 422
383 432
383 434
383 443
384 309
384 317
384 321
384 331
384 336
384 342
384 357
384 360
384 361
384 364
384 366
384 373
384 386
384 391
384 403
384 407
384 416
384 433
384 441
385 306
385 322
385 323
385 339
385 341
385 342
385 357
385 359
385 360
385 361
385 362
385 382
385 386
385 387
385 395
385 396
385 402
385 403
385 414
385 424
385 430
385 442
386 317
386 321
386 323
386 336
386 339
386 342
386 357
386 359
386 360
386 361
386 364
386 384
386 385
386 387
386 402
386 403
386 414
386 424
386 441
387 313
387 322
387 332
387 339
387 341
387 347
387 357
387 359
387 360
387 362
387 382
387 385
387 386
387 392
387 395
387 396
387 402
387 412
387 414
387 424
387 430
387 437
387 442
388 327
388 329
388 334
388 337
388 338
388 340
388 368
388 370
388 376
388 378
388 380
388 397
388 404
388 410
388 417
388 419
388 428
388 435
388 439
388 448
388 451
388 452
389 346
389 355
389 365
389 378
389 401
389 404
389 415
389 426
389 429
389 446
390 325
390 328
390 337
390 344
390 348
390 350
390 363
390 371
390 375
390 379
390 380
390 394
390 397
390 400
390 409
390 420
390 421
390 423
390 431
390 450
390 456
391 319
391 330
391 331
391 336
391 343
391 351
391 358
391 364
391 366
391 373
391 374
391 379
391 384
391 394
391 406
391 407
391 411
391 416
391 420
391 433
391 436
391 438
391 453
392 332
392 341
392 345
392 347
392 349
392 354
392 362
392 372
392 381
392 382
392 387
392 395
392 396
392 399
392 412
392 425
392 427
392 430
392 437
392 444
392 458
392 461
393 324
393 335
393 352
393 353
393 356
393 369
393 377
393 383
393 398
393 405
393 408
393 418
393 422
393 432
393 440
393 443
393 445
393 454
393 455
394 325
394 326
394 330
394 343
394 344
394 348
394 351
394 358
394 373
394 374
394 375
394 379
394 390
394 391
394 406
394 409
394 411
394 420
394 423
394 436
394 438
394 450
394 459
395 332
395 341
395 347
395 349
395 359
395 362
395 372
395 382
395 385
395 387
395 392
395 396
395 399
395 402
395 412
395 414
395 425
395 427
395 430
395 437
395 444
395 458
396 332
396 341
396 347
396 357
396 359
396 362
396 382
396 385
396 387
396 392
396 395
396 402
396 412
396 414
396 424
396 425
396 430
396 437
396 442
396 444
396 458
396 462
396 469
397 334
397 337
397 340
397 350
397 363
397 370
397 371
397 376
397 380
397 388
397 390
397 400
397 417
397 419
397 421
397 428
397 431
397 439
397 448
397 452
397 460
398 333
398 345
398 352
398 354
398 356
398 367
398 377
398 381
398 383
398 393
398 399
398 408
398 413
398 422
398 427
398 432
398 434
398 443
398 447
398 455
399 345
399 347
399 349
399 354
399 362
399 367
399 372
399 381
399 382
399 392
399 395
399 398
399 412
399 413
399 425
399 427
399 434
399 437
399 444
399 447
399 461
399 468
400 328
400 337
400 340
400 348
400 350
400 363
400 371
400 375
400 376
400 380
400 390
400 397
400 409
400 421
400 423
400 428
400 431
400 439
400 452
400 456
400 460
400 467
401 346
401 355
401 365
401 368
401 378
401 389
401 404
401 410
401 415
401 426
401 429
401 435
401 446
401 449
401 465
402 322
402 339
402 341
402 357
402 359
402 360
402 362
402 382
402 385
402 386
402 387
402 395
402 396
402 414
402 424
402 430
402 437
402 442
402 457
402 462
402 469
403 336
403 342
403 357
403 360
403 361
403 364
403 366
403 384
403 385
403 386
403 407
403 416
403 424
403 433
403 441
403 457
403 463
403 470
404 329
404 338
404 346
404 355
404 365
404 368
404 370
404 378
404 388
404 389
404 401
404 410
404 415
404 417
404 419
404 426
404 429
404 435
404 446
404 449
404 451
404 465
405 335
405 353
405 356
405 369
405 393
405 408
405 418
405 432
405 440
405 445
405 454
406 326
406 330
406 343
406 344
406 351
406 358
406 373
406 374
406 375
406 379
406 391
406 394
406 407
406 409
406 411
406 420
406 423
406 436
406 438
406 450
406 459
407 331
407 351
407 364
407 366
407 373
407 374
407 384
407 391
407 403
407 406
407 411
407 416
407 433
407 438
407 453
407 463
407 466
407 475
408 352
408 356
408 367
408 369
408 377
408 381
408 383
408 393
408 398
408 405
408 413
408 418
408 422
408 432
408 434
408 443
408 445
408 454
408 455
408 478
409 344
409 348
409 358
409 371
409 374
409 375
409 379
409 390
409 394
409 400
409 406
409 411
409 420
409 423
409 431
409 436
409 450
409 456
409 459
409 473
410 338
410 355
410 368
410 370
410 376
410 378
410 388
410 401
410 404
410 415
410 417
410 419
410 428
410 429
410 435
410 448
410 449
410 451
410 464
410 465
410 477
411 343
411 351
411 358
411 366
411 373
411 374
411 379
411 391
411 394
411 406
411 407
411 409
411 416
411 420
411 433
411 436
411 438
411 453
411 459
411 466
412 347
412 349
412 354
412 362
412 372
412 381
412 382
412 387
412 392
412 395
412 396
412 399
412 425
412 427
412 430
412 434
412 437
412 444
412 447
412 458
412 461
412 468
413 345
413 352
413 367
413 377
413 381
413 383
413 398
413 399
413 408
413 422
413 425
413 427
413 432
413 434
413 443
413 447
413 455
413 468
413 472
413 478
414 357
414 359
414 362
414 382
414 385
414 386
414 387
414 395
414 396
414 402
414 424
414 430
414 437
414 442
414 457
414 458
414 462
414 469
414 484
415 346
415 355
415 365
415 368
415 378
415 389
415 401
415 404
415 410
415 419
415 426
415 429
415 435
415 446
415 449
415 451
415 465
415 480
416 351
416 364
416 366
416 373
416 384
416 391
416 403
416 407
416 411
416 433
416 438
416 441
416 453
416 463
416 466
416 475
417 368
417 370
417 376
417 380
417 388
417 397
417 404
417 410
417 419
417 421
417 428
417 435
417 439
417 448
417 449
417 451
417 452
417 464
417 471
417 474
417 477
417 493
418 353
418 356
418 369
418 377
418 393
418 405
418 408
418 422
418 432
418 440
418 443
418 445
418 454
418 455
418 481
418 486
419 368
419 370
419 376
419 378
419 388
419 397
419 404
419 410
419 415
419 417
419 428
419 429
419 435
419 439
419 448
419 449
419 451
419 452
419 464
419 465
419 471
419 477
420 344
420 358
420 374
420 375
420 379
420 390
420 391
420 394
420 406
420 409
420 411
420 423
420 431
420 436
420 438
420 450
420 456
420 459
420 473
420 479
421 350
421 363
421 371
421 375
421 376
421 380
421 390
421 397
421 400
421 417
421 423
421 428
421 431
421 439
421 448
421 452
421 456
421 460
421 467
421 474
421 476
422 352
422 356
422 367
422 377
422 381
422 383
422 393
422 398
422 408
422 413
422 418
422 432
422 434
422 443
422 445
422 447
422 454
422 455
422 472
422 478
423 348
423 371
423 375
423 379
423 390
423 394
423 400
423 406
423 409
423 420
423 421
423 431
423 436
423 450
423 456
423 459
423 460
423 467
423 473
423 476
423 492
424 357
424 359
424 360
424 385
424 386
424 387
424 396
424 402
424 403
424 414
424 430
424 437
424 441
424 442
424 457
424 462
424 469
424 470
424 484
424 487
424 489
425 362
425 372
425 381
425 382
425 392
425 395
425 396
425 399
425 412
425 413
425 427
425 430
425 434
425 437
425 444
425 447
425 458
425 461
425 468
425 472
425 482
425 490
426 365
426 378
426 389
426 401
426 404
426 415
426 429
426 446
426 449
426 465
426 480
426 500
427 372
427 381
427 392
427 395
427 398
427 399
427 412
427 413
427 425
427 434
427 437
427 444
427 447
427 458
427 461
427 468
427 472
427 482
427 490
428 370
428 376
428 380
428 388
428 397
428 400
428 410
428 417
428 419
428 421
428 435
428 439
428 448
428 451
428 452
428 460
428 464
428 471
428 474
428 491
428 493
429 355
429 365
429 368
429 378
429 389
429 401
429 404
429 410
429 415
429 419
429 426
429 435
429 446
429 449
429 451
429 464
429 465
429 477
429 480
429 494
430 359
430 362
430 382
430 385
430 387
430 392
430 395
430 396
430 402
430 412
430 414
430 424
430 425
430 437
430 442
430 444
430 458
430 462
430 469
430 484
430 485
431 363
431 371
431 375
431 380
431 390
431 397
431 400
431 409
431 420
431 421
431 423
431 439
431 450
431 456
431 459
431 460
431 467
431 473
431 474
431 476
431 492
431 496
432 356
432 369
432 377
432 383
432 393
432 398
432 405
432 408
432 413
432 418
432 422
432 440
432 443
432 445
432 454
432 455
432 478
432 481
432 486
433 364
433 366
433 373
433 384
433 391
433 403
433 407
433 411
433 416
433 438
433 441
433 453
433 463
433 466
433 470
433 475
433 483
434 367
434 381
434 383
434 398
434 399
434 408
434 412
434 413
434 422
434 425
434 427
434 443
434 444
434 447
434 455
434 461
434 468
434 472
434 478
434 482
434 490
434 499
435 368
435 370
435 378
435 388
435 401
435 404
435 410
435 415
435 417
435 419
435 428
435 429
435 446
435 448
435 449
435 451
435 452
435 464
435 465
435 471
435 477
435 493
435 494
435 502
435 504
436 358
436 374
436 379
436 391
436 394
436 406
436 409
436 411
436 420
436 423
436 438
436 450
436 453
436 459
436 466
436 473
436 479
436 488
436 495
437 362
437 382
437 387
437 392
437 395
437 396
437 399
437 402
437 412
437 414
437 424
437 425
437 427
437 430
437 442
437 444
437 458
437 461
437 462
437 469
437 482
437 485
437 501
437 506
438 373
438 374
438 391
438 394
438 406
438 407
438 411
438 416
438 420
438 433
438 436
438 453
438 459
438 466
438 475
438 479
438 488
439 376
439 380
439 388
439 397
439 400
439 417
439 419
439 421
439 428
439 431
439 448
439 452
439 456
439 460
439 464
439 467
439 471
439 474
439 476
439 491
439 493
439 496
439 497
440 393
440 405
440 418
440 432
440 445
440 454
440 455
440 481
440 486
440 503
441 384
441 386
441 403
441 416
441 424
441 433
441 442
441 453
441 457
441 462
441 463
441 470
441 475
441 483
441 487
441 489
441 505
441 510
442 385
442 387
442 396
442 402
442 414
442 424
442 430
442 437
442 441
442 457
442 458
442 462
442 469
442 470
442 484
442 485
442 487
442 489
442 508
443 377
443 383
443 393
443 398
443 408
443 413
443 418
443 422
443 432
443 434
443 445
443 447
443 454
443 455
443 472
443 478
443 486
443 498
443 499
443 507
444 372
444 382
444 392
444 395
444 396
444 399
444 412
444 425
444 427
444 430
444 434
444 437
444 447
444 458
444 461
444 468
444 469
444 482
444 485
444 490
444 501
444 506
445 393
445 405
445 408
445 418
445 422
445 432
445 440
445 443
445 454
445 455
445 478
445 481
445 486
445 498
445 503
445 507
446 389
446 401
446 404
446 415
446 426
446 429
446 435
446 449
446 465
446 480
446 494
446 500
446 509
447 381
447 398
447 399
447 412
447 413
447 422
447 425
447 427
447 434
447 443
447 444
447 461
447 468
447 472
447 482
447 490
447 498
447 499
447 512
448 388
448 397
448 410
448 417
448 419
448 421
448 428
448 435
448 439
448 449
448 451
448 452
448 460
448 464
448 471
448 474
448 477
448 491
448 493
448 497
448 502
448 504
448 520
449 401
449 404
449 410
449 415
449 417
449 419
449 426
449 429
449 435
449 446
449 448
449 451
449 464
449 465
449 471
449 477
449 480
449 494
449 502
449 504
449 509
449 523
450 379
450 390
450 394
450 406
450 409
450 420
450 423
450 431
450 436
450 456
450 459
450 460
450 467
450 473
450 476
450 479
450 492
450 495
450 511
450 513
451 388
451 404
451 410
451 415
451 417
451 419
451 428
451 429
451 435
451 448
451 449
451 452
451 464
451 465
451 471
451 477
451 491
451 493
451 494
451 502
451 504
452 388
452 397
452 400
452 417
452 419
452 421
452 428
452 435
452 439
452 448
452 451
452 460
452 464
452 467
452 471
452 474
452 477
452 491
452 493
452 496
452 497
452 502
452 515
452 520
453 391
453 407
453 411
453 416
453 433
453 436
453 438
453 441
453 463
453 466
453 475
453 483
453 488
453 505
453 516
453 519
454 393
454 405
454 408
454 418
454 422
454 432
454 440
454 443
454 445
454 455
454 478
454 481
454 486
454 503
454 507
454 522
455 393
455 398
455 408
455 413
455 418
455 422
455 432
455 434
455 440
455 443
455 445
455 454
455 472
455 478
455 481
455 486
455 498
455 499
455 503
455 507
455 522
456 390
456 400
456 409
456 420
456 421
456 423
456 431
456 439
456 450
456 459
456 460
456 467
456 473
456 474
456 476
456 479
456 492
456 495
456 496
456 497
456 511
456 517
456 524
457 402
457 403
457 414
457 424
457 441
457 442
457 462
457 463
457 469
457 470
457 483
457 484
457 485
457 487
457 489
457 505
457 508
457 510
457 518
458 392
458 395
458 396
458 412
458 414
458 425
458 427
458 430
458 437
458 442
458 444
458 461
458 462
458 468
458 469
458 482
458 484
458 485
458 501
458 506
458 514
458 521
459 394
459 406
459 409
459 411
459 420
459 423
459 431
459 436
459 438
459 450
459 456
459 466
459 473
459 476
459 479
459 488
459 492
459 495
459 511
459 513
460 397
460 400
460 421
460 423
460 428
460 431
460 439
460 448
460 450
460 452
460 456
460 467
460 471
460 473
460 474
460 476
460 491
460 492
460 496
460 497
460 515
460 517
461 392
461 399
461 412
461 425
461 427
461 434
461 437
461 444
461 447
461 458
461 468
461 472
461 482
461 490
461 501
461 512
461 514
462 396
462 402
462 414
462 424
462 430
462 437
462 441
462 442
462 457
462 458
462 469
462 470
462 484
462 485
462 487
462 489
462 506
462 508
462 510
462 518
462 527
463 403
463 407
463 416
463 433
463 441
463 453
463 457
463 466
463 470
463 475
463 483
463 487
463 489
463 505
463 510
463 525
464 410
464 417
464 419
464 428
464 429
464 435
464 439
464 448
464 449
464 451
464 452
464 465
464 471
464 474
464 477
464 491
464 493
464 494
464 502
464 504
464 520
464 523
464 526
465 401
465 404
465 410
465 415
465 419
465 426
465 429
465 435
465 446
465 449
465 451
465 464
465 477
465 480
465 494
465 500
465 502
465 504
465 509
465 523
465 526
465 531
466 407
466 411
466 416
466 433
466 436
466 438
466 453
466 459
466 463
466 475
466 479
466 483
466 488
466 513
466 516
466 519
467 400
467 421
467 423
467 431
467 439
467 450
467 452
467 456
467 460
467 473
467 474
467 476
467 491
467 492
467 496
467 497
467 511
467 515
467 517
467 524
467 528
468 399
468 412
468 413
468 425
468 427
468 434
468 444
468 447
468 458
468 461
468 472
468 482
468 490
468 498
468 499
468 501
468 512
468 514
468 541
469 396
469 402
469 414
469 424
469 430
469 437
469 442
469 444
469 457
469 458
469 462
469 484
469 485
469 489
469 501
469 506
469 508
469 518
469 521
469 527
469 529
470 403
470 424
470 433
470 441
470 442
470 457
470 462
470 463
470 475
470 483
470 484
470 487
470 489
470 505
470 510
470 518
470 525
470 530
470 533
471 417
471 419
471 428
471 435
471 439
471 448
471 449
471 451
471 452
471 460
471 464
471 474
471 477
471 491
471 493
471 494
471 497
471 502
471 504
471 515
471 520
471 526
471 542
471 543
472 413
472 422
472 425
472 427
472 434
472 443
472 447
472 455
472 461
472 468
472 478
472 482
472 490
472 498
472 499
472 507
472 512
472 514
472 544
472 545
473 409
473 420
473 423
473 431
473 436
473 450
473 456
473 459
473 460
473 467
473 476
473 479
473 488
473 492
473 495
473 496
473 511
473 513
473 517
473 524
473 536
474 417
474 421
474 428
474 431
474 439
474 448
474 452
474 456
474 460
474 464
474 467
474 471
474 476
474 491
474 492
474 493
474 496
474 497
474 515
474 517
474 520
474 528
474 543
475 407
475 416
475 433
475 438
475 441
475 453
475 463
475 466
475 470
475 483
475 487
475 488
475 505
475 516
475 519
475 525
475 539
476 421
476 423
476 431
476 439
476 450
476 456
476 459
476 460
476 467
476 473
476 474
476 479
476 492
476 495
476 496
476 497
476 511
476 515
476 517
476 524
476 528
476 540
477 410
477 417
477 419
477 429
477 435
477 448
477 449
477 451
477 452
477 464
477 465
477 471
477 480
477 491
477 493
477 494
477 502
477 504
477 509
477 520
477 523
477 526
477 542
477 546
478 408
478 413
478 422
478 432
478 434
478 443
478 445
478 454
478 455
478 472
478 481
478 486
478 498
478 499
478 503
478 507
478 512
478 522
478 532
478 537
478 547
479 420
479 436
479 438
479 450
479 456
479 459
479 466
479 473
479 476
479 488
479 492
479 495
479 511
479 513
479 519
479 524
479 536
479 538
480 415
480 426
480 429
480 446
480 449
480 465
480 477
480 494
480 500
480 504
480 509
480 523
480 531
480 552
481 418
481 432
481 440
481 445
481 454
481 455
481 478
481 486
481 503
481 507
481 522
481 534
481 537
482 425
482 427
482 434
482 437
482 444
482 447
482 458
482 461
482 468
482 472
482 490
482 499
482 501
482 506
482 512
482 514
482 521
482 535
482 541
482 545
483 433
483 441
483 453
483 457
483 463
483 466
483 470
483 475
483 487
483 489
483 505
483 510
483 516
483 525
483 530
483 533
483 539
483 551
484 414
484 424
484 430
484 442
484 457
484 458
484 462
484 469
484 470
484 485
484 487
484 489
484 506
484 508
484 510
484 518
484 521
484 527
484 529
484 530
484 555
485 430
485 437
485 442
485 444
485 457
485 458
485 462
485 469
485 484
485 489
485 501
485 506
485 508
485 518
485 521
485 527
485 529
485 535
485 548
485 555
486 418
486 432
486 440
486 443
486 445
486 454
486 455
486 478
486 481
486 498
486 499
486 503
486 507
486 522
486 532
486 534
486 537
486 554
487 424
487 441
487 442
487 457
487 462
487 463
487 470
487 475
487 483
487 484
487 489
487 505
487 508
487 510
487 518
487 525
487 527
487 530
487 533
487 539
487 551
488 436
488 438
488 453
488 459
488 466
488 473
488 475
488 479
488 495
488 511
488 513
488 516
488 519
488 536
488 538
488 549
488 561
489 424
489 441
489 442
489 457
489 462
489 463
489 469
489 470
489 483
489 484
489 485
489 487
489 505
489 508
489 510
489 518
489 525
489 527
489 530
489 533
489 551
490 425
490 427
490 434
490 444
490 447
490 461
490 468
490 472
490 482
490 498
490 499
490 501
490 512
490 514
490 541
490 544
490 545
491 428
491 439
491 448
491 451
491 452
491 460
491 464
491 467
491 471
491 474
491 477
491 493
491 496
491 497
491 502
491 504
491 515
491 520
491 526
491 528
491 542
491 543
491 550
491 562
492 423
492 431
492 450
492 456
492 459
492 460
492 467
492 473
492 474
492 476
492 479
492 495
492 496
492 497
492 511
492 513
492 515
492 517
492 524
492 528
492 536
492 540
492 564
493 417
493 428
493 435
493 439
493 448
493 451
493 452
493 464
493 471
493 474
493 477
493 491
493 494
493 497
493 502
493 504
493 515
493 520
493 523
493 526
493 542
493 543
493 546
493 566
494 429
494 435
494 446
494 449
494 451
494 464
494 465
494 471
494 477
494 480
494 493
494 500
494 502
494 504
494 509
494 523
494 526
494 531
494 542
494 546
494 557
494 558
494 570
495 436
495 450
495 456
495 459
495 473
495 476
495 479
495 488
495 492
495 511
495 513
495 517
495 519
495 524
495 536
495 538
495 540
495 561
496 431
496 439
496 452
496 456
496 460
496 467
496 473
496 474
496 476
496 491
496 492
496 497
496 511
496 515
496 517
496 520
496 524
496 528
496 540
496 543
496 550
496 556
497 439
497 448
497 452
497 456
497 460
497 467
497 471
497 474
497 476
497 491
497 492
497 493
497 496
497 502
497 515
497 517
497 520
497 528
497 540
497 543
497 550
497 556
497 562
498 443
498 445
498 447
498 455
498 468
498 472
498 478
498 486
498 490
498 499
498 503
498 507
498 512
498 522
498 532
498 537
498 544
498 545
498 547
498 554
498 559
499 434
499 443
499 447
499 455
499 468
499 472
499 478
499 482
499 486
499 490
499 498
499 507
499 512
499 514
499 522
499 532
499 544
499 545
499 547
499 559
500 426
500 446
500 465
500 480
500 494
500 509
500 523
500 531
500 552
500 557
501 437
501 444
501 458
501 461
501 468
501 469
501 482
501 485
501 490
501 506
501 508
501 514
501 521
501 529
501 535
501 541
501 545
501 548
501 560
501 567
502 435
502 448
502 449
502 451
502 452
502 464
502 465
502 471
502 477
502 491
502 493
502 494
502 497
502 504
502 509
502 520
502 523
502 526
502 542
502 543
502 546
502 558
502 566
502 570
503 440
503 445
503 454
503 455
503 478
503 481
503 486
503 498
503 507
503 522
503 532
503 534
503 537
503 554
503 565
503 571
504 435
504 448
504 449
504 451
504 464
504 465
504 471
504 477
504 480
504 491
504 493
504 494
504 502
504 509
504 520
504 523
504 526
504 531
504 542
504 546
504 557
504 558
504 570
505 441
505 453
505 457
505 463
505 470
505 475
505 483
505 487
505 489
505 510
505 516
505 518
505 525
505 530
505 533
505 539
505 551
505 553
505 569
506 437
506 444
506 458
506 462
506 469
506 482
506 484
506 485
506 501
506 508
506 514
506 518
506 521
506 527
506 529
506 535
506 541
506 548
506 555
506 560
506 567
506 568
507 443
507 445
507 454
507 455
507 472
507 478
507 481
507 486
507 498
507 499
507 503
507 512
507 522
507 532
507 534
507 537
507 544
507 547
507 554
507 559
507 572
508 442
508 457
508 462
508 469
508 484
508 485
508 487
508 489
508 501
508 506
508 510
508 518
508 521
508 527
508 529
508 530
508 535
508 548
508 555
508 560
508 568
508 574
508 577
509 446
509 449
509 465
509 477
509 480
509 494
509 500
509 502
509 504
509 523
509 526
509 531
509 546
509 552
509 557
509 558
509 570
510 441
510 457
510 462
510 463
510 470
510 483
510 484
510 487
510 489
510 505
510 508
510 518
510 525
510 527
510 530
510 533
510 539
510 551
510 569
510 574
510 578
511 450
511 456
511 459
511 467
511 473
511 476
511 479
511 488
511 492
511 495
511 496
511 513
511 517
511 524
511 528
511 536
511 538
511 540
511 561
511 564
511 573
512 447
512 461
512 468
512 472
512 478
512 482
512 490
512 498
512 499
512 507
512 514
512 522
512 532
512 541
512 544
512 545
512 547
512 559
512 563
512 575
512 576
513 450
513 459
513 466
513 473
513 479
513 488
513 492
513 495
513 511
513 516
513 519
513 524
513 536
513 538
513 549
513 561
513 573
513 579
514 458
514 461
514 468
514 472
514 482
514 490
514 499
514 501
514 506
514 512
514 521
514 529
514 535
514 541
514 544
514 545
514 548
514 560
514 563
514 567
514 576
514 581
515 452
515 460
515 467
515 471
515 474
515 476
515 491
515 492
515 493
515 496
515 497
515 517
515 520
515 524
515 528
515 540
515 543
515 550
515 556
515 562
515 566
515 586
516 453
516 466
516 475
516 483
516 488
516 505
516 513
516 519
516 525
516 538
516 539
516 549
516 553
516 561
516 579
516 580
517 456
517 460
517 467
517 473
517 474
517 476
517 492
517 495
517 496
517 497
517 511
517 515
517 524
517 528
517 536
517 540
517 550
517 556
517 564
517 583
518 457
518 462
518 469
518 470
518 484
518 485
518 487
518 489
518 505
518 506
518 508
518 510
518 525
518 527
518 529
518 530
518 533
518 548
518 551
518 555
518 568
518 574
518 577
518 578
518 588
519 453
519 466
519 475
519 479
519 488
519 495
519 513
519 516
519 536
519 538
519 539
519 549
519 553
519 561
519 579
520 448
520 452
520 464
520 471
520 474
520 477
520 491
520 493
520 496
520 497
520 502
520 504
520 515
520 526
520 528
520 542
520 543
520 546
520 550
520 562
520 566
520 584
520 587
521 458
521 469
521 482
521 484
521 485
521 501
521 506
521 508
521 514
521 527
521 529
521 535
521 541
521 548
521 555
521 560
521 563
521 567
521 568
521 581
521 582
522 454
522 455
522 478
522 481
522 486
522 498
522 499
522 503
522 507
522 512
522 532
522 534
522 537
522 544
522 547
522 554
522 559
522 565
522 571
522 572
522 589
522 591
523 449
523 464
523 465
523 477
523 480
523 493
523 494
523 500
523 502
523 504
523 509
523 526
523 531
523 542
523 546
523 552
523 557
523 558
523 570
523 584
523 593
524 456
524 467
524 473
524 476
524 479
524 492
524 495
524 496
524 511
524 513
524 515
524 517
524 528
524 536
524 540
524 550
524 556
524 564
524 573
524 583
525 463
525 470
525 475
525 483
525 487
525 489
525 505
525 510
525 516
525 518
525 530
525 533
525 539
525 549
525 551
525 553
525 569
525 574
525 578
525 580
525 592
526 464
526 465
526 471
526 477
526 491
526 493
526 494
526 502
526 504
526 509
526 520
526 523
526 531
526 542
526 543
526 546
526 557
526 558
526 566
526 570
526 584
526 587
526 593
527 462
527 469
527 484
527 485
527 487
527 489
527 506
527 508
527 510
527 518
527 521
527 529
527 530
527 533
527 548
527 551
527 555
527 560
527 568
527 574
527 577
527 578
527 582
527 588
528 467
528 474
528 476
528 491
528 492
528 496
528 497
528 511
528 515
528 517
528 520
528 524
528 536
528 540
528 543
528 550
528 556
528 562
528 564
528 583
528 586
529 469
529 484
529 485
529 501
529 506
529 508
529 514
529 518
529 521
529 527
529 530
529 535
529 548
529 555
529 560
529 567
529 568
529 574
529 577
529 582
529 588
529 597
530 470
530 483
530 484
530 487
530 489
530 505
530 508
530 510
530 518
530 525
530 527
530 529
530 533
530 539
530 551
530 555
530 569
530 574
530 577
530 578
530 588
530 599
531 465
531 480
531 494
531 500
531 504
531 509
531 523
531 526
531 546
531 552
531 557
531 558
531 570
531 585
531 593
531 602
532 478
532 486
532 498
532 499
532 503
532 507
532 512
532 522
532 534
532 537
532 544
532 547
532 554
532 559
532 565
532 571
532 572
532 575
532 589
532 591
533 470
533 483
533 487
533 489
533 505
533 510
533 518
533 525
533 527
533 530
533 539
533 551
533 553
533 569
533 574
533 577
533 578
533 580
533 592
533 599
534 481
534 486
534 503
534 507
534 522
534 532
534 537
534 547
534 554
534 565
534 571
534 572
534 590
534 591
534 603
535 482
535 485
535 501
535 506
535 508
535 514
535 521
535 529
535 541
535 545
535 548
535 555
535 560
535 563
535 567
535 568
535 576
535 581
535 582
535 595
535 597
536 473
536 479
536 488
536 492
536 495
536 511
536 513
536 517
536 519
536 524
536 528
536 538
536 540
536 556
536 561
536 564
536 573
536 583
536 596
536 598
537 478
537 481
537 486
537 498
537 503
537 507
537 522
537 532
537 534
537 547
537 554
537 565
537 571
537 572
537 589
537 590
537 591
537 603
538 479
538 488
538 495
538 511
538 513
538 516
538 519
538 536
538 549
538 553
538 561
538 573
538 579
538 596
538 598
538 600
539 475
539 483
539 487
539 505
539 510
539 516
539 519
539 525
539 530
539 533
539 549
539 551
539 553
539 569
539 578
539 580
539 592
540 476
540 492
540 495
540 496
540 497
540 511
540 515
540 517
540 524
540 528
540 536
540 550
540 556
540 562
540 564
540 573
540 583
540 586
541 468
541 482
541 490
541 501
541 506
541 512
541 514
541 521
541 535
541 544
541 545
541 548
541 559
541 560
541 563
541 567
541 575
541 576
541 581
541 594
541 595
541 597
542 471
542 477
542 491
542 493
542 494
542 502
542 504
542 520
542 523
542 526
542 543
542 546
542 550
542 557
542 558
542 562
542 566
542 570
542 584
542 587
542 593
542 601
542 604
543 471
543 474
543 491
543 493
543 496
543 497
543 502
543 515
543 520
543 526
543 528
543 542
543 546
543 550
543 556
543 562
543 566
543 584
543 586
543 587
543 601
544 472
544 490
544 498
544 499
544 507
544 512
544 514
544 522
544 532
544 541
544 545
544 547
544 554
544 559
544 563
544 572
544 575
544 576
544 589
544 591
544 594
544 595
545 472
545 482
545 490
545 498
545 499
545 501
545 512
545 514
545 535
545 541
545 544
545 547
545 559
545 563
545 567
545 575
545 576
545 581
545 594
545 595
546 477
546 493
546 494
546 502
546 504
546 509
546 520
546 523
546 526
546 531
546 542
546 543
546 557
546 558
546 562
546 566
546 570
546 584
546 587
546 593
546 601
546 604
547 478
547 498
547 499
547 507
547 512
547 522
547 532
547 534
547 537
547 544
547 545
547 554
547 559
547 565
547 572
547 575
547 576
547 589
547 591
547 594
548 485
548 501
548 506
548 508
548 514
548 518
548 521
548 527
548 529
548 535
548 541
548 555
548 560
548 563
548 567
548 568
548 577
548 581
548 582
548 588
548 597
549 488
549 513
549 516
549 519
549 525
549 538
549 539
549 553
549 561
549 579
549 580
549 592
549 598
549 600
550 491
550 496
550 497
550 515
550 517
550 520
550 524
550 528
550 540
550 542
550 543
550 556
550 562
550 564
550 566
550 583
550 586
550 587
551 483
551 487
551 489
551 505
551 510
551 518
551 525
551 527
551 530
551 533
551 539
551 553
551 555
551 569
551 574
551 577
551 578
551 580
551 588
551 592
551 599
552 480
552 500
552 509
552 523
552 531
552 557
552 558
552 570
552 585
552 593
552 602
553 505
553 516
553 519
553 525
553 533
553 538
553 539
553 549
553 551
553 561
553 569
553 579
553 580
553 592
553 600
554 486
554 498
554 503
554 507
554 522
554 532
554 534
554 537
554 544
554 547
554 559
554 565
554 571
554 572
554 589
554 590
554 591
554 603
555 484
555 485
555 506
555 508
555 518
555 521
555 527
555 529
555 530
555 535
555 548
555 551
555 560
555 567
555 568
555 574
555 577
555 578
555 582
555 588
555 597
555 599
556 496
556 497
556 515
556 517
556 524
556 528
556 536
556 540
556 543
556 550
556 562
556 564
556 583
556 586
556 587
557 494
557 500
557 504
557 509
557 523
557 526
557 531
557 542
557 546
557 552
557 558
557 570
557 584
557 585
557 593
557 602
557 604
558 494
558 502
558 504
558 509
558 523
558 526
558 531
558 542
558 546
558 552
558 557
558 566
558 570
558 584
558 585
558 593
558 601
558 602
558 604
559 498
559 499
559 507
559 512
559 522
559 532
559 541
559 544
559 545
559 547
559 554
559 563
559 572
559 575
559 576
559 589
559 591
559 594
559 595
560 501
560 506
560 508
560 514
560 521
560 527
560 529
560 535
560 541
560 548
560 555
560 563
560 567
560 568
560 577
560 581
560 582
560 588
560 595
560 597
561 488
561 495
561 511
561 513
561 516
561 519
561 536
561 538
561 549
561 553
561 564
561 573
561 579
561 596
561 598
561 600
562 491
562 497
562 515
562 520
562 528
562 540
562 542
562 543
562 546
562 550
562 556
562 566
562 583
562 584
562 586
562 587
562 601
563 512
563 514
563 521
563 535
563 541
563 544
563 545
563 548
563 559
563 560
563 567
563 575
563 576
563 581
563 582
563 594
563 595
563 597
564 492
564 511
564 517
564 524
564 528
564 536
564 540
564 550
564 556
564 561
564 573
564 583
564 586
564 596
564 598
565 503
565 522
565 532
565 534
565 537
565 547
565 554
565 571
565 572
565 589
565 590
565 591
565 603
566 493
566 502
566 515
566 520
566 526
566 542
566 543
566 546
566 550
566 558
566 562
566 570
566 584
566 586
566 587
566 593
566 601
566 604
567 501
567 506
567 514
567 521
567 529
567 535
567 541
567 545
567 548
567 555
567 560
567 563
567 568
567 576
567 581
567 582
567 594
567 595
567 597
568 506
568 508
568 518
568 521
568 527
568 529
568 535
568 548
568 555
568 560
568 567
568 574
568 577
568 581
568 582
568 588
568 597
569 505
569 510
569 525
569 530
569 533
569 539
569 551
569 553
569 574
569 577
569 578
569 580
569 592
569 599
570 494
570 502
570 504
570 509
570 523
570 526
570 531
570 542
570 546
570 552
570 557
570 558
570 566
570 584
570 585
570 587
570 593
570 601
570 604
571 503
571 522
571 532
571 534
571 537
571 554
571 565
571 572
571 590
571 591
571 603
572 507
572 522
572 532
572 534
572 537
572 544
572 547
572 554
572 559
572 565
572 571
572 575
572 589
572 590
572 591
572 603
573 511
573 513
573 524
573 536
573 538
573 540
573 561
573 564
573 579
573 583
573 596
573 598
573 600
574 508
574 510
574 518
574 525
574 527
574 529
574 530
574 533
574 551
574 555
574 568
574 569
574 577
574 578
574 588
574 599
575 512
575 532
575 541
575 544
575 545
575 547
575 559
575 563
575 572
575 576
575 581
575 589
575 591
575 594
575 595
576 512
576 514
576 535
576 541
576 544
576 545
576 547
576 559
576 563
576 567
576 575
576 581
576 589
576 594
576 595
576 597
577 508
577 518
577 527
577 529
577 530
577 533
577 548
577 551
577 555
577 560
577 568
577 569
577 574
577 578
577 582
577 588
577 599
578 510
578 518
578 525
578 527
578 530
578 533
578 539
578 551
578 555
578 569
578 574
578 577
578 580
578 588
578 592
578 599
579 513
579 516
579 519
579 538
579 549
579 553
579 561
579 573
579 580
579 592
579 596
579 598
579 600
580 516
580 525
580 533
580 539
580 549
580 551
580 553
580 569
580 578
580 579
580 592
580 600
581 514
581 521
581 535
581 541
581 545
581 548
581 560
581 563
581 567
581 568
581 575
581 576
581 582
581 594
581 595
581 597
582 521
582 527
582 529
582 535
582 548
582 555
582 560
582 563
582 567
582 568
582 577
582 581
582 588
582 595
582 597
583 517
583 524
583 528
583 536
583 540
583 550
583 556
583 562
583 564
583 573
583 586
583 596
584 520
584 523
584 526
584 542
584 543
584 546
584 557
584 558
584 562
584 566
584 570
584 587
584 593
584 601
584 604
585 531
585 552
585 557
585 558
585 570
585 593
585 602
585 604
586 515
586 528
586 540
586 543
586 550
586 556
586 562
586 564
586 566
586 583
586 587
587 520
587 526
587 542
587 543
587 546
587 550
587 556
587 562
587 566
587 570
587 584
587 586
587 593
587 601
587 604
588 518
588 527
588 529
588 530
588 548
588 551
588 555
588 560
588 568
588 574
588 577
588 578
588 582
588 597
588 599
589 522
589 532
589 537
589 544
589 547
589 554
589 559
589 565
589 572
589 575
589 576
589 590
589 591
589 594
589 603
590 534
590 537
590 554
590 565
590 571
590 572
590 589
590 591
590 603
591 522
591 532
591 534
591 537
591 544
591 547
591 554
591 559
591 565
591 571
591 572
591 575
591 589
591 590
591 603
592 525
592 533
592 539
592 549
592 551
592 553
592 569
592 578
592 579
592 580
592 599
592 600
593 523
593 526
593 531
593 542
593 546
593 552
593 557
593 558
593 566
593 570
593 584
593 585
593 587
593 601
593 602
593 604
594 541
594 544
594 545
594 547
594 559
594 563
594 567
594 575
594 576
594 581
594 589
594 595
595 535
595 541
595 544
595 545
595 559
595 560
595 563
595 567
595 575
595 576
595 581
595 582
595 594
595 597
596 536
596 538
596 561
596 564
596 573
596 579
596 583
596 598
596 600
597 529
597 535
597 541
597 548
597 555
597 560
597 563
597 567
597 568
597 576
597 581
597 582
597 588
597 595
598 536
598 538
598 549
598 561
598 564
598 573
598 579
598 596
598 600
599 530
599 533
599 551
599 555
599 569
599 574
599 577
599 578
599 588
599 592
600 538
600 549
600 553
600 561
600 573
600 579
600 580
600 592
600 596
600 598
601 542
601 543
601 546
601 558
601 562
601 566
601 570
601 584
601 587
601 593
601 604
602 531
602 552
602 557
602 558
602 585
602 593
603 534
603 537
603 554
603 565
603 571
603 572
603 589
603 590
603 591
604 542
604 546
604 557
604 558
604 566
604 570
604 584
604 585
604 587
604 593
604 601
