1 11
1 16
1 31
1 40
2 5
2 21
2 28
2 38
2 42
2 52
3 27
3 43
4 6
4 14
4 19
4 34
4 47
5 2
5 21
5 28
5 42
5 52
6 4
6 14
6 19
6 26
6 34
6 51
6 58
6 71
7 9
7 13
7 30
7 35
7 37
7 45
7 59
8 20
8 23
8 41
8 53
9 7
9 21
9 30
9 35
9 38
9 49
9 59
10 15
10 24
10 25
10 36
10 39
10 48
11 1
11 12
11 16
11 18
11 31
11 40
11 46
11 60
12 11
12 15
12 18
12 24
12 39
12 40
12 46
12 50
12 73
13 7
13 29
13 30
13 35
13 37
13 45
13 66
13 72
14 4
14 6
14 19
14 26
14 29
14 34
14 51
14 58
14 71
15 10
15 12
15 24
15 39
15 48
15 50
15 68
15 73
16 1
16 11
16 18
16 31
16 40
16 46
16 60
16 62
17 19
17 33
17 44
17 47
17 55
17 61
17 63
18 11
18 12
18 16
18 24
18 40
18 46
18 50
18 60
18 76
19 4
19 6
19 14
19 17
19 34
19 44
19 47
19 63
19 71
19 74
20 8
20 23
20 41
20 42
20 53
20 67
21 2
21 5
21 9
21 28
21 38
21 49
21 52
21 70
21 75
22 25
22 27
22 32
22 36
22 43
22 54
22 56
22 69
22 83
23 8
23 20
23 41
23 65
24 10
24 12
24 15
24 18
24 39
24 46
24 50
24 68
24 73
25 10
25 22
25 27
25 32
25 36
25 39
25 48
25 54
25 69
25 79
25 83
26 6
26 14
26 29
26 37
26 51
26 57
26 58
26 81
27 3
27 22
27 25
27 32
27 43
27 54
27 56
27 77
27 85
28 2
28 5
28 21
28 38
28 42
28 52
28 64
28 75
28 86
29 13
29 14
29 26
29 37
29 45
29 51
29 57
29 66
29 81
29 84
30 7
30 9
30 13
30 35
30 38
30 45
30 49
30 59
30 72
30 80
30 90
31 1
31 11
31 16
31 40
31 55
31 60
31 62
32 22
32 25
32 27
32 36
32 54
32 56
32 69
32 83
32 85
33 17
33 44
33 47
33 55
33 61
33 63
34 4
34 6
34 14
34 19
34 47
34 51
34 58
34 71
34 74
35 7
35 9
35 13
35 30
35 37
35 45
35 49
35 59
35 66
35 72
35 80
36 10
36 22
36 25
36 32
36 39
36 48
36 54
36 69
36 78
36 79
36 83
37 7
37 13
37 26
37 29
37 35
37 45
37 57
37 66
37 72
37 84
38 2
38 9
38 21
38 28
38 30
38 49
38 52
38 70
38 75
38 91
38 92
39 10
39 12
39 15
39 24
39 25
39 36
39 48
39 50
39 68
39 73
39 78
39 79
39 95
40 1
40 11
40 12
40 16
40 18
40 31
40 46
40 50
40 60
40 62
40 76
40 89
41 8
41 20
41 23
41 53
41 65
41 67
41 82
42 2
42 5
42 20
42 28
42 52
42 53
42 64
42 67
42 75
42 86
43 3
43 22
43 27
43 56
43 77
43 85
44 17
44 19
44 33
44 47
44 55
44 61
44 63
44 88
44 94
44 99
45 7
45 13
45 29
45 30
45 35
45 37
45 57
45 59
45 66
45 72
45 80
45 97
45 102
46 11
46 12
46 16
46 18
46 24
46 40
46 50
46 60
46 73
46 76
46 87
46 89
46 104
47 4
47 17
47 19
47 33
47 34
47 44
47 61
47 63
47 71
47 74
47 88
47 99
48 10
48 15
48 25
48 36
48 39
48 54
48 68
48 69
48 73
48 78
48 79
48 95
48 98
48 101
49 9
49 21
49 30
49 35
49 38
49 52
49 59
49 70
49 80
49 90
49 91
49 100
50 12
50 15
50 18
50 24
50 39
50 40
50 46
50 60
50 68
50 73
50 76
50 87
50 89
50 104
51 6
51 14
51 26
51 29
51 34
51 57
51 58
51 71
51 81
51 84
51 93
51 113
52 2
52 5
52 21
52 28
52 38
52 42
52 49
52 64
52 70
52 75
52 86
52 92
52 100
52 108
53 8
53 20
53 41
53 42
53 64
53 65
53 67
53 82
53 107
53 110
54 22
54 25
54 27
54 32
54 36
54 48
54 56
54 69
54 79
54 83
54 85
54 101
54 103
54 112
55 17
55 31
55 33
55 44
55 61
55 62
55 63
55 94
55 99
55 109
56 22
56 27
56 32
56 43
56 54
56 77
56 83
56 85
56 103
56 111
56 112
56 119
57 26
57 29
57 37
57 45
57 51
57 58
57 66
57 72
57 81
57 84
57 97
57 113
57 114
58 6
58 14
58 26
58 34
58 51
58 57
58 71
58 74
58 81
58 93
58 105
59 7
59 9
59 30
59 35
59 45
59 49
59 70
59 72
59 80
59 90
59 91
59 106
59 120
60 11
60 16
60 18
60 31
60 40
60 46
60 50
60 62
60 76
60 89
60 96
60 104
60 117
61 17
61 33
61 44
61 47
61 55
61 63
61 88
61 94
61 99
61 109
62 16
62 31
62 40
62 55
62 60
62 89
62 94
62 96
62 117
63 17
63 19
63 33
63 44
63 47
63 55
63 61
63 74
63 88
63 94
63 99
63 109
63 118
64 28
64 42
64 52
64 53
64 67
64 75
64 86
64 107
64 108
64 115
64 124
65 23
65 41
65 53
65 82
65 110
66 13
66 29
66 35
66 37
66 45
66 57
66 72
66 80
66 84
66 97
66 102
66 114
66 123
67 20
67 41
67 42
67 53
67 64
67 82
67 86
67 107
67 110
67 124
68 15
68 24
68 39
68 48
68 50
68 73
68 78
68 79
68 87
68 95
68 98
68 122
69 22
69 25
69 32
69 36
69 48
69 54
69 78
69 79
69 83
69 85
69 98
69 101
69 112
69 126
70 21
70 38
70 49
70 52
70 59
70 75
70 90
70 91
70 92
70 100
70 121
70 125
71 6
71 14
71 19
71 34
71 47
71 51
71 58
71 74
71 81
71 88
71 93
71 105
71 116
71 133
72 13
72 30
72 35
72 37
72 45
72 57
72 59
72 66
72 80
72 84
72 90
72 97
72 102
72 106
72 123
73 12
73 15
73 24
73 39
73 46
73 48
73 50
73 68
73 76
73 78
73 87
73 95
73 104
73 122
73 127
74 19
74 34
74 47
74 58
74 63
74 71
74 88
74 93
74 99
74 105
74 116
74 118
75 21
75 28
75 38
75 42
75 52
75 64
75 70
75 86
75 92
75 100
75 108
75 115
75 125
76 18
76 40
76 46
76 50
76 60
76 73
76 87
76 89
76 104
76 117
77 27
77 43
77 56
77 85
77 103
77 111
77 119
77 129
78 36
78 39
78 48
78 68
78 69
78 73
78 79
78 87
78 95
78 98
78 101
78 122
78 131
79 25
79 36
79 39
79 48
79 54
79 68
79 69
79 78
79 83
79 95
79 98
79 101
79 126
79 131
80 30
80 35
80 45
80 49
80 59
80 66
80 72
80 90
80 91
80 97
80 102
80 106
80 120
80 132
81 26
81 29
81 51
81 57
81 58
81 71
81 84
81 93
81 105
81 113
81 114
81 128
82 41
82 53
82 65
82 67
82 107
82 110
82 130
82 135
83 22
83 25
83 32
83 36
83 54
83 56
83 69
83 79
83 85
83 101
83 103
83 112
83 119
83 126
83 138
84 29
84 37
84 51
84 57
84 66
84 72
84 81
84 97
84 102
84 113
84 114
84 123
84 143
85 27
85 32
85 43
85 54
85 56
85 69
85 77
85 83
85 101
85 103
85 111
85 112
85 119
85 129
85 138
86 28
86 42
86 52
86 64
86 67
86 75
86 92
86 107
86 108
86 115
86 124
86 137
86 145
87 46
87 50
87 68
87 73
87 76
87 78
87 89
87 95
87 104
87 122
87 127
88 44
88 47
88 61
88 63
88 71
88 74
88 99
88 105
88 109
88 116
88 118
88 147
89 40
89 46
89 50
89 60
89 62
89 76
89 87
89 96
89 104
89 117
89 139
89 142
89 150
90 30
90 49
90 59
90 70
90 72
90 80
90 91
90 100
90 102
90 106
90 120
90 121
90 132
90 134
90 146
91 38
91 49
91 59
91 70
91 80
91 90
91 92
91 100
91 106
91 120
91 121
91 125
91 132
91 134
91 146
91 153
92 38
92 52
92 70
92 75
92 86
92 91
92 100
92 108
92 121
92 125
92 134
92 137
93 51
93 58
93 71
93 74
93 81
93 105
93 113
93 116
93 128
93 133
93 143
94 44
94 55
94 61
94 62
94 63
94 96
94 99
94 109
94 136
94 140
95 39
95 48
95 68
95 73
95 78
95 79
95 87
95 98
95 104
95 122
95 127
95 131
95 154
96 60
96 62
96 89
96 94
96 117
96 136
96 139
96 150
96 157
97 45
97 57
97 66
97 72
97 80
97 84
97 102
97 106
97 113
97 114
97 123
97 141
97 144
97 155
98 48
98 68
98 69
98 78
98 79
98 95
98 101
98 122
98 126
98 131
98 156
99 44
99 47
99 55
99 61
99 63
99 74
99 88
99 94
99 109
99 116
99 118
99 136
99 140
99 147
100 49
100 52
100 70
100 75
100 90
100 91
100 92
100 108
100 120
100 121
100 125
100 134
100 137
100 153
101 48
101 54
101 69
101 78
101 79
101 83
101 85
101 98
101 112
101 126
101 131
101 138
102 45
102 66
102 72
102 80
102 84
102 90
102 97
102 106
102 114
102 120
102 123
102 132
102 141
102 144
103 54
103 56
103 77
103 83
103 85
103 111
103 112
103 119
103 129
103 138
103 158
104 46
104 50
104 60
104 73
104 76
104 87
104 89
104 95
104 117
104 122
104 127
104 142
104 152
105 58
105 71
105 74
105 81
105 88
105 93
105 116
105 118
105 128
105 133
105 151
105 159
106 59
106 72
106 80
106 90
106 91
106 97
106 102
106 120
106 121
106 123
106 132
106 141
106 146
106 160
107 53
107 64
107 67
107 82
107 86
107 110
107 115
107 124
107 130
107 135
107 145
107 148
107 149
108 52
108 64
108 75
108 86
108 92
108 100
108 115
108 125
108 134
108 137
108 145
108 161
108 166
109 55
109 61
109 63
109 88
109 94
109 99
109 118
109 136
109 140
109 163
110 53
110 65
110 67
110 82
110 107
110 124
110 130
110 135
110 148
110 149
111 56
111 77
111 85
111 103
111 119
111 129
111 158
112 54
112 56
112 69
112 83
112 85
112 101
112 103
112 119
112 126
112 129
112 138
112 167
112 168
113 51
113 57
113 81
113 84
113 93
113 97
113 114
113 123
113 128
113 143
113 144
113 155
113 172
114 57
114 66
114 81
114 84
114 97
114 102
114 113
114 123
114 141
114 143
114 144
114 155
114 172
115 64
115 75
115 86
115 107
115 108
115 124
115 130
115 137
115 145
115 148
115 166
115 175
115 180
116 71
116 74
116 88
116 93
116 99
116 105
116 118
116 128
116 133
116 147
116 151
116 159
117 60
117 62
117 76
117 89
117 96
117 104
117 139
117 142
117 150
117 157
117 174
118 63
118 74
118 88
118 99
118 105
118 109
118 116
118 133
118 140
118 147
118 151
118 169
119 56
119 77
119 83
119 85
119 103
119 111
119 112
119 129
119 138
119 158
119 167
119 168
120 59
120 80
120 90
120 91
120 100
120 102
120 106
120 121
120 132
120 134
120 141
120 146
120 153
120 160
120 165
120 170
121 70
121 90
121 91
121 92
121 100
121 106
121 120
121 125
121 132
121 134
121 146
121 153
121 161
121 165
121 170
122 68
122 73
122 78
122 87
122 95
122 98
122 104
122 127
122 131
122 152
122 154
122 156
122 162
122 184
123 66
123 72
123 84
123 97
123 102
123 106
123 113
123 114
123 132
123 141
123 143
123 144
123 155
123 178
123 179
124 64
124 67
124 86
124 107
124 110
124 115
124 130
124 145
124 148
124 149
124 175
124 176
124 180
125 70
125 75
125 91
125 92
125 100
125 108
125 121
125 134
125 137
125 153
125 161
125 165
125 166
126 69
126 79
126 83
126 98
126 101
126 112
126 131
126 138
126 156
126 164
126 168
126 173
127 73
127 87
127 95
127 104
127 122
127 131
127 142
127 152
127 154
127 156
127 162
127 184
128 81
128 93
128 105
128 113
128 116
128 133
128 143
128 151
128 159
128 172
128 177
129 77
129 85
129 103
129 111
129 112
129 119
129 138
129 158
129 167
129 181
130 82
130 107
130 110
130 115
130 124
130 135
130 145
130 148
130 149
130 176
130 180
130 183
131 78
131 79
131 95
131 98
131 101
131 122
131 126
131 127
131 138
131 154
131 156
131 164
131 173
131 190
132 80
132 90
132 91
132 102
132 106
132 120
132 121
132 123
132 141
132 144
132 146
132 153
132 160
132 170
132 179
133 71
133 93
133 105
133 116
133 118
133 128
133 143
133 147
133 151
133 159
133 177
133 191
134 90
134 91
134 92
134 100
134 108
134 120
134 121
134 125
134 137
134 146
134 153
134 161
134 165
134 170
134 194
135 82
135 107
135 110
135 130
135 148
135 149
135 176
135 183
136 94
136 96
136 99
136 109
136 139
136 140
136 157
136 163
136 171
136 182
136 187
136 200
137 86
137 92
137 100
137 108
137 115
137 125
137 134
137 145
137 161
137 165
137 166
137 175
137 196
138 83
138 85
138 101
138 103
138 112
138 119
138 126
138 129
138 131
138 158
138 164
138 167
138 168
138 173
138 189
138 199
139 89
139 96
139 117
139 136
139 142
139 150
139 157
139 171
139 174
139 187
139 193
139 204
140 94
140 99
140 109
140 118
140 136
140 147
140 163
140 169
140 171
140 182
140 202
141 97
141 102
141 106
141 114
141 120
141 123
141 132
141 144
141 146
141 155
141 160
141 178
141 179
141 203
142 89
142 104
142 117
142 127
142 139
142 150
142 152
142 162
142 174
142 185
142 193
142 198
143 84
143 93
143 113
143 114
143 123
143 128
143 133
143 144
143 155
143 159
143 172
143 177
143 178
143 186
143 205
144 97
144 102
144 113
144 114
144 123
144 132
144 141
144 143
144 155
144 160
144 172
144 178
144 179
144 186
144 203
145 86
145 107
145 108
145 115
145 124
145 130
145 137
145 148
145 166
145 175
145 176
145 180
145 196
146 90
146 91
146 106
146 120
146 121
146 132
146 134
146 141
146 153
146 160
146 165
146 170
146 192
147 88
147 99
147 116
147 118
147 133
147 140
147 151
147 159
147 163
147 169
147 182
147 188
147 191
148 107
148 110
148 115
148 124
148 130
148 135
148 145
148 149
148 176
148 180
148 183
148 197
149 107
149 110
149 124
149 130
149 135
149 148
149 176
149 183
149 197
149 213
150 89
150 96
150 117
150 139
150 142
150 152
150 157
150 174
150 185
150 187
150 193
150 204
150 207
151 105
151 116
151 118
151 128
151 133
151 147
151 159
151 169
151 177
151 188
151 191
152 104
152 122
152 127
152 142
152 150
152 154
152 162
152 184
152 185
152 195
152 198
153 91
153 100
153 120
153 121
153 125
153 132
153 134
153 146
153 160
153 161
153 165
153 170
153 192
153 194
153 215
154 95
154 122
154 127
154 131
154 152
154 156
154 162
154 164
154 184
154 190
154 195
154 209
155 97
155 113
155 114
155 123
155 141
155 143
155 144
155 172
155 178
155 179
155 186
155 203
155 205
155 219
156 98
156 122
156 126
156 127
156 131
156 154
156 162
156 164
156 173
156 184
156 190
156 209
156 211
157 96
157 117
157 136
157 139
157 150
157 163
157 171
157 174
157 187
157 193
157 200
157 204
157 207
158 103
158 111
158 119
158 129
158 138
158 167
158 168
158 181
158 208
159 105
159 116
159 128
159 133
159 143
159 147
159 151
159 172
159 177
159 188
159 191
159 201
160 106
160 120
160 132
160 141
160 144
160 146
160 153
160 170
160 178
160 179
160 192
160 206
160 217
161 108
161 121
161 125
161 134
161 137
161 153
161 165
161 166
161 175
161 194
161 196
161 222
162 122
162 127
162 142
162 152
162 154
162 156
162 184
162 185
162 195
162 198
162 209
163 109
163 136
163 140
163 147
163 157
163 169
163 171
163 182
163 187
163 200
163 202
163 214
164 126
164 131
164 138
164 154
164 156
164 168
164 173
164 184
164 189
164 190
164 199
164 211
164 216
165 120
165 121
165 125
165 134
165 137
165 146
165 153
165 161
165 166
165 170
165 192
165 194
165 196
165 215
165 222
166 108
166 115
166 125
166 137
166 145
166 161
166 165
166 175
166 180
166 194
166 196
166 212
167 112
167 119
167 129
167 138
167 158
167 168
167 173
167 181
167 189
167 208
167 220
167 226
168 112
168 119
168 126
168 138
168 158
168 164
168 167
168 173
168 181
168 189
168 199
168 208
168 216
168 220
169 118
169 140
169 147
169 151
169 163
169 171
169 182
169 188
169 200
169 202
169 214
169 218
169 227
170 120
170 121
170 132
170 134
170 146
170 153
170 160
170 165
170 179
170 192
170 194
170 206
170 215
170 223
171 136
171 139
171 140
171 157
171 163
171 169
171 174
171 182
171 187
171 200
171 202
171 204
171 214
172 113
172 114
172 128
172 143
172 144
172 155
172 159
172 177
172 178
172 186
172 201
172 205
172 219
172 228
173 126
173 131
173 138
173 156
173 164
173 167
173 168
173 189
173 190
173 199
173 211
173 216
173 220
174 117
174 139
174 142
174 150
174 157
174 171
174 185
174 187
174 193
174 204
174 207
174 232
175 115
175 124
175 137
175 145
175 161
175 166
175 180
175 196
175 197
175 212
175 221
176 124
176 130
176 135
176 145
176 148
176 149
176 180
176 183
176 197
176 210
176 213
176 221
177 128
177 133
177 143
177 151
177 159
177 172
177 186
177 188
177 191
177 201
177 205
177 224
177 225
178 123
178 141
178 143
178 144
178 155
178 160
178 172
178 179
178 186
178 203
178 205
178 217
178 219
179 123
179 132
179 141
179 144
179 155
179 160
179 170
179 178
179 203
179 206
179 217
180 115
180 124
180 130
180 145
180 148
180 166
180 175
180 176
180 196
180 197
180 212
180 221
181 129
181 158
181 167
181 168
181 189
181 208
181 226
181 231
182 136
182 140
182 147
182 163
182 169
182 171
182 188
182 200
182 202
182 214
182 218
182 227
183 130
183 135
183 148
183 149
183 176
183 197
183 210
183 213
183 239
184 122
184 127
184 152
184 154
184 156
184 162
184 164
184 190
184 195
184 198
184 209
184 211
184 229
184 238
185 142
185 150
185 152
185 162
185 174
185 193
185 195
185 198
185 207
185 233
186 143
186 144
186 155
186 172
186 177
186 178
186 201
186 203
186 205
186 219
186 228
186 243
187 136
187 139
187 150
187 157
187 163
187 171
187 174
187 193
187 200
187 202
187 204
187 207
187 230
187 232
187 242
188 147
188 151
188 159
188 169
188 177
188 182
188 191
188 201
188 214
188 218
188 225
188 227
188 251
189 138
189 164
189 167
189 168
189 173
189 181
189 190
189 199
189 208
189 216
189 220
189 231
189 245
189 254
190 131
190 154
190 156
190 164
190 173
190 184
190 189
190 199
190 209
190 211
190 216
190 237
190 238
191 133
191 147
191 151
191 159
191 177
191 188
191 201
191 218
191 224
191 225
191 241
191 250
192 146
192 153
192 160
192 165
192 170
192 194
192 206
192 215
192 217
192 222
192 223
192 236
192 246
193 139
193 142
193 150
193 157
193 174
193 185
193 187
193 198
193 204
193 207
193 232
193 233
193 240
194 134
194 153
194 161
194 165
194 166
194 170
194 192
194 196
194 215
194 222
194 223
194 235
194 236
194 244
195 152
195 154
195 162
195 184
195 185
195 198
195 209
195 211
195 229
195 233
196 137
196 145
196 161
196 165
196 166
196 175
196 180
196 194
196 212
196 221
196 222
196 235
196 244
197 148
197 149
197 175
197 176
197 180
197 183
197 212
197 213
197 221
197 234
197 239
197 247
197 253
198 142
198 152
198 162
198 184
198 185
198 193
198 195
198 209
198 229
198 233
199 138
199 164
199 168
199 173
199 189
199 190
199 208
199 211
199 216
199 220
199 237
199 245
200 136
200 157
200 163
200 169
200 171
200 182
200 187
200 202
200 204
200 214
200 227
200 230
200 232
200 242
200 248
201 159
201 172
201 177
201 186
201 188
201 191
201 205
201 218
201 224
201 225
201 228
201 241
201 250
202 140
202 163
202 169
202 171
202 182
202 187
202 200
202 214
202 227
202 230
202 242
202 248
203 141
203 144
203 155
203 178
203 179
203 186
203 205
203 206
203 217
203 219
203 228
203 243
203 249
204 139
204 150
204 157
204 171
204 174
204 187
204 193
204 200
204 207
204 230
204 232
204 240
204 242
204 260
205 143
205 155
205 172
205 177
205 178
205 186
205 201
205 203
205 219
205 224
205 228
205 241
205 243
205 257
206 160
206 170
206 179
206 192
206 203
206 215
206 217
206 223
206 246
206 249
206 252
207 150
207 157
207 174
207 185
207 187
207 193
207 204
207 230
207 232
207 233
207 240
207 260
207 263
208 158
208 167
208 168
208 181
208 189
208 199
208 220
208 226
208 231
208 245
208 254
208 255
208 261
209 154
209 156
209 162
209 184
209 190
209 195
209 198
209 211
209 229
209 237
209 238
209 262
209 266
210 176
210 183
210 213
210 234
210 239
210 253
211 156
211 164
211 173
211 184
211 190
211 195
211 199
211 209
211 216
211 229
211 237
211 238
211 266
211 271
212 166
212 175
212 180
212 196
212 197
212 221
212 235
212 247
212 258
212 265
213 149
213 176
213 183
213 197
213 210
213 234
213 239
213 253
214 163
214 169
214 171
214 182
214 188
214 200
214 202
214 218
214 227
214 242
214 248
214 251
214 259
215 153
215 165
215 170
215 192
215 194
215 206
215 222
215 223
215 235
215 236
215 244
215 246
215 264
216 164
216 168
216 173
216 189
216 190
216 199
216 211
216 220
216 237
216 238
216 245
216 254
216 271
216 274
217 160
217 178
217 179
217 192
217 203
217 206
217 219
217 223
217 243
217 246
217 249
217 252
218 169
218 182
218 188
218 191
218 201
218 214
218 224
218 225
218 227
218 241
218 250
218 251
218 256
218 275
219 155
219 172
219 178
219 186
219 203
219 205
219 217
219 228
219 243
219 249
219 257
220 167
220 168
220 173
220 189
220 199
220 208
220 216
220 226
220 231
220 237
220 245
220 254
220 255
220 272
221 175
221 176
221 180
221 196
221 197
221 212
221 234
221 247
221 253
221 258
221 265
222 161
222 165
222 192
222 194
222 196
222 215
222 223
222 235
222 236
222 244
222 264
222 268
222 276
223 170
223 192
223 194
223 206
223 215
223 217
223 222
223 236
223 244
223 246
223 252
223 264
223 273
224 177
224 191
224 201
224 205
224 218
224 225
224 228
224 241
224 250
224 256
224 257
224 267
225 177
225 188
225 191
225 201
225 218
225 224
225 241
225 250
225 251
225 256
225 267
226 167
226 181
226 208
226 220
226 231
226 254
226 255
226 261
227 169
227 182
227 188
227 200
227 202
227 214
227 218
227 242
227 248
227 251
227 256
227 259
227 275
227 278
228 172
228 186
228 201
228 203
228 205
228 219
228 224
228 241
228 243
228 257
229 184
229 195
229 198
229 209
229 211
229 233
229 238
229 262
229 266
230 187
230 200
230 202
230 204
230 207
230 232
230 240
230 242
230 248
230 260
230 270
231 181
231 189
231 208
231 220
231 226
231 245
231 254
231 255
231 261
231 272
231 281
232 174
232 187
232 193
232 200
232 204
232 207
232 230
232 240
232 242
232 260
232 263
232 270
232 280
233 185
233 193
233 195
233 198
233 207
233 229
233 240
233 262
233 263
233 269
233 280
233 292
234 197
234 210
234 213
234 221
234 239
234 247
234 253
234 265
234 277
234 283
235 194
235 196
235 212
235 215
235 222
235 236
235 244
235 258
235 264
235 268
235 276
235 285
235 294
236 192
236 194
236 215
236 222
236 223
236 235
236 244
236 246
236 264
236 273
236 276
236 290
237 190
237 199
237 209
237 211
237 216
237 220
237 238
237 245
237 254
237 266
237 271
237 272
237 274
237 300
238 184
238 190
238 209
238 211
238 216
238 229
238 237
238 262
238 266
238 271
238 274
238 300
239 183
239 197
239 210
239 213
239 234
239 247
239 253
239 277
239 283
240 193
240 204
240 207
240 230
240 232
240 233
240 260
240 263
240 269
240 280
240 301
241 191
241 201
241 205
241 218
241 224
241 225
241 228
241 250
241 256
241 257
241 267
241 284
241 286
242 187
242 200
242 202
242 204
242 214
242 227
242 230
242 232
242 248
242 259
242 260
242 270
242 278
242 297
243 186
243 203
243 205
243 217
243 219
243 228
243 249
243 257
243 279
243 282
243 289
244 194
244 196
244 215
244 222
244 223
244 235
244 236
244 258
244 264
244 268
244 276
244 290
244 294
245 189
245 199
245 208
245 216
245 220
245 231
245 237
245 254
245 255
245 271
245 272
245 274
245 281
245 299
246 192
246 206
246 215
246 217
246 223
246 236
246 249
246 252
246 264
246 273
246 288
246 290
247 197
247 212
247 221
247 234
247 239
247 253
247 258
247 265
247 283
247 285
247 293
248 200
248 202
248 214
248 227
248 230
248 242
248 251
248 259
248 270
248 278
248 297
248 298
249 203
249 206
249 217
249 219
249 243
249 246
249 252
249 279
249 282
249 287
250 191
250 201
250 218
250 224
250 225
250 241
250 251
250 256
250 267
250 275
250 284
250 286
250 296
251 188
251 214
251 218
251 225
251 227
251 248
251 250
251 256
251 259
251 267
251 275
251 278
251 296
251 298
251 307
252 206
252 217
252 223
252 246
252 249
252 273
252 279
252 287
252 288
253 197
253 210
253 213
253 221
253 234
253 239
253 247
253 265
253 277
253 283
253 306
254 189
254 208
254 216
254 220
254 226
254 231
254 237
254 245
254 255
254 261
254 272
254 274
254 281
254 299
254 303
254 310
255 208
255 220
255 226
255 231
255 245
255 254
255 261
255 272
255 281
255 299
255 303
255 305
255 310
256 218
256 224
256 225
256 227
256 241
256 250
256 251
256 259
256 267
256 275
256 286
256 296
256 298
256 307
257 205
257 219
257 224
257 228
257 241
257 243
257 267
257 279
257 282
257 284
257 286
257 289
258 212
258 221
258 235
258 244
258 247
258 265
258 268
258 276
258 285
258 293
258 294
259 214
259 227
259 242
259 248
259 251
259 256
259 270
259 275
259 278
259 297
259 298
260 204
260 207
260 230
260 232
260 240
260 242
260 263
260 270
260 280
260 301
260 302
260 312
261 208
261 226
261 231
261 254
261 255
261 272
261 281
261 299
261 303
261 305
261 310
262 209
262 229
262 233
262 238
262 266
262 269
262 271
262 291
262 292
262 295
262 308
262 315
263 207
263 232
263 233
263 240
263 260
263 269
263 280
263 292
263 301
263 302
263 311
264 215
264 222
264 223
264 235
264 236
264 244
264 246
264 268
264 273
264 276
264 288
264 290
264 309
264 320
265 212
265 221
265 234
265 247
265 253
265 258
265 268
265 283
265 285
265 293
265 324
266 209
266 211
266 229
266 237
266 238
266 262
266 271
266 274
266 291
266 295
266 300
266 308
266 315
267 224
267 225
267 241
267 250
267 251
267 256
267 257
267 275
267 284
267 286
267 289
267 296
267 316
267 318
268 222
268 235
268 244
268 258
268 264
268 265
268 276
268 285
268 293
268 294
268 327
269 233
269 240
269 262
269 263
269 280
269 291
269 292
269 295
269 301
269 311
269 322
270 230
270 232
270 242
270 248
270 259
270 260
270 278
270 297
270 298
270 302
270 325
271 211
271 216
271 237
271 238
271 245
271 262
271 266
271 274
271 291
271 300
271 304
271 308
271 328
272 220
272 231
272 237
272 245
272 254
272 255
272 261
272 274
272 281
272 299
272 303
272 304
272 310
272 313
273 223
273 236
273 246
273 252
273 264
273 287
273 288
273 290
273 309
273 330
274 216
274 237
274 238
274 245
274 254
274 266
274 271
274 272
274 299
274 300
274 304
274 313
274 328
274 335
275 218
275 227
275 250
275 251
275 256
275 259
275 267
275 278
275 286
275 296
275 298
275 307
275 326
276 222
276 235
276 236
276 244
276 258
276 264
276 268
276 285
276 290
276 294
276 320
276 327
277 234
277 239
277 253
277 283
277 306
277 314
277 337
278 227
278 242
278 248
278 251
278 259
278 270
278 275
278 297
278 298
278 325
278 326
278 336
278 338
279 243
279 249
279 252
279 257
279 282
279 287
279 288
279 289
279 317
279 319
279 323
279 339
280 232
280 233
280 240
280 260
280 263
280 269
280 292
280 301
280 302
280 311
280 312
280 322
280 341
281 231
281 245
281 254
281 255
281 261
281 272
281 299
281 303
281 305
281 310
281 313
281 321
281 334
282 243
282 249
282 257
282 279
282 284
282 287
282 289
282 317
282 323
282 332
283 234
283 239
283 247
283 253
283 265
283 277
283 285
283 293
283 306
283 314
283 324
284 241
284 250
284 257
284 267
284 282
284 286
284 289
284 296
284 316
284 317
284 318
284 331
284 332
285 235
285 247
285 258
285 265
285 268
285 276
285 283
285 293
285 294
285 324
285 327
285 329
286 241
286 250
286 256
286 257
286 267
286 275
286 284
286 289
286 296
286 307
286 316
286 318
286 331
287 249
287 252
287 273
287 279
287 282
287 288
287 317
287 319
287 323
287 330
287 339
288 246
288 252
288 264
288 273
288 279
288 287
288 290
288 309
288 319
288 330
288 333
289 243
289 257
289 267
289 279
289 282
289 284
289 286
289 316
289 317
289 323
289 332
290 236
290 244
290 246
290 264
290 273
290 276
290 288
290 294
290 309
290 320
290 327
290 333
291 262
291 266
291 269
291 271
291 292
291 295
291 300
291 308
291 315
291 322
291 328
291 340
291 349
292 233
292 262
292 263
292 269
292 280
292 291
292 295
292 301
292 311
292 315
292 322
292 340
292 342
293 247
293 258
293 265
293 268
293 283
293 285
293 294
293 314
293 324
293 329
293 344
294 235
294 244
294 258
294 268
294 276
294 285
294 290
294 293
294 320
294 327
294 329
294 346
295 262
295 266
295 269
295 291
295 292
295 308
295 315
295 322
295 340
295 342
295 349
296 250
296 251
296 256
296 267
296 275
296 284
296 286
296 298
296 307
296 318
296 326
296 331
296 345
297 242
297 248
297 259
297 270
297 278
297 298
297 302
297 312
297 325
297 326
297 336
297 338
298 248
298 251
298 256
298 259
298 270
298 275
298 278
298 296
298 297
298 307
298 325
298 326
298 336
298 338
299 245
299 254
299 255
299 261
299 272
299 274
299 281
299 303
299 304
299 305
299 310
299 313
299 343
299 347
300 237
300 238
300 266
300 271
300 274
300 291
300 304
300 308
300 313
300 315
300 328
300 335
301 240
301 260
301 263
301 269
301 280
301 292
301 302
301 311
301 312
301 322
301 341
302 260
302 263
302 270
302 280
302 297
302 301
302 311
302 312
302 325
302 341
302 350
303 254
303 255
303 261
303 272
303 281
303 299
303 305
303 310
303 313
303 321
303 334
303 347
304 271
304 272
304 274
304 299
304 300
304 308
304 313
304 328
304 335
304 343
305 255
305 261
305 281
305 299
305 303
305 310
305 321
305 334
305 347
305 365
306 253
306 277
306 283
306 314
306 324
306 337
306 348
306 364
307 251
307 256
307 275
307 286
307 296
307 298
307 318
307 326
307 331
307 338
307 345
307 361
307 363
308 262
308 266
308 271
308 291
308 295
308 300
308 304
308 315
308 328
308 335
308 340
308 342
308 349
308 367
309 264
309 273
309 288
309 290
309 319
309 320
309 330
309 333
309 351
309 353
309 358
310 254
310 255
310 261
310 272
310 281
310 299
310 303
310 305
310 313
310 321
310 334
310 343
310 347
310 366
311 263
311 269
311 280
311 292
311 301
311 302
311 312
311 322
311 341
311 342
311 354
311 373
312 260
312 280
312 297
312 301
312 302
312 311
312 325
312 341
312 350
312 372
313 272
313 274
313 281
313 299
313 300
313 303
313 304
313 310
313 335
313 343
313 347
313 371
314 277
314 283
314 293
314 306
314 324
314 337
314 344
314 348
314 364
314 374
315 262
315 266
315 291
315 292
315 295
315 300
315 308
315 322
315 328
315 340
315 342
315 349
315 367
315 378
316 267
316 284
316 286
316 289
316 317
316 318
316 331
316 332
316 356
316 357
316 368
317 279
317 282
317 284
317 287
317 289
317 316
317 319
317 323
317 332
317 339
317 352
317 357
317 380
318 267
318 284
318 286
318 296
318 307
318 316
318 331
318 345
318 356
318 363
318 368
319 279
319 287
319 288
319 309
319 317
319 323
319 330
319 339
319 352
319 353
319 355
319 369
319 376
320 264
320 276
320 290
320 294
320 309
320 327
320 333
320 346
320 351
320 358
321 281
321 303
321 305
321 310
321 334
321 347
321 365
321 366
322 269
322 280
322 291
322 292
322 295
322 301
322 311
322 315
322 340
322 341
322 342
322 349
322 354
323 279
323 282
323 287
323 289
323 317
323 319
323 330
323 332
323 339
323 352
323 355
323 376
324 265
324 283
324 285
324 293
324 306
324 314
324 329
324 337
324 344
324 348
324 359
324 374
324 375
325 270
325 278
325 297
325 298
325 302
325 312
325 326
325 336
325 338
325 350
325 360
325 362
326 275
326 278
326 296
326 297
326 298
326 307
326 325
326 336
326 338
326 345
326 361
326 362
327 268
327 276
327 285
327 290
327 294
327 320
327 329
327 333
327 346
327 351
327 359
327 381
328 271
328 274
328 291
328 300
328 304
328 308
328 315
328 335
328 340
328 349
328 367
328 370
329 285
329 293
329 294
329 324
329 327
329 344
329 346
329 348
329 359
329 375
329 381
330 273
330 287
330 288
330 309
330 319
330 323
330 333
330 339
330 353
330 355
330 358
330 369
331 284
331 286
331 296
331 307
331 316
331 318
331 332
331 345
331 356
331 357
331 363
331 368
332 282
332 284
332 289
332 316
332 317
332 323
332 331
332 352
332 356
332 357
332 368
332 380
332 384
333 288
333 290
333 309
333 320
333 327
333 330
333 346
333 351
333 353
333 358
333 386
334 281
334 303
334 305
334 310
334 321
334 347
334 365
334 366
334 377
334 392
335 274
335 300
335 304
335 308
335 313
335 328
335 343
335 367
335 370
335 371
336 278
336 297
336 298
336 325
336 326
336 338
336 350
336 360
336 361
336 362
336 391
337 277
337 306
337 314
337 324
337 344
337 348
337 364
337 374
337 382
337 390
338 278
338 297
338 298
338 307
338 325
338 326
338 336
338 345
338 360
338 361
338 362
338 391
338 393
339 279
339 287
339 317
339 319
339 323
339 330
339 352
339 353
339 355
339 369
339 376
339 380
340 291
340 292
340 295
340 308
340 315
340 322
340 328
340 342
340 349
340 354
340 367
340 378
340 385
341 280
341 301
341 302
341 311
341 312
341 322
341 342
341 350
341 354
341 372
341 373
341 383
341 387
341 403
342 292
342 295
342 308
342 311
342 315
342 322
342 340
342 341
342 349
342 354
342 378
342 385
342 387
343 299
343 304
343 310
343 313
343 335
343 347
343 366
343 370
343 371
343 377
343 394
344 293
344 314
344 324
344 329
344 337
344 348
344 359
344 364
344 374
344 375
344 389
344 397
344 402
345 296
345 307
345 318
345 326
345 331
345 338
345 356
345 361
345 362
345 363
345 379
346 294
346 320
346 327
346 329
346 333
346 351
346 358
346 359
346 381
346 388
346 389
347 299
347 303
347 305
347 310
347 313
347 321
347 334
347 343
347 365
347 366
347 371
347 377
347 399
347 406
348 306
348 314
348 324
348 329
348 337
348 344
348 359
348 364
348 374
348 375
348 390
348 397
348 402
349 291
349 295
349 308
349 315
349 322
349 328
349 340
349 342
349 367
349 378
349 385
349 395
350 302
350 312
350 325
350 336
350 341
350 360
350 372
350 373
350 383
350 411
351 309
351 320
351 327
351 333
351 346
351 358
351 381
351 386
351 388
352 317
352 319
352 323
352 332
352 339
352 355
352 357
352 368
352 376
352 380
352 384
352 401
353 309
353 319
353 330
353 333
353 339
353 355
353 358
353 369
353 376
353 386
353 396
353 405
353 407
354 311
354 322
354 340
354 341
354 342
354 372
354 373
354 385
354 387
354 403
354 408
355 319
355 323
355 330
355 339
355 352
355 353
355 369
355 376
355 380
355 396
355 401
355 405
356 316
356 318
356 331
356 332
356 345
356 357
356 363
356 368
356 379
356 384
356 400
356 404
356 419
357 316
357 317
357 331
357 332
357 352
357 356
357 368
357 380
357 384
357 400
357 409
358 309
358 320
358 330
358 333
358 346
358 351
358 353
358 369
358 386
358 388
358 407
358 412
359 324
359 327
359 329
359 344
359 346
359 348
359 375
359 381
359 389
359 402
359 414
359 420
360 325
360 336
360 338
360 350
360 361
360 362
360 372
360 383
360 391
360 393
360 410
361 307
361 326
361 336
361 338
361 345
361 360
361 362
361 363
361 379
361 391
361 393
361 416
362 325
362 326
362 336
362 338
362 345
362 360
362 361
362 379
362 391
362 393
362 410
363 307
363 318
363 331
363 345
363 356
363 361
363 368
363 379
363 400
363 404
363 416
363 419
364 306
364 314
364 337
364 344
364 348
364 374
364 375
364 382
364 390
364 397
364 413
365 305
365 321
365 334
365 347
365 366
365 377
365 392
365 399
366 310
366 321
366 334
366 343
366 347
366 365
366 377
366 392
366 399
366 406
366 428
367 308
367 315
367 328
367 335
367 340
367 349
367 370
367 371
367 378
367 395
367 398
367 418
367 427
368 316
368 318
368 331
368 332
368 352
368 356
368 357
368 363
368 380
368 384
368 400
368 404
368 409
368 419
369 319
369 330
369 339
369 353
369 355
369 358
369 376
369 386
369 396
369 405
369 407
370 328
370 335
370 343
370 367
370 371
370 394
370 395
370 398
370 422
370 426
371 313
371 335
371 343
371 347
371 367
371 370
371 377
371 394
371 398
371 406
371 422
372 312
372 341
372 350
372 354
372 360
372 373
372 383
372 387
372 403
372 411
372 421
373 311
373 341
373 350
373 354
373 372
373 383
373 385
373 387
373 403
373 408
373 411
373 432
374 314
374 324
374 337
374 344
374 348
374 364
374 375
374 382
374 390
374 397
374 402
374 413
374 425
374 431
375 324
375 329
375 344
375 348
375 359
375 364
375 374
375 389
375 390
375 397
375 402
375 420
376 319
376 323
376 339
376 352
376 353
376 355
376 369
376 380
376 396
376 401
376 405
376 423
376 435
377 334
377 343
377 347
377 365
377 366
377 371
377 392
377 394
377 399
377 406
377 428
377 429
378 315
378 340
378 342
378 349
378 367
378 385
378 395
378 408
378 415
378 418
378 427
379 345
379 356
379 361
379 362
379 363
379 393
379 404
379 416
379 430
379 433
380 317
380 332
380 339
380 352
380 355
380 357
380 368
380 376
380 384
380 396
380 401
380 409
380 423
380 434
381 327
381 329
381 346
381 351
381 359
381 388
381 389
381 414
381 417
381 420
382 337
382 364
382 374
382 390
382 397
382 413
382 425
383 341
383 350
383 360
383 372
383 373
383 387
383 391
383 403
383 410
383 411
383 421
383 432
383 439
384 332
384 352
384 356
384 357
384 368
384 380
384 400
384 401
384 409
384 419
384 434
384 444
385 340
385 342
385 349
385 354
385 373
385 378
385 387
385 403
385 408
385 415
385 418
385 437
386 333
386 351
386 353
386 358
386 369
386 388
386 405
386 407
386 412
386 417
386 436
386 447
387 341
387 342
387 354
387 372
387 373
387 383
387 385
387 403
387 408
387 415
387 432
387 437
388 346
388 351
388 358
388 381
388 386
388 407
388 412
388 414
388 417
388 447
389 344
389 346
389 359
389 375
389 381
389 402
389 414
389 420
389 443
389 450
390 337
390 348
390 364
390 374
390 375
390 382
390 397
390 413
390 425
390 431
391 336
391 338
391 360
391 361
391 362
391 383
391 393
391 410
391 411
391 421
391 424
391 440
392 334
392 365
392 366
392 377
392 399
392 406
392 428
392 429
392 442
393 338
393 360
393 361
393 362
393 379
393 391
393 410
393 416
393 424
393 430
393 440
394 343
394 370
394 371
394 377
394 398
394 399
394 406
394 422
394 426
394 429
394 441
394 449
395 349
395 367
395 370
395 378
395 398
395 415
395 418
395 426
395 427
395 438
396 353
396 355
396 369
396 376
396 380
396 401
396 405
396 407
396 423
396 435
396 436
396 448
397 344
397 348
397 364
397 374
397 375
397 382
397 390
397 402
397 413
397 425
397 431
397 443
397 456
398 367
398 370
398 371
398 394
398 395
398 418
398 422
398 426
398 427
398 449
399 347
399 365
399 366
399 377
399 392
399 394
399 406
399 428
399 429
399 441
399 442
399 453
400 356
400 357
400 363
400 368
400 384
400 404
400 409
400 419
400 433
400 444
401 352
401 355
401 376
401 380
401 384
401 396
401 405
401 409
401 423
401 434
401 435
401 448
402 344
402 348
402 359
402 374
402 375
402 389
402 397
402 414
402 420
402 431
402 443
402 450
403 341
403 354
403 372
403 373
403 383
403 385
403 387
403 408
403 411
403 421
403 432
403 437
403 439
403 446
404 356
404 363
404 368
404 379
404 400
404 409
404 416
404 419
404 430
404 433
405 353
405 355
405 369
405 376
405 386
405 396
405 401
405 407
405 412
405 423
405 435
405 436
405 454
406 347
406 366
406 371
406 377
406 392
406 394
406 399
406 422
406 428
406 429
406 441
406 449
406 453
407 353
407 358
407 369
407 386
407 388
407 396
407 405
407 412
407 417
407 435
407 436
407 447
407 454
408 354
408 373
408 378
408 385
408 387
408 403
408 415
408 418
408 432
408 437
408 452
409 357
409 368
409 380
409 384
409 400
409 401
409 404
409 419
409 434
409 444
410 360
410 362
410 383
410 391
410 393
410 411
410 421
410 424
410 439
410 440
410 465
410 467
411 350
411 372
411 373
411 383
411 391
411 403
411 410
411 421
411 432
411 439
411 440
411 446
411 469
412 358
412 386
412 388
412 405
412 407
412 417
412 436
412 447
412 451
412 454
413 364
413 374
413 382
413 390
413 397
413 425
413 431
413 455
414 359
414 381
414 388
414 389
414 402
414 417
414 420
414 443
414 445
414 450
414 451
414 464
415 378
415 385
415 387
415 395
415 408
415 418
415 427
415 437
415 438
415 452
415 466
416 361
416 363
416 379
416 393
416 404
416 419
416 424
416 430
416 433
416 457
417 381
417 386
417 388
417 407
417 412
417 414
417 445
417 447
417 451
418 367
418 378
418 385
418 395
418 398
418 408
418 415
418 426
418 427
418 438
418 452
418 458
418 466
419 356
419 363
419 368
419 384
419 400
419 404
419 409
419 416
419 433
419 444
419 462
419 474
420 359
420 375
420 381
420 389
420 402
420 414
420 443
420 445
420 450
420 464
420 473
421 372
421 383
421 391
421 403
421 410
421 411
421 432
421 439
421 440
421 446
421 465
421 469
421 477
422 370
422 371
422 394
422 398
422 406
422 426
422 429
422 441
422 449
422 460
422 479
423 376
423 380
423 396
423 401
423 405
423 434
423 435
423 436
423 448
423 463
423 468
424 391
424 393
424 410
424 416
424 430
424 433
424 440
424 457
424 459
424 467
425 374
425 382
425 390
425 397
425 413
425 431
425 455
425 456
426 370
426 394
426 395
426 398
426 418
426 422
426 427
426 438
426 449
426 458
426 460
426 479
427 367
427 378
427 395
427 398
427 415
427 418
427 426
427 438
427 452
427 458
427 460
427 466
428 366
428 377
428 392
428 399
428 406
428 429
428 441
428 442
428 453
428 461
428 475
429 377
429 392
429 394
429 399
429 406
429 422
429 428
429 441
429 442
429 449
429 453
429 461
429 475
429 476
430 379
430 393
430 404
430 416
430 424
430 433
430 457
430 459
430 471
431 374
431 390
431 397
431 402
431 413
431 425
431 443
431 455
431 456
431 481
432 373
432 383
432 387
432 403
432 408
432 411
432 421
432 437
432 439
432 446
432 469
432 470
432 477
433 379
433 400
433 404
433 416
433 419
433 424
433 430
433 457
433 462
433 471
433 474
434 380
434 384
434 401
434 409
434 423
434 435
434 444
434 448
434 463
434 468
434 472
435 376
435 396
435 401
435 405
435 407
435 423
435 434
435 436
435 448
435 454
435 463
435 483
436 386
436 396
436 405
436 407
436 412
436 423
436 435
436 447
436 454
436 463
436 480
436 483
437 385
437 387
437 403
437 408
437 415
437 432
437 438
437 446
437 452
437 466
437 470
437 482
437 488
438 395
438 415
438 418
438 426
438 427
438 437
438 452
438 458
438 460
438 466
438 492
439 383
439 403
439 410
439 411
439 421
439 432
439 440
439 446
439 465
439 469
439 477
439 487
440 391
440 393
440 410
440 411
440 421
440 424
440 439
440 459
440 465
440 467
440 477
441 394
441 399
441 406
441 422
441 428
441 429
441 449
441 453
441 475
441 476
441 479
442 392
442 399
442 428
442 429
442 453
442 461
442 475
442 495
443 389
443 397
443 402
443 414
443 420
443 431
443 445
443 450
443 456
443 473
443 481
443 484
444 384
444 400
444 409
444 419
444 434
444 448
444 462
444 468
444 472
444 474
445 414
445 417
445 420
445 443
445 447
445 450
445 451
445 464
445 473
445 478
445 484
445 498
446 403
446 411
446 421
446 432
446 437
446 439
446 465
446 469
446 470
446 477
446 482
446 487
446 488
446 496
447 386
447 388
447 407
447 412
447 417
447 436
447 445
447 451
447 454
447 464
447 478
447 480
448 396
448 401
448 423
448 434
448 435
448 444
448 463
448 468
448 472
448 489
448 490
448 497
449 394
449 398
449 406
449 422
449 426
449 429
449 441
449 460
449 476
449 479
449 500
450 389
450 402
450 414
450 420
450 443
450 445
450 451
450 464
450 473
450 481
450 484
450 498
450 507
451 412
451 414
451 417
451 445
451 447
451 450
451 464
451 478
451 480
451 498
452 408
452 415
452 418
452 427
452 437
452 438
452 458
452 466
452 470
452 482
452 493
453 399
453 406
453 428
453 429
453 441
453 442
453 461
453 475
453 476
453 495
454 405
454 407
454 412
454 435
454 436
454 447
454 463
454 480
454 483
454 489
454 502
454 512
455 413
455 425
455 431
455 456
455 481
455 486
455 491
456 397
456 425
456 431
456 443
456 455
456 473
456 481
456 491
456 510
457 416
457 424
457 430
457 433
457 459
457 467
457 471
457 474
457 485
457 494
457 503
458 418
458 426
458 427
458 438
458 452
458 460
458 466
458 479
458 492
458 493
458 499
458 505
459 424
459 430
459 440
459 457
459 465
459 467
459 485
459 494
459 501
460 422
460 426
460 427
460 438
460 449
460 458
460 479
460 492
460 499
460 500
461 428
461 429
461 442
461 453
461 475
461 495
461 514
462 419
462 433
462 444
462 468
462 471
462 472
462 474
462 503
462 506
462 508
463 423
463 434
463 435
463 436
463 448
463 454
463 468
463 483
463 489
463 490
463 497
463 519
464 414
464 420
464 445
464 447
464 450
464 451
464 473
464 478
464 484
464 498
464 507
464 520
465 410
465 421
465 439
465 440
465 446
465 459
465 467
465 469
465 477
465 487
465 501
465 522
466 415
466 418
466 427
466 437
466 438
466 452
466 458
466 470
466 482
466 492
466 493
466 505
467 410
467 424
467 440
467 457
467 459
467 465
467 477
467 485
467 494
467 501
468 423
468 434
468 444
468 448
468 462
468 463
468 472
468 489
468 490
468 497
468 506
468 525
469 411
469 421
469 432
469 439
469 446
469 465
469 470
469 477
469 482
469 487
469 488
469 496
469 516
470 432
470 437
470 446
470 452
470 466
470 469
470 482
470 487
470 488
470 493
470 496
470 513
471 430
471 433
471 457
471 462
471 474
471 485
471 494
471 503
471 508
471 518
471 524
472 434
472 444
472 448
472 462
472 468
472 474
472 490
472 497
472 506
472 508
473 420
473 443
473 445
473 450
473 456
473 464
473 481
473 484
473 498
473 507
473 510
474 419
474 433
474 444
474 457
474 462
474 471
474 472
474 503
474 506
474 508
474 524
475 428
475 429
475 441
475 442
475 453
475 461
475 476
475 495
475 504
475 511
475 514
475 527
476 429
476 441
476 449
476 453
476 475
476 479
476 500
476 504
476 511
476 514
476 527
477 421
477 432
477 439
477 440
477 446
477 465
477 467
477 469
477 487
477 488
477 496
477 516
477 522
478 445
478 447
478 451
478 464
478 480
478 484
478 498
478 502
478 509
478 520
479 422
479 426
479 441
479 449
479 458
479 460
479 476
479 499
479 500
479 504
479 511
479 528
480 436
480 447
480 451
480 454
480 478
480 483
480 502
480 509
480 512
480 529
481 431
481 443
481 450
481 455
481 456
481 473
481 484
481 491
481 507
481 510
481 517
481 531
482 437
482 446
482 452
482 466
482 469
482 470
482 488
482 493
482 496
482 505
482 513
482 526
483 435
483 436
483 454
483 463
483 480
483 489
483 502
483 512
483 519
483 529
484 443
484 445
484 450
484 464
484 473
484 478
484 481
484 498
484 507
484 510
484 520
484 537
485 457
485 459
485 467
485 471
485 494
485 501
485 518
485 523
486 455
486 491
486 515
486 517
487 439
487 446
487 465
487 469
487 470
487 477
487 488
487 496
487 516
487 522
487 533
488 437
488 446
488 469
488 470
488 477
488 482
488 487
488 493
488 496
488 513
488 516
488 533
488 544
489 448
489 454
489 463
489 468
489 483
489 490
489 497
489 512
489 519
489 525
489 539
490 448
490 463
490 468
490 472
490 489
490 497
490 506
490 519
490 525
490 539
491 455
491 456
491 481
491 486
491 510
491 515
491 517
491 531
491 532
491 548
492 438
492 458
492 460
492 466
492 493
492 499
492 500
492 505
492 521
492 526
492 530
492 545
493 452
493 458
493 466
493 470
493 482
493 488
493 492
493 505
493 513
493 526
493 530
493 553
494 457
494 459
494 467
494 471
494 485
494 501
494 503
494 518
494 523
494 549
495 442
495 453
495 461
495 475
495 511
495 514
495 527
495 540
496 446
496 469
496 470
496 477
496 482
496 487
496 488
496 513
496 516
496 522
496 533
496 544
497 448
497 463
497 468
497 472
497 489
497 490
497 506
497 519
497 525
497 534
497 550
498 445
498 450
498 451
498 464
498 473
498 478
498 484
498 507
498 509
498 520
498 536
498 537
498 552
499 458
499 460
499 479
499 492
499 500
499 505
499 521
499 528
499 530
499 545
500 449
500 460
500 476
500 479
500 492
500 499
500 504
500 511
500 521
500 528
500 542
500 555
501 459
501 465
501 467
501 485
501 494
501 522
501 523
501 535
501 546
501 549
502 454
502 478
502 480
502 483
502 509
502 512
502 529
502 536
502 541
502 557
503 457
503 462
503 471
503 474
503 494
503 508
503 518
503 523
503 524
503 538
503 543
504 475
504 476
504 479
504 500
504 511
504 514
504 527
504 528
504 542
504 547
504 554
505 458
505 466
505 482
505 492
505 493
505 499
505 513
505 521
505 526
505 530
505 545
505 553
506 462
506 468
506 472
506 474
506 490
506 497
506 508
506 524
506 525
506 534
506 538
506 550
507 450
507 464
507 473
507 481
507 484
507 498
507 510
507 520
507 531
507 537
507 552
508 462
508 471
508 472
508 474
508 503
508 506
508 518
508 524
508 534
508 538
508 543
508 560
509 478
509 480
509 498
509 502
509 520
509 529
509 536
509 541
509 557
509 559
510 456
510 473
510 481
510 484
510 491
510 507
510 517
510 531
510 532
510 537
511 475
511 476
511 479
511 495
511 500
511 504
511 514
511 527
511 540
511 542
511 547
511 554
512 454
512 480
512 483
512 489
512 502
512 519
512 529
512 539
512 541
512 557
512 563
512 566
513 470
513 482
513 488
513 493
513 496
513 505
513 526
513 533
513 544
513 553
514 461
514 475
514 476
514 495
514 504
514 511
514 527
514 540
514 547
514 554
514 561
514 572
515 486
515 491
515 517
515 532
515 548
516 469
516 477
516 487
516 488
516 496
516 522
516 533
516 535
516 544
516 551
516 556
517 481
517 486
517 491
517 510
517 515
517 531
517 532
517 548
517 567
518 471
518 485
518 494
518 503
518 508
518 523
518 524
518 543
518 549
518 560
518 562
519 463
519 483
519 489
519 490
519 497
519 512
519 525
519 529
519 539
519 550
519 558
519 563
519 565
520 464
520 478
520 484
520 498
520 507
520 509
520 536
520 537
520 552
520 559
520 564
520 578
521 492
521 499
521 500
521 505
521 528
521 530
521 545
521 555
521 569
521 576
522 465
522 477
522 487
522 496
522 501
522 516
522 533
522 535
522 546
522 551
522 556
523 485
523 494
523 501
523 503
523 518
523 535
523 543
523 546
523 549
523 562
523 579
524 471
524 474
524 503
524 506
524 508
524 518
524 534
524 538
524 543
524 560
524 562
524 575
525 468
525 489
525 490
525 497
525 506
525 519
525 534
525 539
525 550
525 558
525 565
525 568
525 583
526 482
526 492
526 493
526 505
526 513
526 530
526 544
526 545
526 553
526 571
526 585
527 475
527 476
527 495
527 504
527 511
527 514
527 540
527 542
527 547
527 554
527 561
527 572
528 479
528 499
528 500
528 504
528 521
528 530
528 542
528 545
528 554
528 555
528 576
528 582
529 480
529 483
529 502
529 509
529 512
529 519
529 536
529 539
529 541
529 557
529 563
529 566
529 580
530 492
530 493
530 499
530 505
530 521
530 526
530 528
530 545
530 553
530 555
530 569
530 585
531 481
531 491
531 507
531 510
531 517
531 532
531 537
531 564
531 567
531 573
532 491
532 510
532 515
532 517
532 531
532 548
532 567
532 573
532 590
533 487
533 488
533 496
533 513
533 516
533 522
533 544
533 551
533 556
533 570
533 577
533 586
534 497
534 506
534 508
534 524
534 525
534 538
534 550
534 565
534 568
534 575
534 583
535 501
535 516
535 522
535 523
535 546
535 549
535 551
535 556
535 574
536 498
536 502
536 509
536 520
536 529
536 541
536 552
536 557
536 559
536 578
536 580
536 584
537 484
537 498
537 507
537 510
537 520
537 531
537 552
537 564
537 567
537 573
537 578
537 593
538 503
538 506
538 508
538 524
538 534
538 543
538 550
538 560
538 568
538 575
538 587
539 489
539 490
539 512
539 519
539 525
539 529
539 541
539 550
539 558
539 563
539 565
539 566
539 589
539 595
540 495
540 511
540 514
540 527
540 547
540 554
540 561
540 572
540 588
541 502
541 509
541 512
541 529
541 536
541 539
541 557
541 559
541 563
541 566
541 580
541 584
541 591
541 592
542 500
542 504
542 511
542 527
542 528
542 547
542 554
542 555
542 572
542 576
542 581
542 582
543 503
543 508
543 518
543 523
543 524
543 538
543 549
543 560
543 562
543 575
543 587
544 488
544 496
544 513
544 516
544 526
544 533
544 553
544 556
544 570
544 571
544 577
544 586
545 492
545 499
545 505
545 521
545 526
545 528
545 530
545 553
545 555
545 569
545 576
545 585
545 594
545 601
546 501
546 522
546 523
546 535
546 549
546 551
546 574
546 579
546 607
547 504
547 511
547 514
547 527
547 540
547 542
547 554
547 561
547 572
547 581
547 588
547 600
548 491
548 515
548 517
548 532
548 567
548 590
549 494
549 501
549 518
549 523
549 535
549 543
549 546
549 562
549 574
549 579
549 609
550 497
550 506
550 519
550 525
550 534
550 538
550 539
550 558
550 565
550 568
550 583
550 589
550 598
551 516
551 522
551 533
551 535
551 546
551 556
551 574
551 586
551 606
552 498
552 507
552 520
552 536
552 537
552 559
552 564
552 578
552 584
552 596
553 493
553 505
553 513
553 526
553 530
553 544
553 545
553 569
553 571
553 577
553 585
553 594
553 601
554 504
554 511
554 514
554 527
554 528
554 540
554 542
554 547
554 555
554 561
554 572
554 581
554 582
554 600
555 500
555 521
555 528
555 530
555 542
555 545
555 554
555 569
555 576
555 581
555 582
555 594
555 605
556 516
556 522
556 533
556 535
556 544
556 551
556 570
556 574
556 586
556 603
556 606
556 615
557 502
557 509
557 512
557 529
557 536
557 541
557 559
557 563
557 566
557 580
557 584
557 591
557 592
557 608
558 519
558 525
558 539
558 550
558 563
558 565
558 566
558 583
558 589
558 595
558 612
559 509
559 520
559 536
559 541
559 552
559 557
559 578
559 580
559 584
559 591
559 596
559 608
559 613
560 508
560 518
560 524
560 538
560 543
560 562
560 568
560 575
560 587
560 599
560 604
560 611
561 514
561 527
561 540
561 547
561 554
561 572
561 581
561 588
561 600
561 618
562 518
562 523
562 524
562 543
562 549
562 560
562 575
562 579
562 587
562 604
562 609
562 611
563 512
563 519
563 529
563 539
563 541
563 557
563 558
563 565
563 566
563 580
563 589
563 591
563 592
563 595
563 612
563 622
563 624
564 520
564 531
564 537
564 552
564 567
564 573
564 578
564 593
564 596
564 597
564 620
564 623
565 519
565 525
565 534
565 539
565 550
565 558
565 563
565 568
565 583
565 589
565 595
565 598
565 612
565 614
566 512
566 529
566 539
566 541
566 557
566 558
566 563
566 580
566 584
566 589
566 591
566 592
566 595
566 608
566 622
566 628
567 517
567 531
567 532
567 537
567 548
567 564
567 573
567 590
567 593
567 597
567 616
568 525
568 534
568 538
568 550
568 560
568 565
568 575
568 583
568 598
568 599
568 614
569 521
569 530
569 545
569 553
569 555
569 571
569 576
569 585
569 594
569 601
569 605
569 617
569 627
570 533
570 544
570 556
570 571
570 577
570 586
570 602
570 603
570 615
570 629
571 526
571 544
571 553
571 569
571 570
571 577
571 585
571 602
571 617
571 619
572 514
572 527
572 540
572 542
572 547
572 554
572 561
572 581
572 588
572 600
572 618
572 625
573 531
573 532
573 537
573 564
573 567
573 593
573 596
573 597
573 620
573 631
574 535
574 546
574 549
574 551
574 556
574 579
574 606
574 607
574 609
575 524
575 534
575 538
575 543
575 560
575 562
575 568
575 587
575 598
575 599
575 611
575 626
576 521
576 528
576 542
576 545
576 555
576 569
576 581
576 582
576 594
576 601
576 605
576 610
576 621
576 627
577 533
577 544
577 553
577 570
577 571
577 585
577 586
577 602
577 603
577 619
577 629
578 520
578 536
578 537
578 552
578 559
578 564
578 580
578 584
578 593
578 596
578 608
578 613
578 623
579 523
579 546
579 549
579 562
579 574
579 587
579 604
579 607
579 609
579 634
580 529
580 536
580 541
580 557
580 559
580 563
580 566
580 578
580 584
580 591
580 592
580 595
580 608
580 613
580 628
580 635
581 542
581 547
581 554
581 555
581 561
581 572
581 576
581 582
581 600
581 610
581 621
581 625
581 630
582 528
582 542
582 554
582 555
582 576
582 581
582 605
582 610
582 621
582 630
583 525
583 534
583 550
583 558
583 565
583 568
583 589
583 598
583 599
583 612
583 614
584 536
584 541
584 552
584 557
584 559
584 566
584 578
584 580
584 591
584 592
584 596
584 608
584 613
584 628
584 635
584 637
585 526
585 530
585 545
585 553
585 569
585 571
585 577
585 594
585 601
585 602
585 605
585 617
585 619
585 627
586 533
586 544
586 551
586 556
586 570
586 577
586 603
586 606
586 615
586 629
587 538
587 543
587 560
587 562
587 575
587 579
587 599
587 604
587 611
587 626
587 632
588 540
588 547
588 561
588 572
588 600
588 618
588 625
588 638
589 539
589 550
589 558
589 563
589 565
589 566
589 583
589 592
589 595
589 598
589 612
589 614
589 622
589 624
589 644
590 532
590 548
590 567
590 597
590 616
590 640
591 541
591 557
591 559
591 563
591 566
591 580
591 584
591 592
591 595
591 608
591 613
591 622
591 628
591 635
591 637
592 541
592 557
592 563
592 566
592 580
592 584
592 589
592 591
592 595
592 608
592 622
592 624
592 628
593 537
593 564
593 567
593 573
593 578
593 596
593 597
593 616
593 620
593 623
593 631
593 639
594 545
594 553
594 555
594 569
594 576
594 585
594 601
594 605
594 617
594 619
594 621
594 627
594 645
594 648
595 539
595 558
595 563
595 565
595 566
595 580
595 589
595 591
595 592
595 612
595 622
595 624
595 628
595 656
596 552
596 559
596 564
596 573
596 578
596 584
596 593
596 613
596 620
596 623
596 639
596 647
597 564
597 567
597 573
597 590
597 593
597 616
597 620
597 631
597 639
597 640
598 550
598 565
598 568
598 575
598 583
598 589
598 599
598 612
598 614
598 626
598 643
598 649
599 560
599 568
599 575
599 583
599 587
599 598
599 611
599 614
599 626
599 649
599 651
600 547
600 554
600 561
600 572
600 581
600 588
600 610
600 618
600 625
600 630
600 638
600 642
600 646
601 545
601 553
601 569
601 576
601 585
601 594
601 602
601 605
601 617
601 619
601 627
601 645
601 648
601 653
602 570
602 571
602 577
602 585
602 601
602 603
602 617
602 619
602 629
602 636
602 653
603 556
603 570
603 577
603 586
603 602
603 606
603 615
603 629
603 636
603 641
603 650
604 560
604 562
604 579
604 587
604 609
604 611
604 632
604 634
604 663
605 555
605 569
605 576
605 582
605 585
605 594
605 601
605 610
605 617
605 621
605 627
605 645
605 648
605 652
606 551
606 556
606 574
606 586
606 603
606 607
606 615
606 633
606 641
606 650
606 654
607 546
607 574
607 579
607 606
607 609
607 633
607 634
607 654
608 557
608 559
608 566
608 578
608 580
608 584
608 591
608 592
608 613
608 628
608 635
608 637
608 655
608 657
609 549
609 562
609 574
609 579
609 604
609 607
609 611
609 632
609 634
609 654
609 665
610 576
610 581
610 582
610 600
610 605
610 621
610 625
610 630
610 642
610 645
610 646
610 652
610 659
611 560
611 562
611 575
611 587
611 599
611 604
611 609
611 626
611 632
611 634
611 649
611 651
611 663
612 558
612 563
612 565
612 583
612 589
612 595
612 598
612 614
612 622
612 624
612 643
612 644
612 656
612 660
612 661
613 559
613 578
613 580
613 584
613 591
613 596
613 608
613 623
613 628
613 635
613 637
613 647
613 657
613 667
614 565
614 568
614 583
614 589
614 598
614 599
614 612
614 624
614 626
614 643
614 644
614 649
614 660
614 662
615 556
615 570
615 586
615 603
615 606
615 629
615 633
615 641
615 650
616 567
616 590
616 593
616 597
616 631
616 640
616 666
617 569
617 571
617 585
617 594
617 601
617 602
617 605
617 619
617 627
617 636
617 645
617 648
617 653
617 669
618 561
618 572
618 588
618 600
618 625
618 638
618 646
618 668
619 571
619 577
619 585
619 594
619 601
619 602
619 617
619 627
619 629
619 636
619 648
619 653
619 670
620 564
620 573
620 593
620 596
620 597
620 623
620 631
620 639
620 647
620 658
620 671
621 576
621 581
621 582
621 594
621 605
621 610
621 627
621 630
621 642
621 645
621 652
621 659
621 675
621 677
622 563
622 566
622 589
622 591
622 592
622 595
622 612
622 624
622 628
622 635
622 644
622 655
622 656
622 661
623 564
623 578
623 593
623 596
623 613
623 620
623 637
623 639
623 647
623 657
623 658
623 672
624 563
624 589
624 592
624 595
624 612
624 614
624 622
624 628
624 644
624 656
624 660
624 661
625 572
625 581
625 588
625 600
625 610
625 618
625 630
625 638
625 642
625 646
625 674
626 575
626 587
626 598
626 599
626 611
626 614
626 643
626 649
626 651
626 662
627 569
627 576
627 585
627 594
627 601
627 605
627 617
627 619
627 621
627 645
627 648
627 652
627 653
627 669
627 676
628 566
628 580
628 584
628 591
628 592
628 595
628 608
628 613
628 622
628 624
628 635
628 637
628 655
628 656
628 667
628 673
629 570
629 577
629 586
629 602
629 603
629 615
629 619
629 636
629 641
629 650
629 664
629 670
630 581
630 582
630 600
630 610
630 621
630 625
630 638
630 642
630 646
630 652
630 659
631 573
631 593
631 597
631 616
631 620
631 639
631 640
631 647
631 658
631 666
631 671
632 587
632 604
632 609
632 611
632 634
632 651
632 663
632 665
633 606
633 607
633 615
633 641
633 650
633 654
634 579
634 604
634 607
634 609
634 611
634 632
634 654
634 663
634 665
635 580
635 584
635 591
635 608
635 613
635 622
635 628
635 637
635 655
635 657
635 667
635 673
636 602
636 603
636 617
636 619
636 629
636 650
636 653
636 664
636 670
637 584
637 591
637 608
637 613
637 623
637 628
637 635
637 647
637 655
637 657
637 667
637 672
637 673
638 588
638 600
638 618
638 625
638 630
638 646
638 668
638 674
639 593
639 596
639 597
639 620
639 623
639 631
639 647
639 657
639 658
639 671
639 672
640 590
640 597
640 616
640 631
640 658
640 666
640 671
641 603
641 606
641 615
641 629
641 633
641 650
641 654
641 664
642 600
642 610
642 621
642 625
642 630
642 645
642 646
642 652
642 659
642 675
642 677
643 598
643 612
643 614
643 626
643 644
643 649
643 660
643 661
643 662
644 589
644 612
644 614
644 622
644 624
644 643
644 656
644 660
644 661
644 662
645 594
645 601
645 605
645 610
645 617
645 621
645 627
645 642
645 648
645 652
645 653
645 659
645 669
645 675
645 676
645 677
646 600
646 610
646 618
646 625
646 630
646 638
646 642
646 659
646 668
646 674
646 677
647 596
647 613
647 620
647 623
647 631
647 637
647 639
647 657
647 658
647 672
648 594
648 601
648 605
648 617
648 619
648 627
648 645
648 652
648 653
648 669
648 675
648 676
649 598
649 599
649 611
649 614
649 626
649 643
649 651
649 660
649 662
650 603
650 606
650 615
650 629
650 633
650 636
650 641
650 664
650 670
651 599
651 611
651 626
651 632
651 649
651 662
651 663
652 605
652 610
652 621
652 627
652 630
652 642
652 645
652 648
652 659
652 675
652 676
652 677
653 601
653 602
653 617
653 619
653 627
653 636
653 645
653 648
653 669
653 670
653 676
654 606
654 607
654 609
654 633
654 634
654 641
654 665
655 608
655 622
655 628
655 635
655 637
655 656
655 667
655 673
656 595
656 612
656 622
656 624
656 628
656 644
656 655
656 661
656 673
657 608
657 613
657 623
657 635
657 637
657 639
657 647
657 667
657 672
657 673
658 620
658 623
658 631
658 639
658 640
658 647
658 666
658 671
658 672
659 610
659 621
659 630
659 642
659 645
659 646
659 652
659 675
659 676
659 677
660 612
660 614
660 624
660 643
660 644
660 649
660 661
660 662
661 612
661 622
661 624
661 643
661 644
661 656
661 660
662 614
662 626
662 643
662 644
662 649
662 651
662 660
663 604
663 611
663 632
663 634
663 651
663 665
664 629
664 636
664 641
664 650
664 670
665 609
665 632
665 634
665 654
665 663
666 616
666 631
666 640
666 658
666 671
667 613
667 628
667 635
667 637
667 655
667 657
667 672
667 673
668 618
668 638
668 646
668 674
669 617
669 627
669 645
669 648
669 653
669 670
669 675
669 676
670 619
670 629
670 636
670 650
670 653
670 664
670 669
671 620
671 631
671 639
671 640
671 658
671 666
672 623
672 637
672 639
672 647
672 657
672 658
672 667
673 628
673 635
673 637
673 655
673 656
673 657
673 667
674 625
674 638
674 646
674 668
675 621
675 642
675 645
675 648
675 652
675 659
675 669
675 676
675 677
676 627
676 645
676 648
676 652
676 653
676 659
676 669
676 675
676 677
677 621
677 642
677 645
677 646
677 652
677 659
677 675
677 676
