1 8
1 9
1 11
1 17
1 33
1 36
1 38
1 47
1 66
1 67
1 69
2 6
2 20
2 22
2 23
2 27
2 29
2 35
2 40
2 44
2 48
2 50
2 52
2 59
2 74
2 76
2 83
3 10
3 12
3 13
3 18
3 28
3 30
3 37
3 41
3 42
3 53
3 56
3 62
3 73
3 82
4 7
4 12
4 14
4 18
4 30
4 32
4 34
4 42
4 49
4 54
4 57
4 58
4 62
4 75
5 7
5 14
5 19
5 24
5 25
5 26
5 31
5 39
5 46
5 49
5 51
5 55
5 61
5 72
5 80
5 85
6 2
6 22
6 23
6 24
6 27
6 29
6 31
6 40
6 44
6 50
6 52
6 59
6 71
6 74
7 4
7 5
7 14
7 19
7 25
7 26
7 32
7 34
7 39
7 46
7 49
7 54
7 55
7 61
7 70
7 75
7 84
8 1
8 9
8 11
8 16
8 17
8 33
8 36
8 38
8 43
8 47
8 63
8 66
8 69
8 78
9 1
9 8
9 11
9 16
9 17
9 33
9 36
9 43
9 45
9 47
9 63
9 65
9 66
9 69
9 78
10 3
10 13
10 18
10 21
10 28
10 37
10 41
10 42
10 53
10 56
10 82
10 91
11 1
11 8
11 9
11 15
11 16
11 33
11 35
11 43
11 45
11 47
11 63
11 64
11 65
11 69
11 78
11 89
12 3
12 4
12 18
12 28
12 30
12 32
12 34
12 42
12 53
12 54
12 57
12 58
12 62
12 73
13 3
13 10
13 18
13 21
13 28
13 37
13 41
13 53
13 56
13 60
13 79
13 87
13 91
13 96
14 4
14 5
14 7
14 19
14 26
14 32
14 34
14 39
14 46
14 49
14 54
14 57
14 58
14 61
14 70
14 75
14 84
14 94
14 98
15 11
15 16
15 20
15 22
15 35
15 43
15 45
15 48
15 50
15 63
15 64
15 65
15 68
15 76
15 77
15 89
16 8
16 9
16 11
16 15
16 20
16 33
16 35
16 43
16 45
16 47
16 48
16 63
16 64
16 65
16 68
16 77
16 78
16 89
17 1
17 8
17 9
17 33
17 36
17 38
17 66
17 67
17 69
17 81
17 90
18 3
18 4
18 10
18 12
18 13
18 28
18 30
18 34
18 37
18 42
18 53
18 56
18 58
18 62
18 73
18 82
19 5
19 7
19 14
19 24
19 25
19 26
19 32
19 39
19 46
19 49
19 51
19 54
19 55
19 61
19 70
19 72
19 80
19 84
19 85
19 101
20 2
20 15
20 16
20 22
20 23
20 27
20 35
20 40
20 45
20 48
20 50
20 59
20 64
20 68
20 76
20 77
20 83
21 10
21 13
21 28
21 37
21 41
21 56
21 60
21 79
21 87
21 96
22 2
22 6
22 15
22 20
22 23
22 27
22 35
22 40
22 45
22 48
22 50
22 52
22 59
22 68
22 74
22 76
22 77
22 83
23 2
23 6
23 20
23 22
23 27
23 29
23 31
23 35
23 40
23 44
23 48
23 50
23 52
23 59
23 68
23 74
23 76
23 83
23 88
24 5
24 6
24 19
24 25
24 26
24 27
24 29
24 31
24 39
24 44
24 46
24 51
24 55
24 61
24 71
24 72
24 80
24 85
24 92
24 95
25 5
25 7
25 19
25 24
25 26
25 29
25 31
25 39
25 44
25 46
25 49
25 51
25 55
25 61
25 71
25 72
25 80
25 84
25 85
25 95
26 5
26 7
26 14
26 19
26 24
26 25
26 32
26 34
26 39
26 46
26 49
26 54
26 55
26 57
26 61
26 70
26 75
26 80
26 84
26 94
26 101
26 107
27 2
27 6
27 20
27 22
27 23
27 24
27 29
27 31
27 40
27 44
27 50
27 52
27 59
27 71
27 74
27 83
27 88
27 92
28 3
28 10
28 12
28 13
28 18
28 21
28 30
28 37
28 41
28 42
28 53
28 56
28 62
28 73
28 82
28 91
28 96
29 2
29 6
29 23
29 24
29 25
29 27
29 31
29 40
29 44
29 51
29 52
29 59
29 71
29 72
29 74
29 83
29 88
29 92
29 95
30 3
30 4
30 12
30 18
30 28
30 32
30 34
30 42
30 53
30 54
30 56
30 57
30 58
30 62
30 73
30 82
30 93
30 97
30 100
31 5
31 6
31 23
31 24
31 25
31 27
31 29
31 39
31 40
31 44
31 51
31 52
31 55
31 71
31 72
31 74
31 80
31 85
31 88
31 92
31 95
32 4
32 7
32 12
32 14
32 19
32 26
32 30
32 34
32 46
32 49
32 54
32 57
32 58
32 61
32 62
32 70
32 75
32 84
32 93
32 94
32 98
33 1
33 8
33 9
33 11
33 16
33 17
33 36
33 38
33 43
33 47
33 63
33 66
33 67
33 69
33 78
33 90
33 99
33 113
34 4
34 7
34 12
34 14
34 18
34 26
34 30
34 32
34 42
34 46
34 49
34 54
34 57
34 58
34 62
34 70
34 73
34 75
34 93
34 94
34 97
34 98
34 116
35 2
35 11
35 15
35 16
35 20
35 22
35 23
35 43
35 45
35 48
35 50
35 59
35 63
35 64
35 65
35 68
35 76
35 77
35 89
35 103
35 104
35 106
36 1
36 8
36 9
36 17
36 33
36 38
36 47
36 66
36 67
36 69
36 78
36 81
36 90
36 99
36 113
37 3
37 10
37 13
37 18
37 21
37 28
37 41
37 42
37 53
37 56
37 60
37 73
37 79
37 82
37 87
37 91
37 96
38 1
38 8
38 17
38 33
38 36
38 66
38 67
38 69
38 81
38 86
38 90
38 110
38 113
39 5
39 7
39 14
39 19
39 24
39 25
39 26
39 31
39 46
39 49
39 51
39 55
39 61
39 70
39 72
39 80
39 84
39 85
39 94
39 95
39 101
39 107
40 2
40 6
40 20
40 22
40 23
40 27
40 29
40 31
40 44
40 48
40 50
40 52
40 59
40 68
40 71
40 74
40 76
40 83
40 88
40 92
40 108
40 111
40 114
40 115
41 3
41 10
41 13
41 21
41 28
41 37
41 53
41 56
41 60
41 79
41 82
41 87
41 91
41 96
41 102
42 3
42 4
42 10
42 12
42 18
42 28
42 30
42 34
42 37
42 53
42 56
42 57
42 58
42 62
42 73
42 82
42 91
42 93
42 97
42 100
42 105
42 119
42 123
42 129
43 8
43 9
43 11
43 15
43 16
43 33
43 35
43 45
43 47
43 63
43 64
43 65
43 66
43 69
43 77
43 78
43 89
43 99
43 103
43 104
43 109
43 112
44 2
44 6
44 23
44 24
44 25
44 27
44 29
44 31
44 40
44 51
44 52
44 55
44 59
44 71
44 72
44 74
44 83
44 85
44 88
44 92
44 95
44 114
44 115
44 125
44 128
45 9
45 11
45 15
45 16
45 20
45 22
45 35
45 43
45 47
45 48
45 50
45 63
45 64
45 65
45 68
45 76
45 77
45 78
45 89
45 103
45 104
45 106
45 109
46 5
46 7
46 14
46 19
46 24
46 25
46 26
46 32
46 34
46 39
46 49
46 51
46 54
46 55
46 57
46 61
46 70
46 75
46 80
46 84
46 85
46 94
46 98
46 101
46 107
46 117
47 1
47 8
47 9
47 11
47 16
47 33
47 36
47 43
47 45
47 63
47 64
47 65
47 66
47 69
47 78
47 89
47 90
47 99
47 109
47 112
48 2
48 15
48 16
48 20
48 22
48 23
48 35
48 40
48 45
48 50
48 59
48 64
48 65
48 68
48 76
48 77
48 83
48 89
48 103
48 106
48 108
48 111
48 126
49 4
49 5
49 7
49 14
49 19
49 25
49 26
49 32
49 34
49 39
49 46
49 54
49 55
49 57
49 58
49 61
49 70
49 75
49 80
49 84
49 93
49 94
49 98
49 101
49 107
49 116
49 117
49 121
50 2
50 6
50 15
50 20
50 22
50 23
50 27
50 35
50 40
50 45
50 48
50 52
50 59
50 64
50 68
50 74
50 76
50 77
50 83
50 106
50 108
50 111
50 115
51 5
51 19
51 24
51 25
51 29
51 31
51 39
51 44
51 46
51 52
51 55
51 61
51 71
51 72
51 80
51 85
51 88
51 92
51 95
51 101
51 124
51 128
51 130
52 2
52 6
52 22
52 23
52 27
52 29
52 31
52 40
52 44
52 50
52 51
52 59
52 71
52 72
52 74
52 76
52 83
52 88
52 92
52 95
52 108
52 111
52 114
52 115
52 125
53 3
53 10
53 12
53 13
53 18
53 28
53 30
53 37
53 41
53 42
53 56
53 58
53 62
53 73
53 82
53 87
53 91
53 96
53 97
53 100
53 105
53 118
53 123
53 129
53 139
54 4
54 7
54 12
54 14
54 19
54 26
54 30
54 32
54 34
54 46
54 49
54 57
54 58
54 61
54 62
54 70
54 75
54 84
54 93
54 94
54 97
54 98
54 107
54 116
54 117
54 119
54 121
55 5
55 7
55 19
55 24
55 25
55 26
55 31
55 39
55 44
55 46
55 49
55 51
55 61
55 70
55 71
55 72
55 80
55 84
55 85
55 92
55 95
55 101
55 107
55 124
55 130
56 3
56 10
56 13
56 18
56 21
56 28
56 30
56 37
56 41
56 42
56 53
56 60
56 62
56 73
56 79
56 82
56 87
56 91
56 96
56 100
56 105
56 118
56 127
56 129
56 139
56 145
57 4
57 12
57 14
57 26
57 30
57 32
57 34
57 42
57 46
57 49
57 54
57 58
57 61
57 62
57 70
57 73
57 75
57 84
57 93
57 94
57 97
57 98
57 100
57 116
57 117
57 119
57 121
57 123
58 4
58 12
58 14
58 18
58 30
58 32
58 34
58 42
58 49
58 53
58 54
58 57
58 62
58 70
58 73
58 75
58 93
58 94
58 97
58 98
58 100
58 105
58 116
58 117
58 119
58 121
58 123
59 2
59 6
59 20
59 22
59 23
59 27
59 29
59 35
59 40
59 44
59 48
59 50
59 52
59 68
59 71
59 74
59 76
59 83
59 88
59 106
59 108
59 111
59 114
59 115
59 125
59 141
59 142
59 143
60 13
60 21
60 37
60 41
60 56
60 79
60 87
60 91
60 96
60 102
60 127
60 137
61 5
61 7
61 14
61 19
61 24
61 25
61 26
61 32
61 39
61 46
61 49
61 51
61 54
61 55
61 57
61 70
61 72
61 75
61 80
61 84
61 85
61 94
61 98
61 101
61 107
61 117
61 124
61 140
61 144
62 3
62 4
62 12
62 18
62 28
62 30
62 32
62 34
62 42
62 53
62 54
62 56
62 57
62 58
62 73
62 75
62 82
62 93
62 97
62 98
62 100
62 105
62 116
62 119
62 123
62 129
63 8
63 9
63 11
63 15
63 16
63 33
63 35
63 43
63 45
63 47
63 64
63 65
63 66
63 68
63 69
63 77
63 78
63 89
63 99
63 103
63 104
63 109
63 112
63 132
63 133
63 134
63 135
64 11
64 15
64 16
64 20
64 35
64 43
64 45
64 47
64 48
64 50
64 63
64 65
64 68
64 76
64 77
64 78
64 89
64 103
64 104
64 106
64 109
64 112
64 126
64 134
64 135
64 136
64 138
65 9
65 11
65 15
65 16
65 35
65 43
65 45
65 47
65 48
65 63
65 64
65 68
65 69
65 77
65 78
65 89
65 99
65 103
65 104
65 109
65 112
65 132
65 134
65 135
65 136
66 1
66 8
66 9
66 17
66 33
66 36
66 38
66 43
66 47
66 63
66 67
66 69
66 78
66 81
66 90
66 99
66 110
66 112
66 113
66 122
66 131
66 133
66 147
66 148
67 1
67 17
67 33
67 36
67 38
67 66
67 69
67 78
67 81
67 86
67 90
67 99
67 110
67 113
67 120
67 122
67 131
67 148
68 15
68 16
68 20
68 22
68 23
68 35
68 40
68 45
68 48
68 50
68 59
68 63
68 64
68 65
68 76
68 77
68 83
68 89
68 103
68 104
68 106
68 108
68 111
68 126
68 134
68 136
68 138
68 141
69 1
69 8
69 9
69 11
69 17
69 33
69 36
69 38
69 43
69 47
69 63
69 65
69 66
69 67
69 78
69 89
69 90
69 99
69 109
69 112
69 113
69 122
69 131
69 132
69 133
69 147
70 7
70 14
70 19
70 26
70 32
70 34
70 39
70 46
70 49
70 54
70 55
70 57
70 58
70 61
70 75
70 80
70 84
70 93
70 94
70 98
70 101
70 107
70 116
70 117
70 121
70 140
70 144
70 150
71 6
71 24
71 25
71 27
71 29
71 31
71 40
71 44
71 51
71 52
71 55
71 59
71 72
71 74
71 80
71 83
71 85
71 88
71 92
71 95
71 114
71 115
71 124
71 125
71 128
71 130
71 146
71 149
72 5
72 19
72 24
72 25
72 29
72 31
72 39
72 44
72 51
72 52
72 55
72 61
72 71
72 74
72 80
72 85
72 88
72 92
72 95
72 101
72 114
72 124
72 125
72 128
72 130
72 149
73 3
73 12
73 18
73 28
73 30
73 34
73 37
73 42
73 53
73 56
73 57
73 58
73 62
73 82
73 91
73 93
73 97
73 100
73 105
73 118
73 119
73 123
73 129
73 139
74 2
74 6
74 22
74 23
74 27
74 29
74 31
74 40
74 44
74 50
74 52
74 59
74 71
74 72
74 76
74 83
74 88
74 92
74 95
74 108
74 111
74 114
74 115
74 125
74 128
74 142
74 143
74 146
75 4
75 7
75 14
75 26
75 32
75 34
75 46
75 49
75 54
75 57
75 58
75 61
75 62
75 70
75 80
75 84
75 93
75 94
75 97
75 98
75 101
75 107
75 116
75 117
75 119
75 121
75 144
75 150
76 2
76 15
76 20
76 22
76 23
76 35
76 40
76 45
76 48
76 50
76 52
76 59
76 64
76 68
76 74
76 77
76 83
76 89
76 103
76 104
76 106
76 108
76 111
76 114
76 115
76 126
76 136
76 138
76 141
76 142
76 143
77 15
77 16
77 20
77 22
77 35
77 43
77 45
77 48
77 50
77 63
77 64
77 65
77 68
77 76
77 89
77 103
77 104
77 106
77 108
77 109
77 126
77 134
77 135
77 136
77 138
77 141
78 8
78 9
78 11
78 16
78 33
78 36
78 43
78 45
78 47
78 63
78 64
78 65
78 66
78 67
78 69
78 89
78 90
78 99
78 104
78 109
78 112
78 113
78 131
78 132
78 133
78 135
78 147
79 13
79 21
79 37
79 41
79 56
79 60
79 87
79 91
79 96
79 102
79 118
79 127
79 137
79 151
79 157
80 5
80 19
80 24
80 25
80 26
80 31
80 39
80 46
80 49
80 51
80 55
80 61
80 70
80 71
80 72
80 75
80 84
80 85
80 92
80 94
80 95
80 101
80 107
80 117
80 124
80 130
80 140
80 144
80 154
80 159
81 17
81 36
81 38
81 66
81 67
81 86
81 90
81 110
81 113
81 120
81 122
81 148
81 152
81 155
82 3
82 10
82 18
82 28
82 30
82 37
82 41
82 42
82 53
82 56
82 62
82 73
82 87
82 91
82 96
82 97
82 100
82 105
82 118
82 119
82 123
82 127
82 129
82 139
82 145
82 158
83 2
83 20
83 22
83 23
83 27
83 29
83 40
83 44
83 48
83 50
83 52
83 59
83 68
83 71
83 74
83 76
83 88
83 92
83 106
83 108
83 111
83 114
83 115
83 125
83 126
83 138
83 141
83 142
83 143
83 146
84 7
84 14
84 19
84 25
84 26
84 32
84 39
84 46
84 49
84 54
84 55
84 57
84 61
84 70
84 75
84 80
84 85
84 94
84 98
84 101
84 107
84 116
84 117
84 121
84 124
84 140
84 144
84 150
84 159
84 161
85 5
85 19
85 24
85 25
85 31
85 39
85 44
85 46
85 51
85 55
85 61
85 71
85 72
85 80
85 84
85 88
85 92
85 95
85 101
85 107
85 124
85 125
85 128
85 130
85 140
85 144
85 149
85 154
85 159
86 38
86 67
86 81
86 110
86 120
86 122
86 152
86 155
87 13
87 21
87 37
87 41
87 53
87 56
87 60
87 79
87 82
87 91
87 96
87 102
87 118
87 127
87 137
87 139
87 145
87 151
87 157
88 23
88 27
88 29
88 31
88 40
88 44
88 51
88 52
88 59
88 71
88 72
88 74
88 83
88 85
88 92
88 95
88 111
88 114
88 115
88 125
88 128
88 130
88 143
88 146
88 149
89 11
89 15
89 16
89 35
89 43
89 45
89 47
89 48
89 63
89 64
89 65
89 68
89 69
89 76
89 77
89 78
89 99
89 103
89 104
89 106
89 109
89 112
89 126
89 132
89 133
89 134
89 135
89 136
89 138
89 160
89 162
89 165
90 17
90 33
90 36
90 38
90 47
90 66
90 67
90 69
90 78
90 81
90 99
90 110
90 112
90 113
90 120
90 122
90 131
90 133
90 147
90 148
90 169
91 10
91 13
91 28
91 37
91 41
91 42
91 53
91 56
91 60
91 73
91 79
91 82
91 87
91 96
91 100
91 102
91 105
91 118
91 127
91 129
91 137
91 139
91 145
91 151
91 157
91 158
92 24
92 27
92 29
92 31
92 40
92 44
92 51
92 52
92 55
92 71
92 72
92 74
92 80
92 83
92 85
92 88
92 95
92 114
92 115
92 124
92 125
92 128
92 130
92 143
92 146
92 149
92 154
92 170
93 30
93 32
93 34
93 42
93 49
93 54
93 57
93 58
93 62
93 70
93 73
93 75
93 94
93 97
93 98
93 100
93 105
93 116
93 117
93 119
93 121
93 123
93 129
93 150
93 153
93 156
93 163
93 167
93 171
94 14
94 26
94 32
94 34
94 39
94 46
94 49
94 54
94 57
94 58
94 61
94 70
94 75
94 80
94 84
94 93
94 98
94 101
94 107
94 116
94 117
94 119
94 121
94 140
94 144
94 150
94 161
94 163
94 172
95 24
95 25
95 29
95 31
95 39
95 44
95 51
95 52
95 55
95 71
95 72
95 74
95 80
95 85
95 88
95 92
95 101
95 114
95 124
95 125
95 128
95 130
95 140
95 146
95 149
95 154
95 159
95 170
95 173
96 13
96 21
96 28
96 37
96 41
96 53
96 56
96 60
96 79
96 82
96 87
96 91
96 102
96 105
96 118
96 127
96 137
96 139
96 145
96 151
96 157
96 176
97 30
97 34
97 42
97 53
97 54
97 57
97 58
97 62
97 73
97 75
97 82
97 93
97 98
97 100
97 105
97 116
97 117
97 118
97 119
97 121
97 123
97 129
97 139
97 153
97 156
97 158
97 167
97 171
98 14
98 32
98 34
98 46
98 49
98 54
98 57
98 58
98 61
98 62
98 70
98 75
98 84
98 93
98 94
98 97
98 101
98 107
98 116
98 117
98 119
98 121
98 123
98 144
98 150
98 153
98 163
98 167
98 172
99 33
99 36
99 43
99 47
99 63
99 65
99 66
99 67
99 69
99 78
99 89
99 90
99 109
99 110
99 112
99 113
99 122
99 131
99 132
99 133
99 135
99 147
99 148
99 160
99 168
99 185
100 30
100 42
100 53
100 56
100 57
100 58
100 62
100 73
100 82
100 91
100 93
100 97
100 105
100 116
100 118
100 119
100 121
100 123
100 129
100 139
100 145
100 153
100 156
100 158
100 171
100 179
101 19
101 26
101 39
101 46
101 49
101 51
101 55
101 61
101 70
101 72
101 75
101 80
101 84
101 85
101 94
101 95
101 98
101 107
101 117
101 121
101 124
101 130
101 140
101 144
101 150
101 154
101 159
101 161
101 172
101 173
102 41
102 60
102 79
102 87
102 91
102 96
102 118
102 127
102 137
102 145
102 151
102 157
102 176
102 183
103 35
103 43
103 45
103 48
103 63
103 64
103 65
103 68
103 76
103 77
103 89
103 104
103 106
103 108
103 109
103 111
103 112
103 126
103 132
103 134
103 135
103 136
103 138
103 141
103 162
103 164
103 165
103 166
103 180
104 35
104 43
104 45
104 63
104 64
104 65
104 68
104 76
104 77
104 78
104 89
104 103
104 106
104 108
104 109
104 112
104 126
104 132
104 133
104 134
104 135
104 136
104 138
104 141
104 160
104 162
104 164
104 165
104 166
104 175
105 42
105 53
105 56
105 58
105 62
105 73
105 82
105 91
105 93
105 96
105 97
105 100
105 118
105 119
105 123
105 127
105 129
105 139
105 145
105 151
105 153
105 156
105 158
105 171
105 179
105 186
106 35
106 45
106 48
106 50
106 59
106 64
106 68
106 76
106 77
106 83
106 89
106 103
106 104
106 108
106 111
106 115
106 126
106 134
106 135
106 136
106 138
106 141
106 142
106 143
106 164
106 165
106 166
106 180
106 184
107 26
107 39
107 46
107 49
107 54
107 55
107 61
107 70
107 75
107 80
107 84
107 85
107 94
107 98
107 101
107 116
107 117
107 121
107 124
107 140
107 144
107 150
107 154
107 159
107 161
107 163
107 172
108 40
108 48
108 50
108 52
108 59
108 68
108 74
108 76
108 77
108 83
108 103
108 104
108 106
108 111
108 114
108 115
108 125
108 126
108 134
108 136
108 138
108 141
108 142
108 143
108 146
108 164
108 166
108 174
108 180
108 184
108 187
109 43
109 45
109 47
109 63
109 64
109 65
109 69
109 77
109 78
109 89
109 99
109 103
109 104
109 112
109 126
109 131
109 132
109 133
109 134
109 135
109 136
109 147
109 160
109 162
109 165
109 166
109 168
109 175
110 38
110 66
110 67
110 81
110 86
110 90
110 99
110 113
110 120
110 122
110 131
110 147
110 148
110 152
110 155
110 169
110 181
110 182
111 40
111 48
111 50
111 52
111 59
111 68
111 74
111 76
111 83
111 88
111 103
111 106
111 108
111 114
111 115
111 125
111 126
111 136
111 138
111 141
111 142
111 143
111 146
111 164
111 174
111 177
111 180
111 184
111 187
112 43
112 47
112 63
112 64
112 65
112 66
112 69
112 78
112 89
112 90
112 99
112 103
112 104
112 109
112 113
112 122
112 131
112 132
112 133
112 134
112 135
112 147
112 148
112 160
112 162
112 168
112 175
112 185
112 194
113 33
113 36
113 38
113 66
113 67
113 69
113 78
113 81
113 90
113 99
113 110
113 112
113 120
113 122
113 131
113 132
113 133
113 147
113 148
113 155
113 168
113 169
113 182
113 185
114 40
114 44
114 52
114 59
114 71
114 72
114 74
114 76
114 83
114 88
114 92
114 95
114 108
114 111
114 115
114 125
114 128
114 130
114 141
114 142
114 143
114 146
114 149
114 174
114 177
114 178
114 187
115 40
115 44
115 50
115 52
115 59
115 71
115 74
115 76
115 83
115 88
115 92
115 106
115 108
115 111
115 114
115 125
115 126
115 128
115 138
115 141
115 142
115 143
115 146
115 149
115 174
115 177
115 184
115 187
116 34
116 49
116 54
116 57
116 58
116 62
116 70
116 75
116 84
116 93
116 94
116 97
116 98
116 100
116 107
116 117
116 119
116 121
116 123
116 129
116 144
116 150
116 153
116 156
116 163
116 167
116 171
116 172
117 46
117 49
117 54
117 57
117 58
117 61
117 70
117 75
117 80
117 84
117 93
117 94
117 97
117 98
117 101
117 107
117 116
117 119
117 121
117 124
117 140
117 144
117 150
117 159
117 161
117 163
117 167
117 172
117 198
118 53
118 56
118 73
118 79
118 82
118 87
118 91
118 96
118 97
118 100
118 102
118 105
118 123
118 127
118 129
118 137
118 139
118 145
118 151
118 156
118 157
118 158
118 176
118 179
118 186
118 192
118 204
119 42
119 54
119 57
119 58
119 62
119 73
119 75
119 82
119 93
119 94
119 97
119 98
119 100
119 105
119 116
119 117
119 121
119 123
119 129
119 139
119 150
119 153
119 156
119 158
119 163
119 167
119 171
119 179
120 67
120 81
120 86
120 90
120 110
120 113
120 122
120 131
120 147
120 148
120 152
120 155
120 169
120 181
120 182
120 189
120 190
121 49
121 54
121 57
121 58
121 70
121 75
121 84
121 93
121 94
121 97
121 98
121 100
121 101
121 107
121 116
121 117
121 119
121 123
121 144
121 150
121 153
121 161
121 163
121 167
121 171
121 172
121 198
121 205
122 66
122 67
122 69
122 81
122 86
122 90
122 99
122 110
122 112
122 113
122 120
122 131
122 133
122 147
122 148
122 152
122 155
122 168
122 169
122 181
122 182
122 185
122 201
123 42
123 53
123 57
123 58
123 62
123 73
123 82
123 93
123 97
123 98
123 100
123 105
123 116
123 118
123 119
123 121
123 129
123 139
123 145
123 153
123 156
123 158
123 163
123 167
123 171
123 179
123 186
124 51
124 55
124 61
124 71
124 72
124 80
124 84
124 85
124 92
124 95
124 101
124 107
124 117
124 128
124 130
124 140
124 144
124 149
124 154
124 159
124 161
124 170
124 173
124 178
124 191
124 193
124 202
125 44
125 52
125 59
125 71
125 72
125 74
125 83
125 85
125 88
125 92
125 95
125 108
125 111
125 114
125 115
125 128
125 130
125 142
125 143
125 146
125 149
125 170
125 174
125 177
125 178
125 187
126 48
126 64
126 68
126 76
126 77
126 83
126 89
126 103
126 104
126 106
126 108
126 109
126 111
126 115
126 134
126 135
126 136
126 138
126 141
126 142
126 162
126 164
126 165
126 166
126 180
126 184
126 197
126 199
127 56
127 60
127 79
127 82
127 87
127 91
127 96
127 102
127 105
127 118
127 129
127 137
127 139
127 145
127 151
127 157
127 158
127 176
127 183
127 186
127 192
127 203
127 204
128 44
128 51
128 71
128 72
128 74
128 85
128 88
128 92
128 95
128 114
128 115
128 124
128 125
128 130
128 143
128 146
128 149
128 154
128 170
128 173
128 174
128 177
128 178
128 193
128 207
129 42
129 53
129 56
129 62
129 73
129 82
129 91
129 93
129 97
129 100
129 105
129 116
129 118
129 119
129 123
129 127
129 139
129 145
129 153
129 156
129 158
129 167
129 171
129 179
129 186
130 51
130 55
130 71
130 72
130 80
130 85
130 88
130 92
130 95
130 101
130 114
130 124
130 125
130 128
130 140
130 144
130 146
130 149
130 154
130 159
130 161
130 170
130 173
130 177
130 178
130 191
130 193
130 202
130 207
131 66
131 67
131 69
131 78
131 90
131 99
131 109
131 110
131 112
131 113
131 120
131 122
131 132
131 133
131 147
131 148
131 155
131 160
131 168
131 169
131 175
131 182
131 185
131 194
131 195
131 201
131 210
132 63
132 65
132 69
132 78
132 89
132 99
132 103
132 104
132 109
132 112
132 113
132 131
132 133
132 134
132 135
132 136
132 147
132 148
132 160
132 162
132 165
132 166
132 168
132 175
132 185
132 194
132 195
132 200
132 209
133 63
133 66
133 69
133 78
133 89
133 90
133 99
133 104
133 109
133 112
133 113
133 122
133 131
133 132
133 134
133 135
133 147
133 148
133 160
133 162
133 165
133 168
133 175
133 182
133 185
133 194
133 195
133 200
133 215
134 63
134 64
134 65
134 68
134 77
134 89
134 103
134 104
134 106
134 108
134 109
134 112
134 126
134 132
134 133
134 135
134 136
134 138
134 141
134 160
134 162
134 164
134 165
134 166
134 175
134 180
134 197
134 200
134 209
134 212
135 63
135 64
135 65
135 77
135 78
135 89
135 99
135 103
135 104
135 106
135 109
135 112
135 126
135 132
135 133
135 134
135 136
135 138
135 147
135 160
135 162
135 164
135 165
135 166
135 168
135 175
135 194
135 197
135 200
135 209
135 212
136 64
136 65
136 68
136 76
136 77
136 89
136 103
136 104
136 106
136 108
136 109
136 111
136 126
136 132
136 134
136 135
136 138
136 141
136 142
136 160
136 162
136 164
136 165
136 166
136 175
136 180
136 184
136 197
136 199
136 212
137 60
137 79
137 87
137 91
137 96
137 102
137 118
137 127
137 139
137 145
137 151
137 157
137 176
137 183
137 192
137 203
137 206
138 64
138 68
138 76
138 77
138 83
138 89
138 103
138 104
138 106
138 108
138 111
138 115
138 126
138 134
138 135
138 136
138 141
138 142
138 143
138 162
138 164
138 165
138 166
138 174
138 180
138 184
138 187
138 197
138 199
139 53
139 56
139 73
139 82
139 87
139 91
139 96
139 97
139 100
139 105
139 118
139 119
139 123
139 127
139 129
139 137
139 145
139 151
139 153
139 156
139 158
139 171
139 176
139 179
139 186
139 192
139 204
140 61
140 70
140 80
140 84
140 85
140 94
140 95
140 101
140 107
140 117
140 124
140 130
140 144
140 149
140 150
140 154
140 159
140 161
140 170
140 172
140 173
140 191
140 193
140 196
140 202
141 59
141 68
141 76
141 77
141 83
141 103
141 104
141 106
141 108
141 111
141 114
141 115
141 126
141 134
141 136
141 138
141 142
141 143
141 146
141 164
141 165
141 166
141 174
141 180
141 184
141 187
141 197
141 199
141 216
142 59
142 74
142 76
142 83
142 106
142 108
142 111
142 114
142 115
142 125
142 126
142 136
142 138
142 141
142 143
142 146
142 164
142 166
142 174
142 177
142 180
142 184
142 187
142 199
142 216
142 219
143 59
143 74
143 76
143 83
143 88
143 92
143 106
143 108
143 111
143 114
143 115
143 125
143 128
143 138
143 141
143 142
143 146
143 149
143 174
143 177
143 178
143 184
143 187
143 214
143 219
144 61
144 70
144 75
144 80
144 84
144 85
144 94
144 98
144 101
144 107
144 116
144 117
144 121
144 124
144 130
144 140
144 150
144 154
144 159
144 161
144 163
144 172
144 173
144 191
144 196
144 198
144 202
144 208
145 56
145 82
145 87
145 91
145 96
145 100
145 102
145 105
145 118
145 123
145 127
145 129
145 137
145 139
145 151
145 156
145 157
145 158
145 176
145 179
145 183
145 186
145 192
145 203
145 204
146 71
146 74
146 83
146 88
146 92
146 95
146 108
146 111
146 114
146 115
146 125
146 128
146 130
146 141
146 142
146 143
146 149
146 170
146 174
146 177
146 178
146 184
146 187
146 193
146 207
146 214
146 219
146 225
147 66
147 69
147 78
147 90
147 99
147 109
147 110
147 112
147 113
147 120
147 122
147 131
147 132
147 133
147 135
147 148
147 160
147 162
147 168
147 169
147 175
147 182
147 185
147 194
147 195
147 201
147 210
147 215
147 227
148 66
148 67
148 81
148 90
148 99
148 110
148 112
148 113
148 120
148 122
148 131
148 132
148 133
148 147
148 152
148 155
148 160
148 168
148 169
148 181
148 182
148 185
148 194
148 195
148 201
148 210
148 224
148 228
149 71
149 72
149 85
149 88
149 92
149 95
149 114
149 115
149 124
149 125
149 128
149 130
149 140
149 143
149 146
149 154
149 159
149 170
149 173
149 174
149 177
149 178
149 193
149 202
149 207
149 214
149 217
149 225
149 231
150 70
150 75
150 84
150 93
150 94
150 98
150 101
150 107
150 116
150 117
150 119
150 121
150 140
150 144
150 153
150 159
150 161
150 163
150 167
150 171
150 172
150 191
150 196
150 198
150 205
150 208
150 222
150 230
151 79
151 87
151 91
151 96
151 102
151 105
151 118
151 127
151 137
151 139
151 145
151 157
151 158
151 176
151 183
151 186
151 192
151 203
151 204
151 206
152 81
152 86
152 110
152 120
152 122
152 148
152 155
152 169
152 181
152 188
152 189
152 190
152 201
152 213
152 220
153 93
153 97
153 98
153 100
153 105
153 116
153 119
153 121
153 123
153 129
153 139
153 150
153 156
153 158
153 163
153 167
153 171
153 179
153 186
153 205
153 211
153 218
153 229
154 80
154 85
154 92
154 95
154 101
154 107
154 124
154 128
154 130
154 140
154 144
154 149
154 159
154 161
154 170
154 172
154 173
154 178
154 191
154 193
154 196
154 202
154 207
154 217
154 223
154 232
155 81
155 86
155 110
155 113
155 120
155 122
155 131
155 148
155 152
155 169
155 181
155 182
155 185
155 188
155 189
155 190
155 201
155 213
155 220
155 224
155 237
156 93
156 97
156 100
156 105
156 116
156 118
156 119
156 123
156 129
156 139
156 145
156 153
156 158
156 163
156 167
156 171
156 179
156 186
156 192
156 204
156 211
156 218
156 226
157 79
157 87
157 91
157 96
157 102
157 118
157 127
157 137
157 145
157 151
157 176
157 183
157 192
157 203
157 204
157 206
158 82
158 91
158 97
158 100
158 105
158 118
158 119
158 123
158 127
158 129
158 139
158 145
158 151
158 153
158 156
158 171
158 176
158 179
158 186
158 192
158 203
158 204
158 218
158 226
158 239
159 80
159 84
159 85
159 95
159 101
159 107
159 117
159 124
159 130
159 140
159 144
159 149
159 150
159 154
159 161
159 170
159 172
159 173
159 178
159 191
159 193
159 196
159 198
159 202
159 208
159 217
159 223
159 230
160 89
160 99
160 104
160 109
160 112
160 131
160 132
160 133
160 134
160 135
160 136
160 147
160 148
160 162
160 165
160 166
160 168
160 175
160 182
160 185
160 194
160 195
160 200
160 209
160 210
160 212
160 215
160 227
160 233
160 235
161 84
161 94
161 101
161 107
161 117
161 121
161 124
161 130
161 140
161 144
161 150
161 154
161 159
161 163
161 170
161 172
161 173
161 191
161 193
161 196
161 198
161 202
161 205
161 208
161 217
161 223
161 230
162 89
162 103
162 104
162 109
162 112
162 126
162 132
162 133
162 134
162 135
162 136
162 138
162 147
162 160
162 164
162 165
162 166
162 168
162 175
162 180
162 185
162 194
162 195
162 197
162 200
162 209
162 212
162 215
162 233
162 235
162 240
163 93
163 94
163 98
163 107
163 116
163 117
163 119
163 121
163 123
163 144
163 150
163 153
163 156
163 161
163 167
163 171
163 172
163 196
163 198
163 205
163 208
163 211
163 218
163 222
163 229
163 230
163 246
164 103
164 104
164 106
164 108
164 111
164 126
164 134
164 135
164 136
164 138
164 141
164 142
164 162
164 165
164 166
164 174
164 175
164 180
164 184
164 187
164 197
164 199
164 209
164 212
164 216
164 221
164 241
164 242
165 89
165 103
165 104
165 106
165 109
165 126
165 132
165 133
165 134
165 135
165 136
165 138
165 141
165 160
165 162
165 164
165 166
165 175
165 180
165 194
165 197
165 199
165 200
165 209
165 212
165 221
165 235
165 240
165 241
165 242
166 103
166 104
166 106
166 108
166 109
166 126
166 132
166 134
166 135
166 136
166 138
166 141
166 142
166 160
166 162
166 164
166 165
166 175
166 180
166 184
166 197
166 199
166 200
166 209
166 212
166 216
166 221
166 240
166 241
166 242
167 93
167 97
167 98
167 116
167 117
167 119
167 121
167 123
167 129
167 150
167 153
167 156
167 163
167 171
167 172
167 179
167 198
167 205
167 208
167 211
167 218
167 222
167 229
167 250
168 99
168 109
168 112
168 113
168 122
168 131
168 132
168 133
168 135
168 147
168 148
168 160
168 162
168 169
168 175
168 182
168 185
168 194
168 195
168 200
168 201
168 209
168 210
168 215
168 224
168 227
168 228
168 233
169 90
169 110
169 113
169 120
169 122
169 131
169 147
169 148
169 152
169 155
169 168
169 181
169 182
169 185
169 189
169 190
169 195
169 201
169 210
169 213
169 224
169 228
169 237
169 251
170 92
170 95
170 124
170 125
170 128
170 130
170 140
170 146
170 149
170 154
170 159
170 161
170 173
170 177
170 178
170 191
170 193
170 202
170 207
170 214
170 217
170 223
170 225
170 231
170 232
171 93
171 97
171 100
171 105
171 116
171 119
171 121
171 123
171 129
171 139
171 150
171 153
171 156
171 158
171 163
171 167
171 179
171 186
171 198
171 205
171 211
171 218
171 222
171 226
171 229
171 243
171 252
172 94
172 98
172 101
172 107
172 116
172 117
172 121
172 140
172 144
172 150
172 154
172 159
172 161
172 163
172 167
172 173
172 191
172 196
172 198
172 202
172 205
172 208
172 222
172 223
172 230
172 246
172 248
173 95
173 101
173 124
173 128
173 130
173 140
173 144
173 149
173 154
173 159
173 161
173 170
173 172
173 178
173 191
173 193
173 196
173 202
173 207
173 217
173 223
173 231
173 232
173 245
174 108
174 111
174 114
174 115
174 125
174 128
174 138
174 141
174 142
174 143
174 146
174 149
174 164
174 177
174 178
174 180
174 184
174 187
174 199
174 207
174 214
174 216
174 219
174 225
174 247
175 104
175 109
175 112
175 131
175 132
175 133
175 134
175 135
175 136
175 147
175 160
175 162
175 164
175 165
175 166
175 168
175 185
175 194
175 195
175 197
175 200
175 209
175 210
175 212
175 215
175 227
175 233
175 235
175 240
175 241
176 96
176 102
176 118
176 127
176 137
176 139
176 145
176 151
176 157
176 158
176 183
176 186
176 192
176 203
176 204
176 206
176 234
176 238
176 249
177 111
177 114
177 115
177 125
177 128
177 130
177 142
177 143
177 146
177 149
177 170
177 174
177 178
177 184
177 187
177 193
177 207
177 214
177 216
177 219
177 225
177 231
177 247
177 255
178 114
178 124
178 125
178 128
178 130
178 143
178 146
178 149
178 154
178 159
178 170
178 173
178 174
178 177
178 187
178 193
178 202
178 207
178 214
178 217
178 219
178 225
178 231
178 232
179 100
179 105
179 118
179 119
179 123
179 129
179 139
179 145
179 153
179 156
179 158
179 167
179 171
179 186
179 192
179 204
179 205
179 211
179 218
179 226
179 229
179 239
179 243
180 103
180 106
180 108
180 111
180 126
180 134
180 136
180 138
180 141
180 142
180 162
180 164
180 165
180 166
180 174
180 184
180 187
180 197
180 199
180 209
180 212
180 216
180 219
180 221
180 241
180 242
180 244
180 254
181 110
181 120
181 122
181 148
181 152
181 155
181 169
181 182
181 185
181 188
181 189
181 190
181 201
181 210
181 213
181 220
181 224
181 228
181 236
181 237
181 251
182 110
182 113
182 120
182 122
182 131
182 133
182 147
182 148
182 155
182 160
182 168
182 169
182 181
182 185
182 190
182 194
182 195
182 201
182 210
182 213
182 215
182 224
182 227
182 228
182 251
182 253
183 102
183 127
183 137
183 145
183 151
183 157
183 176
183 192
183 203
183 204
183 206
183 234
183 238
183 249
184 106
184 108
184 111
184 115
184 126
184 136
184 138
184 141
184 142
184 143
184 146
184 164
184 166
184 174
184 177
184 180
184 187
184 197
184 199
184 214
184 216
184 219
184 221
184 242
184 244
184 247
184 254
185 99
185 112
185 113
185 122
185 131
185 132
185 133
185 147
185 148
185 155
185 160
185 162
185 168
185 169
185 175
185 181
185 182
185 194
185 195
185 200
185 201
185 210
185 215
185 224
185 227
185 228
185 233
185 253
185 256
186 105
186 118
186 123
186 127
186 129
186 139
186 145
186 151
186 153
186 156
186 158
186 171
186 176
186 179
186 192
186 203
186 204
186 211
186 218
186 226
186 234
186 238
186 239
186 243
186 259
187 108
187 111
187 114
187 115
187 125
187 138
187 141
187 142
187 143
187 146
187 164
187 174
187 177
187 178
187 180
187 184
187 197
187 199
187 207
187 214
187 216
187 219
187 221
187 225
187 244
187 247
187 254
187 255
187 262
188 152
188 155
188 181
188 189
188 190
188 213
188 220
188 236
188 237
189 120
189 152
189 155
189 169
189 181
189 188
189 190
189 201
189 213
189 220
189 236
189 237
190 120
190 152
190 155
190 169
190 181
190 182
190 188
190 189
190 201
190 213
190 220
190 224
190 236
190 237
190 251
191 124
191 130
191 140
191 144
191 150
191 154
191 159
191 161
191 170
191 172
191 173
191 193
191 196
191 198
191 202
191 207
191 208
191 217
191 223
191 230
191 231
191 232
191 245
191 248
191 265
192 118
192 127
192 137
192 139
192 145
192 151
192 156
192 157
192 158
192 176
192 179
192 183
192 186
192 203
192 204
192 206
192 226
192 234
192 238
192 239
192 249
192 259
192 266
192 269
193 124
193 128
193 130
193 140
193 146
193 149
193 154
193 159
193 161
193 170
193 173
193 177
193 178
193 191
193 196
193 202
193 207
193 214
193 217
193 223
193 225
193 231
193 232
193 245
193 260
193 261
194 112
194 131
194 132
194 133
194 135
194 147
194 148
194 160
194 162
194 165
194 168
194 175
194 182
194 185
194 195
194 200
194 209
194 210
194 212
194 215
194 227
194 228
194 233
194 235
194 240
194 256
194 257
194 263
195 131
195 132
195 133
195 147
195 148
195 160
195 162
195 168
195 169
195 175
195 182
195 185
195 194
195 200
195 201
195 209
195 210
195 215
195 224
195 227
195 228
195 233
195 235
195 253
195 256
195 257
196 140
196 144
196 150
196 154
196 159
196 161
196 163
196 172
196 173
196 191
196 193
196 198
196 202
196 205
196 208
196 217
196 222
196 223
196 230
196 232
196 245
196 246
196 248
196 265
196 268
196 271
197 126
197 134
197 135
197 136
197 138
197 141
197 162
197 164
197 165
197 166
197 175
197 180
197 184
197 187
197 199
197 200
197 209
197 212
197 216
197 219
197 221
197 235
197 240
197 241
197 242
197 244
197 254
197 264
197 272
198 117
198 121
198 144
198 150
198 159
198 161
198 163
198 167
198 171
198 172
198 191
198 196
198 202
198 205
198 208
198 211
198 222
198 223
198 229
198 230
198 246
198 248
198 250
198 252
198 271
199 126
199 136
199 138
199 141
199 142
199 164
199 165
199 166
199 174
199 180
199 184
199 187
199 197
199 209
199 212
199 216
199 219
199 221
199 240
199 241
199 242
199 244
199 247
199 254
199 262
199 264
199 272
200 132
200 133
200 134
200 135
200 160
200 162
200 165
200 166
200 168
200 175
200 185
200 194
200 195
200 197
200 209
200 210
200 212
200 215
200 221
200 227
200 233
200 235
200 240
200 241
200 242
200 256
200 257
200 263
200 267
201 122
201 131
201 147
201 148
201 152
201 155
201 168
201 169
201 181
201 182
201 185
201 189
201 190
201 195
201 210
201 213
201 215
201 220
201 224
201 227
201 228
201 236
201 237
201 251
201 253
201 256
202 124
202 130
202 140
202 144
202 149
202 154
202 159
202 161
202 170
202 172
202 173
202 178
202 191
202 193
202 196
202 198
202 207
202 208
202 217
202 223
202 230
202 231
202 232
202 245
202 248
202 260
202 265
202 268
203 127
203 137
203 145
203 151
203 157
203 158
203 176
203 183
203 186
203 192
203 204
203 206
203 234
203 238
203 239
203 249
203 266
203 269
203 270
204 118
204 127
204 139
204 145
204 151
204 156
204 157
204 158
204 176
204 179
204 183
204 186
204 192
204 203
204 206
204 218
204 226
204 234
204 238
204 239
204 243
204 259
204 266
204 269
205 121
205 150
205 153
205 161
205 163
205 167
205 171
205 172
205 179
205 196
205 198
205 208
205 211
205 218
205 222
205 229
205 230
205 243
205 246
205 250
205 252
205 274
206 137
206 151
206 157
206 176
206 183
206 192
206 203
206 204
206 234
206 238
206 249
206 269
206 270
207 128
207 130
207 146
207 149
207 154
207 170
207 173
207 174
207 177
207 178
207 187
207 191
207 193
207 202
207 214
207 217
207 219
207 223
207 225
207 231
207 232
207 245
207 255
207 258
207 260
207 261
207 277
208 144
208 150
208 159
208 161
208 163
208 167
208 172
208 191
208 196
208 198
208 202
208 205
208 211
208 222
208 223
208 229
208 230
208 245
208 246
208 248
208 250
208 252
208 268
208 271
208 285
209 132
209 134
209 135
209 160
209 162
209 164
209 165
209 166
209 168
209 175
209 180
209 194
209 195
209 197
209 199
209 200
209 212
209 215
209 221
209 227
209 233
209 235
209 240
209 241
209 242
209 257
209 263
209 264
209 267
210 131
210 147
210 148
210 160
210 168
210 169
210 175
210 181
210 182
210 185
210 194
210 195
210 200
210 201
210 213
210 215
210 224
210 227
210 228
210 233
210 235
210 251
210 253
210 256
210 257
211 153
211 156
211 163
211 167
211 171
211 179
211 186
211 198
211 205
211 208
211 218
211 222
211 226
211 229
211 239
211 243
211 246
211 250
211 252
211 274
211 282
212 134
212 135
212 136
212 160
212 162
212 164
212 165
212 166
212 175
212 180
212 194
212 197
212 199
212 200
212 209
212 215
212 216
212 221
212 233
212 235
212 240
212 241
212 242
212 244
212 254
212 263
212 264
212 267
212 272
213 152
213 155
213 169
213 181
213 182
213 188
213 189
213 190
213 201
213 210
213 220
213 224
213 228
213 236
213 237
213 251
213 253
213 279
213 283
214 143
214 146
214 149
214 170
214 174
214 177
214 178
214 184
214 187
214 193
214 207
214 216
214 219
214 225
214 231
214 232
214 244
214 247
214 255
214 258
214 261
214 262
214 278
214 281
215 133
215 147
215 160
215 162
215 168
215 175
215 182
215 185
215 194
215 195
215 200
215 201
215 209
215 210
215 212
215 224
215 227
215 228
215 233
215 235
215 240
215 253
215 256
215 257
215 263
215 267
216 141
216 142
216 164
216 166
216 174
216 177
216 180
216 184
216 187
216 197
216 199
216 212
216 214
216 219
216 221
216 225
216 241
216 242
216 244
216 247
216 254
216 255
216 262
216 264
216 272
216 273
216 276
217 149
217 154
217 159
217 161
217 170
217 173
217 178
217 191
217 193
217 196
217 202
217 207
217 223
217 225
217 230
217 231
217 232
217 245
217 248
217 258
217 260
217 261
217 265
217 268
217 277
217 280
218 153
218 156
218 158
218 163
218 167
218 171
218 179
218 186
218 204
218 205
218 211
218 222
218 226
218 229
218 239
218 243
218 250
218 252
218 259
218 275
218 282
218 284
219 142
219 143
219 146
219 174
219 177
219 178
219 180
219 184
219 187
219 197
219 199
219 207
219 214
219 216
219 221
219 225
219 244
219 247
219 254
219 255
219 258
219 262
219 273
219 276
219 278
220 152
220 155
220 181
220 188
220 189
220 190
220 201
220 213
220 224
220 236
220 237
220 251
220 279
220 283
221 164
221 165
221 166
221 180
221 184
221 187
221 197
221 199
221 200
221 209
221 212
221 216
221 219
221 235
221 240
221 241
221 242
221 244
221 247
221 254
221 262
221 264
221 267
221 272
221 273
222 150
222 163
222 167
222 171
222 172
222 196
222 198
222 205
222 208
222 211
222 218
222 229
222 230
222 243
222 246
222 248
222 250
222 252
222 271
222 274
222 282
222 285
223 154
223 159
223 161
223 170
223 172
223 173
223 191
223 193
223 196
223 198
223 202
223 207
223 208
223 217
223 230
223 231
223 232
223 245
223 246
223 248
223 260
223 265
223 268
223 271
223 280
223 287
224 148
224 155
224 168
224 169
224 181
224 182
224 185
224 190
224 195
224 201
224 210
224 213
224 215
224 220
224 227
224 228
224 236
224 237
224 251
224 253
224 256
224 283
224 286
225 146
225 149
225 170
225 174
225 177
225 178
225 187
225 193
225 207
225 214
225 216
225 217
225 219
225 231
225 232
225 247
225 255
225 258
225 260
225 261
225 262
225 277
225 278
225 281
226 156
226 158
226 171
226 179
226 186
226 192
226 204
226 211
226 218
226 229
226 234
226 238
226 239
226 243
226 252
226 259
226 266
226 275
226 282
226 284
226 288
227 147
227 160
227 168
227 175
227 182
227 185
227 194
227 195
227 200
227 201
227 209
227 210
227 215
227 224
227 228
227 233
227 235
227 240
227 251
227 253
227 256
227 257
227 263
227 286
227 289
227 291
228 148
228 168
228 169
228 181
228 182
228 185
228 194
228 195
228 201
228 210
228 213
228 215
228 224
228 227
228 233
228 235
228 237
228 251
228 253
228 256
228 257
228 286
228 289
229 153
229 163
229 167
229 171
229 179
229 198
229 205
229 208
229 211
229 218
229 222
229 226
229 230
229 243
229 246
229 250
229 252
229 271
229 274
229 282
229 284
229 285
229 293
230 150
230 159
230 161
230 163
230 172
230 191
230 196
230 198
230 202
230 205
230 208
230 217
230 222
230 223
230 229
230 245
230 246
230 248
230 250
230 265
230 268
230 271
230 274
230 280
230 285
230 287
230 294
231 149
231 170
231 173
231 177
231 178
231 191
231 193
231 202
231 207
231 214
231 217
231 223
231 225
231 232
231 245
231 255
231 258
231 260
231 261
231 265
231 277
231 280
231 281
231 292
232 154
232 170
232 173
232 178
232 191
232 193
232 196
232 202
232 207
232 214
232 217
232 223
232 225
232 231
232 245
232 248
232 255
232 258
232 260
232 261
232 265
232 268
232 277
232 280
232 292
232 295
233 160
233 162
233 168
233 175
233 185
233 194
233 195
233 200
233 209
233 210
233 212
233 215
233 227
233 228
233 235
233 240
233 241
233 253
233 256
233 257
233 263
233 267
233 289
233 291
233 305
234 176
234 183
234 186
234 192
234 203
234 204
234 206
234 226
234 238
234 239
234 243
234 249
234 259
234 266
234 269
234 270
234 275
234 288
234 290
234 296
235 160
235 162
235 165
235 175
235 194
235 195
235 197
235 200
235 209
235 210
235 212
235 215
235 221
235 227
235 228
235 233
235 240
235 241
235 242
235 256
235 257
235 263
235 264
235 267
235 291
235 301
235 305
236 181
236 188
236 189
236 190
236 201
236 213
236 220
236 224
236 237
236 251
236 253
236 279
236 283
236 298
236 306
237 155
237 169
237 181
237 188
237 189
237 190
237 201
237 213
237 220
237 224
237 228
237 236
237 251
237 253
237 279
237 283
237 286
237 298
237 306
238 176
238 183
238 186
238 192
238 203
238 204
238 206
238 226
238 234
238 239
238 249
238 259
238 266
238 269
238 270
238 275
238 288
238 290
238 296
238 299
239 158
239 179
239 186
239 192
239 203
239 204
239 211
239 218
239 226
239 234
239 238
239 243
239 252
239 259
239 266
239 269
239 275
239 282
239 284
239 288
239 290
239 300
240 162
240 165
240 166
240 175
240 194
240 197
240 199
240 200
240 209
240 212
240 215
240 221
240 227
240 233
240 235
240 241
240 242
240 254
240 256
240 257
240 263
240 264
240 267
240 272
240 291
240 301
240 309
241 164
241 165
241 166
241 175
241 180
241 197
241 199
241 200
241 209
241 212
241 216
241 221
241 233
241 235
241 240
241 242
241 244
241 254
241 257
241 263
241 264
241 267
241 272
241 273
241 301
241 303
241 309
242 164
242 165
242 166
242 180
242 184
242 197
242 199
242 200
242 209
242 212
242 216
242 221
242 235
242 240
242 241
242 244
242 247
242 254
242 262
242 263
242 264
242 267
242 272
242 273
242 276
242 303
242 304
243 171
243 179
243 186
243 204
243 205
243 211
243 218
243 222
243 226
243 229
243 234
243 239
243 250
243 252
243 259
243 266
243 274
243 275
243 282
243 284
243 288
243 293
243 300
243 311
244 180
244 184
244 187
244 197
244 199
244 212
244 214
244 216
244 219
244 221
244 241
244 242
244 247
244 254
244 255
244 262
244 264
244 272
244 273
244 276
244 278
244 303
244 304
245 173
245 191
245 193
245 196
245 202
245 207
245 208
245 217
245 223
245 230
245 231
245 232
245 246
245 248
245 260
245 261
245 265
245 268
245 271
245 277
245 280
245 287
245 292
245 294
245 295
246 163
246 172
246 196
246 198
246 205
246 208
246 211
246 222
246 223
246 229
246 230
246 245
246 248
246 250
246 252
246 265
246 268
246 271
246 274
246 282
246 285
246 287
246 293
246 294
246 297
246 313
247 174
247 177
247 184
247 187
247 199
247 214
247 216
247 219
247 221
247 225
247 242
247 244
247 254
247 255
247 258
247 262
247 264
247 272
247 273
247 276
247 278
247 281
247 304
247 308
248 172
248 191
248 196
248 198
248 202
248 208
248 217
248 222
248 223
248 230
248 232
248 245
248 246
248 250
248 260
248 265
248 268
248 271
248 280
248 285
248 287
248 294
248 295
248 297
249 176
249 183
249 192
249 203
249 206
249 234
249 238
249 266
249 269
249 270
249 296
249 299
249 319
250 167
250 198
250 205
250 208
250 211
250 218
250 222
250 229
250 230
250 243
250 246
250 248
250 252
250 271
250 274
250 282
250 284
250 285
250 293
250 294
250 297
250 313
250 315
251 169
251 181
251 182
251 190
251 201
251 210
251 213
251 220
251 224
251 227
251 228
251 236
251 237
251 253
251 256
251 279
251 283
251 286
251 289
251 298
251 302
251 307
251 314
251 322
252 171
252 198
252 205
252 208
252 211
252 218
252 222
252 226
252 229
252 239
252 243
252 246
252 250
252 271
252 274
252 275
252 282
252 284
252 285
252 293
252 297
252 311
252 313
252 315
253 182
253 185
253 195
253 201
253 210
253 213
253 215
253 224
253 227
253 228
253 233
253 236
253 237
253 251
253 256
253 257
253 283
253 286
253 289
253 298
253 302
253 307
253 322
254 180
254 184
254 187
254 197
254 199
254 212
254 216
254 219
254 221
254 240
254 241
254 242
254 244
254 247
254 255
254 262
254 264
254 267
254 272
254 273
254 276
254 278
254 303
254 304
254 326
255 177
255 187
255 207
255 214
255 216
255 219
255 225
255 231
255 232
255 244
255 247
255 254
255 258
255 260
255 261
255 262
255 273
255 276
255 277
255 278
255 281
255 292
255 308
255 320
256 185
256 194
256 195
256 200
256 201
256 210
256 215
256 224
256 227
256 228
256 233
256 235
256 240
256 251
256 253
256 257
256 263
256 267
256 286
256 289
256 291
256 301
256 302
256 305
256 307
256 324
256 332
257 194
257 195
257 200
257 209
257 210
257 215
257 227
257 228
257 233
257 235
257 240
257 241
257 253
257 256
257 263
257 267
257 286
257 289
257 291
257 301
257 305
257 307
257 309
257 327
257 332
258 207
258 214
258 217
258 219
258 225
258 231
258 232
258 247
258 255
258 260
258 261
258 262
258 276
258 277
258 278
258 281
258 292
258 308
258 320
258 321
259 186
259 192
259 204
259 218
259 226
259 234
259 238
259 239
259 243
259 266
259 269
259 270
259 275
259 282
259 284
259 288
259 290
259 296
259 300
259 311
259 316
259 317
260 193
260 202
260 207
260 217
260 223
260 225
260 231
260 232
260 245
260 248
260 255
260 258
260 261
260 265
260 268
260 277
260 280
260 281
260 287
260 292
260 295
260 320
260 321
260 323
260 330
261 193
261 207
261 214
261 217
261 225
261 231
261 232
261 245
261 255
261 258
261 260
261 265
261 277
261 278
261 280
261 281
261 292
261 295
261 320
261 321
261 323
261 341
262 187
262 199
262 214
262 216
262 219
262 221
262 225
262 242
262 244
262 247
262 254
262 255
262 258
262 264
262 272
262 273
262 276
262 278
262 281
262 303
262 304
262 308
262 326
262 331
263 194
263 200
263 209
263 212
263 215
263 227
263 233
263 235
263 240
263 241
263 242
263 256
263 257
263 264
263 267
263 272
263 289
263 291
263 301
263 303
263 305
263 309
263 318
263 327
264 197
264 199
264 209
264 212
264 216
264 221
264 235
264 240
264 241
264 242
264 244
264 247
264 254
264 262
264 263
264 267
264 272
264 273
264 276
264 301
264 303
264 304
264 309
264 318
264 333
264 335
264 337
265 191
265 196
265 202
265 217
265 223
265 230
265 231
265 232
265 245
265 246
265 248
265 260
265 261
265 268
265 271
265 277
265 280
265 285
265 287
265 292
265 294
265 295
265 297
265 323
265 329
265 330
265 334
266 192
266 203
266 204
266 226
266 234
266 238
266 239
266 243
266 249
266 259
266 269
266 270
266 275
266 284
266 288
266 290
266 296
266 299
266 300
266 316
266 317
266 336
267 200
267 209
267 212
267 215
267 221
267 233
267 235
267 240
267 241
267 242
267 254
267 256
267 257
267 263
267 264
267 272
267 273
267 291
267 301
267 303
267 305
267 309
267 318
267 327
267 335
268 196
268 202
268 208
268 217
268 223
268 230
268 232
268 245
268 246
268 248
268 260
268 265
268 271
268 274
268 280
268 285
268 287
268 292
268 294
268 295
268 297
268 329
268 330
268 334
268 348
269 192
269 203
269 204
269 206
269 234
269 238
269 239
269 249
269 259
269 266
269 270
269 275
269 288
269 290
269 296
269 299
269 316
269 317
269 319
269 336
269 339
270 203
270 206
270 234
270 238
270 249
270 259
270 266
270 269
270 288
270 290
270 296
270 299
270 316
270 317
270 319
270 336
270 339
271 196
271 198
271 208
271 222
271 223
271 229
271 230
271 245
271 246
271 248
271 250
271 252
271 265
271 268
271 274
271 280
271 285
271 287
271 293
271 294
271 295
271 297
271 313
271 329
271 334
271 343
271 348
272 197
272 199
272 212
272 216
272 221
272 240
272 241
272 242
272 244
272 247
272 254
272 262
272 263
272 264
272 267
272 273
272 276
272 278
272 301
272 303
272 304
272 309
272 318
272 326
272 333
272 335
272 337
273 216
273 219
273 221
273 241
273 242
273 244
273 247
273 254
273 255
273 262
273 264
273 267
273 272
273 276
273 278
273 303
273 304
273 308
273 318
273 326
273 331
273 333
273 337
273 350
273 351
274 205
274 211
274 222
274 229
274 230
274 243
274 246
274 250
274 252
274 268
274 271
274 282
274 284
274 285
274 293
274 294
274 297
274 311
274 313
274 315
274 329
274 343
274 346
274 353
275 218
275 226
275 234
275 238
275 239
275 243
275 252
275 259
275 266
275 269
275 282
275 284
275 288
275 290
275 293
275 296
275 300
275 311
275 315
275 316
275 317
275 342
275 352
275 356
276 216
276 219
276 242
276 244
276 247
276 254
276 255
276 258
276 262
276 264
276 272
276 273
276 278
276 281
276 303
276 304
276 308
276 320
276 326
276 331
276 333
276 350
276 351
277 207
277 217
277 225
277 231
277 232
277 245
277 255
277 258
277 260
277 261
277 265
277 278
277 280
277 281
277 292
277 295
277 308
277 320
277 321
277 323
277 330
277 341
277 345
277 347
278 214
278 219
278 225
278 244
278 247
278 254
278 255
278 258
278 261
278 262
278 272
278 273
278 276
278 277
278 281
278 304
278 308
278 320
278 321
278 326
278 331
278 347
278 351
279 213
279 220
279 236
279 237
279 251
279 283
279 298
279 302
279 306
279 310
279 312
279 314
279 325
279 328
279 340
279 344
280 217
280 223
280 230
280 231
280 232
280 245
280 248
280 260
280 261
280 265
280 268
280 271
280 277
280 285
280 287
280 292
280 294
280 295
280 297
280 321
280 323
280 329
280 330
280 334
280 345
280 348
280 357
280 363
281 214
281 225
281 231
281 247
281 255
281 258
281 260
281 261
281 262
281 276
281 277
281 278
281 292
281 308
281 320
281 321
281 323
281 331
281 341
281 347
281 367
282 211
282 218
282 222
282 226
282 229
282 239
282 243
282 246
282 250
282 252
282 259
282 274
282 275
282 284
282 285
282 288
282 293
282 297
282 300
282 311
282 313
282 315
282 342
282 346
282 353
283 213
283 220
283 224
283 236
283 237
283 251
283 253
283 279
283 286
283 298
283 302
283 306
283 307
283 310
283 312
283 314
283 322
283 328
283 338
283 340
283 344
283 359
283 360
284 218
284 226
284 229
284 239
284 243
284 250
284 252
284 259
284 266
284 274
284 275
284 282
284 288
284 290
284 293
284 300
284 311
284 313
284 315
284 317
284 342
284 352
284 353
284 356
285 208
285 222
285 229
285 230
285 246
285 248
285 250
285 252
285 265
285 268
285 271
285 274
285 280
285 282
285 287
285 293
285 294
285 297
285 313
285 315
285 329
285 334
285 343
285 346
285 348
285 362
286 224
286 227
286 228
286 237
286 251
286 253
286 256
286 257
286 283
286 289
286 291
286 298
286 302
286 305
286 307
286 314
286 322
286 324
286 332
286 338
286 340
286 359
286 366
287 223
287 230
287 245
287 246
287 248
287 260
287 265
287 268
287 271
287 280
287 285
287 292
287 294
287 295
287 297
287 323
287 329
287 330
287 334
287 348
287 363
287 368
288 226
288 234
288 238
288 239
288 243
288 259
288 266
288 269
288 270
288 275
288 282
288 284
288 290
288 296
288 299
288 300
288 311
288 316
288 317
288 336
288 342
288 352
288 356
288 364
289 227
289 228
289 233
289 251
289 253
289 256
289 257
289 263
289 286
289 291
289 298
289 301
289 302
289 305
289 307
289 322
289 324
289 327
289 332
289 338
289 349
289 361
289 366
290 234
290 238
290 239
290 259
290 266
290 269
290 270
290 275
290 284
290 288
290 296
290 299
290 300
290 311
290 316
290 317
290 319
290 336
290 339
290 352
290 356
290 364
290 371
291 227
291 233
291 235
291 240
291 256
291 257
291 263
291 267
291 286
291 289
291 301
291 305
291 307
291 309
291 324
291 327
291 332
291 335
291 349
291 354
291 361
291 370
292 231
292 232
292 245
292 255
292 258
292 260
292 261
292 265
292 268
292 277
292 280
292 281
292 287
292 295
292 320
292 321
292 323
292 330
292 334
292 341
292 345
292 347
292 357
292 363
292 372
292 373
293 229
293 243
293 246
293 250
293 252
293 271
293 274
293 275
293 282
293 284
293 285
293 294
293 297
293 300
293 311
293 313
293 315
293 342
293 343
293 346
293 353
293 362
293 379
294 230
294 245
294 246
294 248
294 250
294 265
294 268
294 271
294 274
294 280
294 285
294 287
294 293
294 295
294 297
294 313
294 329
294 330
294 334
294 343
294 346
294 348
294 362
294 363
294 368
294 375
295 232
295 245
295 248
295 260
295 261
295 265
295 268
295 271
295 277
295 280
295 287
295 292
295 294
295 297
295 321
295 323
295 329
295 330
295 334
295 341
295 345
295 348
295 357
295 363
295 368
295 373
295 380
296 234
296 238
296 249
296 259
296 266
296 269
296 270
296 275
296 288
296 290
296 299
296 300
296 316
296 317
296 319
296 336
296 339
296 352
296 364
296 371
296 374
297 246
297 248
297 250
297 252
297 265
297 268
297 271
297 274
297 280
297 282
297 285
297 287
297 293
297 294
297 295
297 313
297 315
297 329
297 334
297 343
297 346
297 348
297 353
297 362
297 368
297 375
298 236
298 237
298 251
298 253
298 279
298 283
298 286
298 289
298 302
298 306
298 307
298 312
298 314
298 322
298 324
298 328
298 338
298 340
298 344
298 359
298 360
298 366
298 381
299 238
299 249
299 266
299 269
299 270
299 288
299 290
299 296
299 316
299 317
299 319
299 336
299 339
299 364
299 371
299 374
300 239
300 243
300 259
300 266
300 275
300 282
300 284
300 288
300 290
300 293
300 296
300 311
300 315
300 316
300 317
300 336
300 342
300 352
300 353
300 356
300 364
300 384
301 235
301 240
301 241
301 256
301 257
301 263
301 264
301 267
301 272
301 289
301 291
301 303
301 305
301 309
301 318
301 327
301 332
301 335
301 337
301 349
301 354
301 355
301 358
301 361
301 370
301 383
302 251
302 253
302 256
302 279
302 283
302 286
302 289
302 298
302 305
302 306
302 307
302 314
302 322
302 324
302 328
302 332
302 338
302 340
302 359
302 360
302 366
302 385
303 241
303 242
303 244
303 254
303 262
303 263
303 264
303 267
303 272
303 273
303 276
303 301
303 304
303 309
303 318
303 326
303 327
303 333
303 335
303 337
303 350
303 354
303 355
303 358
303 365
304 242
304 244
304 247
304 254
304 262
304 264
304 272
304 273
304 276
304 278
304 303
304 308
304 309
304 318
304 326
304 331
304 333
304 335
304 337
304 350
304 351
304 355
304 358
304 365
304 369
304 393
305 233
305 235
305 256
305 257
305 263
305 267
305 286
305 289
305 291
305 301
305 302
305 307
305 309
305 322
305 324
305 327
305 332
305 335
305 349
305 354
305 355
305 361
305 366
305 370
305 378
305 388
306 236
306 237
306 279
306 283
306 298
306 302
306 310
306 312
306 314
306 322
306 325
306 328
306 338
306 340
306 344
306 359
306 360
306 377
306 381
306 389
307 251
307 253
307 256
307 257
307 283
307 286
307 289
307 291
307 298
307 302
307 305
307 314
307 322
307 324
307 327
307 332
307 338
307 340
307 349
307 359
307 361
307 366
307 378
307 385
308 247
308 255
308 258
308 262
308 273
308 276
308 277
308 278
308 281
308 304
308 320
308 321
308 326
308 331
308 333
308 341
308 347
308 350
308 351
308 365
308 367
308 369
308 372
308 376
308 382
309 240
309 241
309 257
309 263
309 264
309 267
309 272
309 291
309 301
309 303
309 304
309 305
309 318
309 327
309 332
309 333
309 335
309 337
309 349
309 354
309 355
309 358
309 370
309 383
310 279
310 283
310 306
310 312
310 314
310 325
310 328
310 340
310 344
310 360
310 377
310 389
310 391
311 243
311 252
311 259
311 274
311 275
311 282
311 284
311 288
311 290
311 293
311 300
311 313
311 315
311 317
311 342
311 346
311 352
311 353
311 356
311 379
311 384
311 392
312 279
312 283
312 298
312 306
312 310
312 314
312 325
312 328
312 340
312 344
312 360
312 377
312 389
312 391
313 246
313 250
313 252
313 271
313 274
313 282
313 284
313 285
313 293
313 294
313 297
313 311
313 315
313 329
313 342
313 343
313 346
313 348
313 353
313 362
313 375
313 379
313 387
314 251
314 279
314 283
314 286
314 298
314 302
314 306
314 307
314 310
314 312
314 322
314 324
314 328
314 338
314 340
314 344
314 359
314 360
314 366
314 377
314 381
314 389
315 250
315 252
315 274
315 275
315 282
315 284
315 285
315 293
315 297
315 300
315 311
315 313
315 342
315 343
315 346
315 352
315 353
315 356
315 362
315 379
315 384
315 387
315 402
316 259
316 266
316 269
316 270
316 275
316 288
316 290
316 296
316 299
316 300
316 317
316 319
316 336
316 339
316 352
316 356
316 364
316 371
316 374
316 394
316 398
317 259
317 266
317 269
317 270
317 275
317 284
317 288
317 290
317 296
317 299
317 300
317 311
317 316
317 336
317 339
317 342
317 352
317 356
317 364
317 371
317 392
317 394
318 263
318 264
318 267
318 272
318 273
318 301
318 303
318 304
318 309
318 326
318 327
318 333
318 335
318 337
318 349
318 350
318 354
318 355
318 358
318 365
318 370
318 383
318 393
318 397
319 249
319 269
319 270
319 290
319 296
319 299
319 316
319 336
319 339
319 364
319 371
319 374
320 255
320 258
320 260
320 261
320 276
320 277
320 278
320 281
320 292
320 308
320 321
320 323
320 326
320 331
320 341
320 345
320 347
320 351
320 357
320 367
320 369
320 372
320 373
320 376
320 382
320 401
321 258
321 260
321 261
321 277
321 278
321 280
321 281
321 292
321 295
321 308
321 320
321 323
321 330
321 331
321 334
321 341
321 345
321 347
321 357
321 363
321 367
321 372
321 373
321 376
321 380
321 382
321 406
322 251
322 253
322 283
322 286
322 289
322 298
322 302
322 305
322 306
322 307
322 314
322 324
322 328
322 332
322 338
322 340
322 359
322 360
322 361
322 366
322 378
322 381
322 385
322 399
323 260
323 261
323 265
323 277
323 280
323 281
323 287
323 292
323 295
323 320
323 321
323 330
323 334
323 341
323 345
323 347
323 348
323 357
323 363
323 367
323 372
323 373
323 380
323 386
323 408
323 410
324 256
324 286
324 289
324 291
324 298
324 302
324 305
324 307
324 314
324 322
324 327
324 332
324 338
324 340
324 349
324 359
324 361
324 366
324 370
324 378
324 385
324 388
324 399
324 409
325 279
325 306
325 310
325 312
325 328
325 344
325 377
325 389
325 391
326 254
326 262
326 272
326 273
326 276
326 278
326 303
326 304
326 308
326 318
326 320
326 331
326 333
326 335
326 337
326 347
326 350
326 351
326 358
326 365
326 367
326 369
326 376
326 393
326 395
326 403
326 414
327 257
327 263
327 267
327 289
327 291
327 301
327 303
327 305
327 307
327 309
327 318
327 324
327 332
327 335
327 337
327 349
327 354
327 355
327 358
327 361
327 370
327 378
327 383
327 388
327 405
327 407
328 279
328 283
328 298
328 302
328 306
328 310
328 312
328 314
328 322
328 325
328 338
328 340
328 344
328 359
328 360
328 366
328 377
328 381
328 389
328 391
328 399
328 413
329 265
329 268
329 271
329 274
329 280
329 285
329 287
329 294
329 295
329 297
329 313
329 330
329 334
329 343
329 346
329 348
329 357
329 362
329 363
329 368
329 375
329 386
329 387
329 390
329 396
329 412
330 260
330 265
330 268
330 277
330 280
330 287
330 292
330 294
330 295
330 321
330 323
330 329
330 334
330 341
330 345
330 348
330 357
330 363
330 368
330 372
330 373
330 375
330 380
330 386
330 390
330 410
331 262
331 273
331 276
331 278
331 281
331 304
331 308
331 320
331 321
331 326
331 333
331 337
331 341
331 347
331 350
331 351
331 365
331 367
331 369
331 372
331 376
331 382
331 393
331 395
331 401
331 403
332 256
332 257
332 286
332 289
332 291
332 301
332 302
332 305
332 307
332 309
332 322
332 324
332 327
332 338
332 349
332 354
332 359
332 361
332 366
332 370
332 378
332 385
332 388
332 407
332 409
332 415
333 264
333 272
333 273
333 276
333 303
333 304
333 308
333 309
333 318
333 326
333 331
333 335
333 337
333 350
333 351
333 354
333 355
333 358
333 365
333 369
333 376
333 383
333 393
333 395
333 397
334 265
334 268
334 271
334 280
334 285
334 287
334 292
334 294
334 295
334 297
334 321
334 323
334 329
334 330
334 343
334 345
334 348
334 357
334 363
334 368
334 373
334 375
334 380
334 386
334 390
334 396
334 410
334 412
335 264
335 267
335 272
335 291
335 301
335 303
335 304
335 305
335 309
335 318
335 326
335 327
335 333
335 337
335 349
335 350
335 354
335 355
335 358
335 365
335 370
335 383
335 388
335 393
335 397
335 405
336 266
336 269
336 270
336 288
336 290
336 296
336 299
336 300
336 316
336 317
336 319
336 339
336 352
336 356
336 364
336 371
336 374
336 392
336 394
336 398
336 416
337 264
337 272
337 273
337 301
337 303
337 304
337 309
337 318
337 326
337 327
337 331
337 333
337 335
337 349
337 350
337 351
337 354
337 355
337 358
337 365
337 369
337 370
337 383
337 393
337 395
337 397
337 419
338 283
338 286
338 289
338 298
338 302
338 306
338 307
338 314
338 322
338 324
338 328
338 332
338 340
338 344
338 359
338 360
338 361
338 366
338 378
338 381
338 385
338 399
338 409
338 413
338 417
339 269
339 270
339 290
339 296
339 299
339 316
339 317
339 319
339 336
339 352
339 364
339 371
339 374
339 394
339 398
339 418
340 279
340 283
340 286
340 298
340 302
340 306
340 307
340 310
340 312
340 314
340 322
340 324
340 328
340 338
340 344
340 359
340 360
340 366
340 377
340 381
340 385
340 389
340 399
340 413
340 417
341 261
341 277
341 281
341 292
341 295
341 308
341 320
341 321
341 323
341 330
341 331
341 345
341 347
341 351
341 357
341 363
341 367
341 372
341 373
341 376
341 380
341 382
341 401
341 406
341 408
341 410
341 421
342 275
342 282
342 284
342 288
342 293
342 300
342 311
342 313
342 315
342 317
342 343
342 346
342 352
342 353
342 356
342 362
342 364
342 379
342 384
342 387
342 392
342 400
342 402
342 404
342 411
342 427
343 271
343 274
343 285
343 293
343 294
343 297
343 313
343 315
343 329
343 334
343 342
343 346
343 348
343 353
343 362
343 368
343 375
343 379
343 387
343 390
343 396
343 400
343 402
343 420
343 429
344 279
344 283
344 298
344 306
344 310
344 312
344 314
344 325
344 328
344 338
344 340
344 359
344 360
344 377
344 381
344 389
344 391
344 413
344 426
345 277
345 280
345 292
345 295
345 320
345 321
345 323
345 330
345 334
345 341
345 347
345 348
345 357
345 363
345 367
345 372
345 373
345 380
345 382
345 386
345 406
345 408
345 410
345 430
345 434
346 274
346 282
346 285
346 293
346 294
346 297
346 311
346 313
346 315
346 329
346 342
346 343
346 348
346 353
346 362
346 368
346 375
346 379
346 384
346 387
346 396
346 400
346 402
346 404
346 420
346 429
347 277
347 278
347 281
347 292
347 308
347 320
347 321
347 323
347 326
347 331
347 341
347 345
347 350
347 351
347 357
347 367
347 369
347 372
347 373
347 376
347 382
347 395
347 401
347 403
347 406
347 408
347 421
347 425
348 268
348 271
348 280
348 285
348 287
348 294
348 295
348 297
348 313
348 323
348 329
348 330
348 334
348 343
348 345
348 346
348 357
348 362
348 363
348 368
348 375
348 380
348 386
348 387
348 390
348 396
348 412
348 424
348 431
349 289
349 291
349 301
349 305
349 307
349 309
349 318
349 324
349 327
349 332
349 335
349 337
349 354
349 355
349 358
349 361
349 366
349 370
349 378
349 383
349 388
349 405
349 407
349 415
349 428
350 273
350 276
350 303
350 304
350 308
350 318
350 326
350 331
350 333
350 335
350 337
350 347
350 351
350 355
350 358
350 365
350 367
350 369
350 376
350 393
350 395
350 397
350 401
350 403
350 414
350 419
351 273
351 276
351 278
351 304
351 308
351 320
351 326
351 331
351 333
351 337
351 341
351 347
351 350
351 365
351 367
351 369
351 372
351 376
351 382
351 393
351 395
351 401
351 403
351 414
351 425
352 275
352 284
352 288
352 290
352 296
352 300
352 311
352 315
352 316
352 317
352 336
352 339
352 342
352 353
352 356
352 364
352 371
352 384
352 392
352 394
352 398
352 404
352 411
352 416
352 433
352 435
353 274
353 282
353 284
353 293
353 297
353 300
353 311
353 313
353 315
353 342
353 343
353 346
353 352
353 356
353 362
353 375
353 379
353 384
353 387
353 392
353 400
353 402
353 404
353 420
353 427
354 291
354 301
354 303
354 305
354 309
354 318
354 327
354 332
354 333
354 335
354 337
354 349
354 355
354 358
354 361
354 370
354 378
354 383
354 388
354 397
354 405
354 407
354 428
355 301
355 303
355 304
355 305
355 309
355 318
355 327
355 333
355 335
355 337
355 349
355 350
355 354
355 358
355 361
355 365
355 370
355 383
355 388
355 393
355 397
355 405
355 419
355 428
355 438
356 275
356 284
356 288
356 290
356 300
356 311
356 315
356 316
356 317
356 336
356 342
356 352
356 353
356 364
356 371
356 379
356 384
356 392
356 394
356 402
356 404
356 411
356 416
356 427
356 433
356 435
357 280
357 292
357 295
357 320
357 321
357 323
357 329
357 330
357 334
357 341
357 345
357 347
357 348
357 363
357 367
357 368
357 372
357 373
357 380
357 382
357 386
357 390
357 406
357 408
357 410
357 412
357 430
357 431
357 434
357 439
358 301
358 303
358 304
358 309
358 318
358 326
358 327
358 333
358 335
358 337
358 349
358 350
358 354
358 355
358 365
358 369
358 370
358 383
358 388
358 393
358 395
358 397
358 405
358 419
358 438
358 447
359 283
359 286
359 298
359 302
359 306
359 307
359 314
359 322
359 324
359 328
359 332
359 338
359 340
359 344
359 360
359 361
359 366
359 377
359 378
359 381
359 385
359 389
359 399
359 409
359 413
359 417
359 432
360 283
360 298
360 302
360 306
360 310
360 312
360 314
360 322
360 328
360 338
360 340
360 344
360 359
360 366
360 377
360 381
360 385
360 389
360 391
360 399
360 413
360 417
360 426
360 436
360 448
361 289
361 291
361 301
361 305
361 307
361 322
361 324
361 327
361 332
361 338
361 349
361 354
361 355
361 359
361 366
361 370
361 378
361 383
361 385
361 388
361 399
361 405
361 407
361 409
361 415
361 428
361 432
361 437
361 444
362 285
362 293
362 294
362 297
362 313
362 315
362 329
362 342
362 343
362 346
362 348
362 353
362 368
362 375
362 379
362 384
362 387
362 390
362 396
362 400
362 402
362 420
362 424
362 429
362 441
362 449
363 280
363 287
363 292
363 294
363 295
363 321
363 323
363 329
363 330
363 334
363 341
363 345
363 348
363 357
363 368
363 372
363 373
363 375
363 380
363 386
363 390
363 396
363 408
363 410
363 412
363 424
363 430
363 431
363 434
363 439
364 288
364 290
364 296
364 299
364 300
364 316
364 317
364 319
364 336
364 339
364 342
364 352
364 356
364 371
364 374
364 384
364 392
364 394
364 398
364 411
364 416
364 418
364 435
364 440
364 443
365 303
365 304
365 308
365 318
365 326
365 331
365 333
365 335
365 337
365 350
365 351
365 355
365 358
365 369
365 376
365 383
365 393
365 395
365 397
365 403
365 414
365 419
365 425
365 442
365 445
365 447
366 286
366 289
366 298
366 302
366 305
366 307
366 314
366 322
366 324
366 328
366 332
366 338
366 340
366 349
366 359
366 360
366 361
366 378
366 381
366 385
366 388
366 399
366 407
366 409
366 413
366 415
366 417
366 432
366 437
367 281
367 308
367 320
367 321
367 323
367 326
367 331
367 341
367 345
367 347
367 350
367 351
367 357
367 369
367 372
367 373
367 376
367 380
367 382
367 395
367 401
367 403
367 406
367 408
367 414
367 421
367 425
367 430
367 450
368 287
368 294
368 295
368 297
368 329
368 330
368 334
368 343
368 346
368 348
368 357
368 362
368 363
368 375
368 380
368 386
368 387
368 390
368 396
368 410
368 412
368 424
368 429
368 431
368 439
368 441
368 446
369 304
369 308
369 320
369 326
369 331
369 333
369 337
369 347
369 350
369 351
369 358
369 365
369 367
369 376
369 382
369 393
369 395
369 397
369 401
369 403
369 414
369 419
369 421
369 425
369 442
369 445
370 291
370 301
370 305
370 309
370 318
370 324
370 327
370 332
370 335
370 337
370 349
370 354
370 355
370 358
370 361
370 378
370 383
370 388
370 397
370 405
370 407
370 415
370 428
370 437
370 438
370 444
370 454
371 290
371 296
371 299
371 316
371 317
371 319
371 336
371 339
371 352
371 356
371 364
371 374
371 392
371 394
371 398
371 411
371 416
371 418
371 423
371 440
371 443
372 292
372 308
372 320
372 321
372 323
372 330
372 331
372 341
372 345
372 347
372 351
372 357
372 363
372 367
372 373
372 376
372 380
372 382
372 401
372 403
372 406
372 408
372 410
372 421
372 425
372 430
372 434
372 450
372 457
373 292
373 295
373 320
373 321
373 323
373 330
373 334
373 341
373 345
373 347
373 357
373 363
373 367
373 372
373 380
373 382
373 386
373 390
373 401
373 406
373 408
373 410
373 412
373 421
373 430
373 434
373 439
373 450
374 296
374 299
374 316
374 319
374 336
374 339
374 364
374 371
374 394
374 398
374 416
374 418
374 423
374 440
374 443
375 294
375 297
375 313
375 329
375 330
375 334
375 343
375 346
375 348
375 353
375 362
375 363
375 368
375 379
375 380
375 386
375 387
375 390
375 396
375 400
375 412
375 420
375 424
375 429
375 431
375 441
375 446
376 308
376 320
376 321
376 326
376 331
376 333
376 341
376 347
376 350
376 351
376 365
376 367
376 369
376 372
376 382
376 393
376 395
376 401
376 403
376 406
376 414
376 421
376 425
376 442
376 445
376 453
377 306
377 310
377 312
377 314
377 325
377 328
377 340
377 344
377 359
377 360
377 381
377 389
377 391
377 413
377 422
377 426
377 436
377 448
377 455
378 305
378 307
378 322
378 324
378 327
378 332
378 338
378 349
378 354
378 359
378 361
378 366
378 370
378 385
378 388
378 399
378 405
378 407
378 409
378 415
378 417
378 428
378 432
378 437
378 444
378 468
379 293
379 311
379 313
379 315
379 342
379 343
379 346
379 353
379 356
379 362
379 375
379 384
379 387
379 392
379 396
379 400
379 402
379 404
379 411
379 420
379 427
379 429
379 433
379 441
379 449
379 451
379 452
380 295
380 321
380 323
380 330
380 334
380 341
380 345
380 348
380 357
380 363
380 367
380 368
380 372
380 373
380 375
380 382
380 386
380 390
380 406
380 408
380 410
380 412
380 424
380 430
380 431
380 434
380 439
380 460
380 466
381 298
381 306
381 314
381 322
381 328
381 338
381 340
381 344
381 359
381 360
381 366
381 377
381 385
381 389
381 391
381 399
381 409
381 413
381 417
381 426
381 432
381 436
381 448
381 455
381 464
382 308
382 320
382 321
382 331
382 341
382 345
382 347
382 351
382 357
382 367
382 369
382 372
382 373
382 376
382 380
382 395
382 401
382 403
382 406
382 408
382 410
382 414
382 421
382 425
382 430
382 450
382 453
382 457
383 301
383 309
383 318
383 327
383 333
383 335
383 337
383 349
383 354
383 355
383 358
383 361
383 365
383 370
383 388
383 393
383 397
383 405
383 407
383 415
383 419
383 428
383 438
383 444
383 447
383 454
383 461
384 300
384 311
384 315
384 342
384 346
384 352
384 353
384 356
384 362
384 364
384 379
384 387
384 392
384 394
384 400
384 402
384 404
384 411
384 416
384 420
384 427
384 433
384 435
384 449
384 451
384 452
384 456
384 473
385 302
385 307
385 322
385 324
385 332
385 338
385 340
385 359
385 360
385 361
385 366
385 378
385 381
385 388
385 399
385 407
385 409
385 413
385 415
385 417
385 432
385 437
385 448
385 468
385 471
386 323
386 329
386 330
386 334
386 345
386 348
386 357
386 363
386 368
386 373
386 375
386 380
386 390
386 396
386 408
386 410
386 412
386 424
386 430
386 431
386 434
386 439
386 441
386 446
386 460
386 465
387 313
387 315
387 329
387 342
387 343
387 346
387 348
387 353
387 362
387 368
387 375
387 379
387 384
387 390
387 396
387 400
387 402
387 404
387 412
387 420
387 424
387 427
387 429
387 441
387 446
387 449
387 451
387 459
388 305
388 324
388 327
388 332
388 335
388 349
388 354
388 355
388 358
388 361
388 366
388 370
388 378
388 383
388 385
388 397
388 405
388 407
388 409
388 415
388 428
388 432
388 437
388 438
388 444
388 454
388 476
389 306
389 310
389 312
389 314
389 325
389 328
389 340
389 344
389 359
389 360
389 377
389 381
389 391
389 399
389 413
389 417
389 422
389 426
389 436
389 448
389 455
389 464
390 329
390 330
390 334
390 343
390 348
390 357
390 362
390 363
390 368
390 373
390 375
390 380
390 386
390 387
390 396
390 410
390 412
390 424
390 429
390 431
390 434
390 439
390 441
390 446
390 459
390 460
390 465
391 310
391 312
391 325
391 328
391 344
391 360
391 377
391 381
391 389
391 413
391 422
391 426
391 436
391 455
391 475
392 311
392 317
392 336
392 342
392 352
392 353
392 356
392 364
392 371
392 379
392 384
392 394
392 398
392 402
392 404
392 411
392 416
392 427
392 433
392 435
392 440
392 451
392 452
392 456
392 458
392 462
392 477
393 304
393 318
393 326
393 331
393 333
393 335
393 337
393 350
393 351
393 355
393 358
393 365
393 369
393 376
393 383
393 395
393 397
393 403
393 405
393 414
393 419
393 425
393 438
393 442
393 445
393 447
393 461
393 467
393 469
393 474
394 316
394 317
394 336
394 339
394 352
394 356
394 364
394 371
394 374
394 384
394 392
394 398
394 404
394 411
394 416
394 418
394 423
394 433
394 435
394 440
394 443
394 452
394 456
394 458
394 462
394 463
394 477
395 326
395 331
395 333
395 337
395 347
395 350
395 351
395 358
395 365
395 367
395 369
395 376
395 382
395 393
395 397
395 401
395 403
395 414
395 419
395 421
395 425
395 438
395 442
395 445
395 447
395 453
395 467
395 469
395 472
395 474
396 329
396 334
396 343
396 346
396 348
396 362
396 363
396 368
396 375
396 379
396 386
396 387
396 390
396 400
396 402
396 412
396 420
396 424
396 429
396 431
396 439
396 441
396 446
396 449
396 459
396 460
396 465
396 479
396 484
397 318
397 333
397 335
397 337
397 350
397 354
397 355
397 358
397 365
397 369
397 370
397 383
397 388
397 393
397 395
397 405
397 414
397 419
397 428
397 438
397 442
397 445
397 447
397 454
397 461
397 467
397 474
398 316
398 336
398 339
398 352
398 364
398 371
398 374
398 392
398 394
398 411
398 416
398 418
398 423
398 435
398 440
398 443
398 458
398 462
398 463
398 470
399 322
399 324
399 328
399 338
399 340
399 359
399 360
399 361
399 366
399 378
399 381
399 385
399 389
399 407
399 409
399 413
399 415
399 417
399 432
399 436
399 437
399 448
399 464
399 468
399 471
399 478
400 342
400 343
400 346
400 353
400 362
400 375
400 379
400 384
400 387
400 396
400 402
400 404
400 420
400 424
400 427
400 429
400 433
400 441
400 446
400 449
400 451
400 452
400 459
400 473
400 479
400 481
400 483
401 320
401 331
401 341
401 347
401 350
401 351
401 367
401 369
401 372
401 373
401 376
401 382
401 395
401 403
401 406
401 408
401 414
401 421
401 425
401 430
401 445
401 450
401 453
401 457
401 469
401 472
401 488
402 315
402 342
402 343
402 346
402 353
402 356
402 362
402 379
402 384
402 387
402 392
402 396
402 400
402 404
402 411
402 420
402 427
402 429
402 433
402 435
402 441
402 449
402 451
402 452
402 459
402 473
402 481
402 483
403 326
403 331
403 347
403 350
403 351
403 365
403 367
403 369
403 372
403 376
403 382
403 393
403 395
403 401
403 406
403 414
403 419
403 421
403 425
403 442
403 445
403 450
403 453
403 457
403 469
403 472
403 474
404 342
404 346
404 352
404 353
404 356
404 379
404 384
404 387
404 392
404 394
404 400
404 402
404 411
404 416
404 420
404 427
404 433
404 435
404 440
404 449
404 451
404 452
404 456
404 458
404 473
404 477
404 483
404 494
405 327
405 335
405 349
405 354
405 355
405 358
405 361
405 370
405 378
405 383
405 388
405 393
405 397
405 407
405 415
405 419
405 428
405 437
405 438
405 444
405 447
405 454
405 461
405 467
405 476
405 485
405 493
406 321
406 341
406 345
406 347
406 357
406 367
406 372
406 373
406 376
406 380
406 382
406 401
406 403
406 408
406 410
406 421
406 425
406 430
406 434
406 439
406 450
406 453
406 457
406 466
406 472
406 486
406 488
407 327
407 332
407 349
407 354
407 361
407 366
407 370
407 378
407 383
407 385
407 388
407 399
407 405
407 409
407 415
407 428
407 432
407 437
407 444
407 454
407 468
407 476
407 485
407 489
407 491
408 323
408 341
408 345
408 347
408 357
408 363
408 367
408 372
408 373
408 380
408 382
408 386
408 401
408 406
408 410
408 412
408 421
408 425
408 430
408 431
408 434
408 439
408 450
408 453
408 457
408 460
408 466
408 480
408 486
409 324
409 332
409 338
409 359
409 361
409 366
409 378
409 381
409 385
409 388
409 399
409 407
409 413
409 415
409 417
409 432
409 437
409 444
409 448
409 468
409 471
409 476
409 478
409 491
410 323
410 330
410 334
410 341
410 345
410 357
410 363
410 368
410 372
410 373
410 380
410 382
410 386
410 390
410 406
410 408
410 412
410 421
410 424
410 430
410 431
410 434
410 439
410 446
410 450
410 457
410 460
410 465
410 466
410 480
410 482
410 486
411 342
411 352
411 356
411 364
411 371
411 379
411 384
411 392
411 394
411 398
411 402
411 404
411 416
411 427
411 433
411 435
411 440
411 443
411 451
411 452
411 456
411 458
411 462
411 473
411 477
411 490
411 494
411 495
412 329
412 334
412 348
412 357
412 363
412 368
412 373
412 375
412 380
412 386
412 387
412 390
412 396
412 408
412 410
412 424
412 429
412 430
412 431
412 434
412 439
412 441
412 446
412 459
412 460
412 465
412 479
412 480
412 482
412 484
412 498
413 328
413 338
413 340
413 344
413 359
413 360
413 366
413 377
413 381
413 385
413 389
413 391
413 399
413 409
413 417
413 426
413 432
413 436
413 448
413 455
413 464
413 468
413 471
413 478
413 487
413 497
414 326
414 350
414 351
414 365
414 367
414 369
414 376
414 382
414 393
414 395
414 397
414 401
414 403
414 419
414 421
414 425
414 438
414 442
414 445
414 447
414 453
414 457
414 467
414 469
414 472
414 474
415 332
415 349
415 361
415 366
415 370
415 378
415 383
415 385
415 388
415 399
415 405
415 407
415 409
415 417
415 428
415 432
415 437
415 444
415 454
415 468
415 471
415 476
415 485
415 489
415 491
416 336
416 352
416 356
416 364
416 371
416 374
416 384
416 392
416 394
416 398
416 404
416 411
416 418
416 427
416 433
416 435
416 440
416 443
416 452
416 456
416 458
416 462
416 463
416 477
416 490
416 492
416 495
417 338
417 340
417 359
417 360
417 366
417 378
417 381
417 385
417 389
417 399
417 409
417 413
417 415
417 432
417 436
417 437
417 448
417 455
417 464
417 468
417 471
417 478
417 491
417 497
417 506
418 339
418 364
418 371
418 374
418 394
418 398
418 416
418 423
418 440
418 443
418 458
418 462
418 463
418 470
418 492
418 502
419 337
419 350
419 355
419 358
419 365
419 369
419 383
419 393
419 395
419 397
419 403
419 405
419 414
419 425
419 438
419 442
419 445
419 447
419 454
419 461
419 467
419 469
419 472
419 474
419 493
419 499
419 501
420 343
420 346
420 353
420 362
420 375
420 379
420 384
420 387
420 396
420 400
420 402
420 404
420 424
420 427
420 429
420 433
420 441
420 446
420 449
420 451
420 452
420 459
420 473
420 479
420 481
420 483
420 500
420 507
421 341
421 347
421 367
421 369
421 372
421 373
421 376
421 382
421 395
421 401
421 403
421 406
421 408
421 410
421 414
421 425
421 430
421 434
421 445
421 450
421 453
421 457
421 466
421 469
421 472
421 486
421 488
422 377
422 389
422 391
422 426
422 436
422 448
422 455
422 464
422 475
422 487
423 371
423 374
423 394
423 398
423 418
423 440
423 443
423 462
423 463
423 470
423 502
424 348
424 362
424 363
424 368
424 375
424 380
424 386
424 387
424 390
424 396
424 400
424 410
424 412
424 420
424 429
424 431
424 434
424 439
424 441
424 446
424 449
424 459
424 460
424 465
424 479
424 480
424 481
424 482
424 484
424 498
424 505
425 347
425 351
425 365
425 367
425 369
425 372
425 376
425 382
425 393
425 395
425 401
425 403
425 406
425 408
425 414
425 419
425 421
425 442
425 445
425 450
425 453
425 457
425 469
425 472
425 474
425 486
425 488
425 504
425 508
425 509
426 344
426 360
426 377
426 381
426 389
426 391
426 413
426 422
426 436
426 448
426 455
426 464
426 475
426 478
426 487
426 514
427 342
427 353
427 356
427 379
427 384
427 387
427 392
427 400
427 402
427 404
427 411
427 416
427 420
427 429
427 433
427 435
427 449
427 451
427 452
427 456
427 459
427 473
427 477
427 481
427 483
427 494
427 495
427 500
427 510
428 349
428 354
428 355
428 361
428 370
428 378
428 383
428 388
428 397
428 405
428 407
428 415
428 432
428 437
428 438
428 444
428 447
428 454
428 461
428 467
428 476
428 485
428 489
428 493
428 516
429 343
429 346
429 362
429 368
429 375
429 379
429 387
429 390
429 396
429 400
429 402
429 412
429 420
429 424
429 427
429 431
429 441
429 446
429 449
429 451
429 459
429 465
429 473
429 479
429 481
429 483
429 484
429 505
429 507
430 345
430 357
430 363
430 367
430 372
430 373
430 380
430 382
430 386
430 401
430 406
430 408
430 410
430 412
430 421
430 431
430 434
430 439
430 450
430 453
430 457
430 460
430 466
430 480
430 482
430 486
430 488
430 496
430 503
431 348
431 357
431 363
431 368
431 375
431 380
431 386
431 390
431 396
431 408
431 410
431 412
431 424
431 429
431 430
431 434
431 439
431 441
431 446
431 459
431 460
431 465
431 466
431 479
431 480
431 482
431 484
431 496
431 498
431 505
432 359
432 361
432 366
432 378
432 381
432 385
432 388
432 399
432 407
432 409
432 413
432 415
432 417
432 428
432 437
432 444
432 448
432 468
432 471
432 476
432 478
432 489
432 491
432 512
433 352
433 356
433 379
433 384
433 392
433 394
433 400
433 402
433 404
433 411
433 416
433 420
433 427
433 435
433 440
433 449
433 451
433 452
433 456
433 458
433 462
433 473
433 477
433 483
433 490
433 494
433 495
433 500
433 510
433 511
434 345
434 357
434 363
434 372
434 373
434 380
434 386
434 390
434 406
434 408
434 410
434 412
434 421
434 424
434 430
434 431
434 439
434 446
434 450
434 457
434 460
434 465
434 466
434 480
434 482
434 484
434 486
434 496
434 498
434 503
435 352
435 356
435 364
435 384
435 392
435 394
435 398
435 402
435 404
435 411
435 416
435 427
435 433
435 440
435 443
435 451
435 452
435 456
435 458
435 462
435 463
435 473
435 477
435 490
435 492
435 494
435 495
435 510
435 511
435 517
436 360
436 377
436 381
436 389
436 391
436 399
436 413
436 417
436 422
436 426
436 448
436 455
436 464
436 471
436 475
436 478
436 487
436 497
436 514
437 361
437 366
437 370
437 378
437 385
437 388
437 399
437 405
437 407
437 409
437 415
437 417
437 428
437 432
437 444
437 454
437 468
437 471
437 476
437 485
437 489
437 491
437 520
437 522
438 355
438 358
438 370
438 383
438 388
438 393
438 395
438 397
438 405
438 414
438 419
438 428
438 442
438 444
438 445
438 447
438 454
438 461
438 467
438 474
438 485
438 493
438 499
438 501
438 515
439 357
439 363
439 368
439 373
439 380
439 386
439 390
439 396
439 406
439 408
439 410
439 412
439 424
439 430
439 431
439 434
439 441
439 446
439 450
439 460
439 465
439 466
439 480
439 482
439 484
439 486
439 496
439 498
439 503
440 364
440 371
440 374
440 392
440 394
440 398
440 404
440 411
440 416
440 418
440 423
440 433
440 435
440 443
440 452
440 456
440 458
440 462
440 463
440 470
440 477
440 490
440 492
440 495
440 517
440 518
441 362
441 368
441 375
441 379
441 386
441 387
441 390
441 396
441 400
441 402
441 412
441 420
441 424
441 429
441 431
441 439
441 446
441 449
441 451
441 459
441 460
441 465
441 479
441 481
441 482
441 483
441 484
441 498
441 505
441 507
441 525
442 365
442 369
442 376
442 393
442 395
442 397
442 403
442 414
442 419
442 425
442 438
442 445
442 447
442 453
442 461
442 467
442 469
442 472
442 474
442 499
442 501
442 504
443 364
443 371
443 374
443 394
443 398
443 411
443 416
443 418
443 423
443 435
443 440
443 456
443 458
443 462
443 463
443 470
443 477
443 490
443 492
443 502
443 518
443 523
443 524
444 361
444 370
444 378
444 383
444 388
444 405
444 407
444 409
444 415
444 428
444 432
444 437
444 438
444 454
444 461
444 468
444 476
444 485
444 489
444 491
444 493
444 516
444 520
445 365
445 369
445 376
445 393
445 395
445 397
445 401
445 403
445 414
445 419
445 421
445 425
445 438
445 442
445 447
445 450
445 453
445 457
445 467
445 469
445 472
445 474
445 488
445 499
445 501
445 504
445 508
445 509
445 528
446 368
446 375
446 386
446 387
446 390
446 396
446 400
446 410
446 412
446 420
446 424
446 429
446 431
446 434
446 439
446 441
446 449
446 459
446 460
446 465
446 479
446 480
446 481
446 482
446 484
446 496
446 498
446 505
446 507
446 525
446 533
447 358
447 365
447 383
447 393
447 395
447 397
447 405
447 414
447 419
447 428
447 438
447 442
447 445
447 454
447 461
447 467
447 469
447 474
447 485
447 493
447 499
447 501
447 504
447 515
447 527
448 360
448 377
448 381
448 385
448 389
448 399
448 409
448 413
448 417
448 422
448 426
448 432
448 436
448 455
448 464
448 468
448 471
448 475
448 478
448 487
448 497
448 506
448 512
448 514
449 362
449 379
449 384
449 387
449 396
449 400
449 402
449 404
449 420
449 424
449 427
449 429
449 433
449 441
449 446
449 451
449 452
449 459
449 473
449 479
449 481
449 483
449 484
449 494
449 500
449 507
449 510
449 529
450 367
450 372
450 373
450 382
450 401
450 403
450 406
450 408
450 410
450 421
450 425
450 430
450 434
450 439
450 445
450 453
450 457
450 466
450 472
450 480
450 486
450 488
450 503
450 508
450 509
450 513
450 519
451 379
451 384
451 387
451 392
451 400
451 402
451 404
451 411
451 420
451 427
451 429
451 433
451 435
451 441
451 449
451 452
451 456
451 459
451 473
451 477
451 479
451 481
451 483
451 494
451 495
451 500
451 507
451 510
451 511
451 529
452 379
452 384
452 392
452 394
452 400
452 402
452 404
452 411
452 416
452 420
452 427
452 433
452 435
452 440
452 449
452 451
452 456
452 458
452 462
452 473
452 477
452 481
452 483
452 490
452 494
452 495
452 500
452 510
452 511
452 517
453 376
453 382
453 395
453 401
453 403
453 406
453 408
453 414
453 421
453 425
453 430
453 442
453 445
453 450
453 457
453 466
453 469
453 472
453 474
453 486
453 488
453 504
453 508
453 509
453 513
453 528
453 535
453 536
454 370
454 383
454 388
454 397
454 405
454 407
454 415
454 419
454 428
454 437
454 438
454 444
454 447
454 461
454 467
454 476
454 485
454 489
454 493
454 501
454 515
454 516
454 520
454 526
455 377
455 381
455 389
455 391
455 413
455 417
455 422
455 426
455 436
455 448
455 464
455 471
455 475
455 478
455 487
455 497
455 506
455 514
455 531
455 532
455 537
456 384
456 392
456 394
456 404
456 411
456 416
456 427
456 433
456 435
456 440
456 443
456 451
456 452
456 458
456 462
456 463
456 473
456 477
456 490
456 492
456 494
456 495
456 500
456 510
456 511
456 517
456 518
457 372
457 382
457 401
457 403
457 406
457 408
457 410
457 414
457 421
457 425
457 430
457 434
457 445
457 450
457 453
457 466
457 469
457 472
457 486
457 488
457 503
457 508
457 509
457 513
457 519
457 535
457 536
457 538
458 392
458 394
458 398
458 404
458 411
458 416
458 418
458 433
458 435
458 440
458 443
458 452
458 456
458 462
458 463
458 470
458 477
458 490
458 492
458 494
458 495
458 502
458 511
458 517
458 518
458 524
459 387
459 390
459 396
459 400
459 402
459 412
459 420
459 424
459 427
459 429
459 431
459 441
459 446
459 449
459 451
459 460
459 465
459 473
459 479
459 481
459 482
459 483
459 484
459 498
459 500
459 505
459 507
459 525
459 529
459 543
460 380
460 386
460 390
460 396
460 408
460 410
460 412
460 424
460 430
460 431
460 434
460 439
460 441
460 446
460 459
460 465
460 466
460 479
460 480
460 482
460 484
460 486
460 496
460 498
460 503
460 505
460 521
460 530
460 533
461 383
461 393
461 397
461 405
461 419
461 428
461 438
461 442
461 444
461 447
461 454
461 467
461 474
461 476
461 485
461 489
461 493
461 499
461 501
461 515
461 516
461 526
461 527
462 392
462 394
462 398
462 411
462 416
462 418
462 423
462 433
462 435
462 440
462 443
462 452
462 456
462 458
462 463
462 470
462 477
462 490
462 492
462 495
462 502
462 511
462 517
462 518
462 523
462 524
463 394
463 398
463 416
463 418
463 423
463 435
463 440
463 443
463 456
463 458
463 462
463 470
463 477
463 490
463 492
463 502
463 517
463 518
463 523
463 524
464 381
464 389
464 399
464 413
464 417
464 422
464 426
464 436
464 448
464 455
464 471
464 475
464 478
464 487
464 497
464 506
464 512
464 514
464 531
464 537
465 386
465 390
465 396
465 410
465 412
465 424
465 429
465 431
465 434
465 439
465 441
465 446
465 459
465 460
465 466
465 479
465 480
465 481
465 482
465 484
465 496
465 498
465 503
465 505
465 507
465 521
465 525
465 530
465 533
466 380
466 406
466 408
466 410
466 421
466 430
466 431
466 434
466 439
466 450
466 453
466 457
466 460
466 465
466 480
466 482
466 486
466 488
466 496
466 498
466 503
466 509
466 513
466 519
466 521
466 538
466 540
467 393
467 395
467 397
467 405
467 414
467 419
467 428
467 438
467 442
467 445
467 447
467 454
467 461
467 469
467 474
467 485
467 493
467 499
467 501
467 504
467 515
467 516
467 526
467 527
467 534
468 378
468 385
468 399
468 407
468 409
468 413
468 415
468 417
468 432
468 437
468 444
468 448
468 471
468 476
468 478
468 485
468 489
468 491
468 506
468 512
468 520
468 522
468 541
468 546
469 393
469 395
469 401
469 403
469 414
469 419
469 421
469 425
469 442
469 445
469 447
469 453
469 457
469 467
469 472
469 474
469 488
469 499
469 501
469 504
469 508
469 509
469 527
469 528
469 534
469 535
469 536
469 549
470 398
470 418
470 423
470 440
470 443
470 458
470 462
470 463
470 490
470 492
470 502
470 518
470 523
470 524
471 385
471 399
471 409
471 413
471 415
471 417
471 432
471 436
471 437
471 448
471 455
471 464
471 468
471 476
471 478
471 489
471 491
471 497
471 506
471 512
471 522
471 537
471 541
471 546
472 395
472 401
472 403
472 406
472 414
472 419
472 421
472 425
472 442
472 445
472 450
472 453
472 457
472 469
472 474
472 486
472 488
472 499
472 504
472 508
472 509
472 513
472 528
472 534
472 535
472 536
472 538
472 549
473 384
473 400
473 402
473 404
473 411
473 420
473 427
473 429
473 433
473 435
473 449
473 451
473 452
473 456
473 459
473 477
473 479
473 481
473 483
473 490
473 494
473 495
473 500
473 507
473 510
473 511
473 529
473 539
474 393
474 395
474 397
474 403
474 414
474 419
474 425
474 438
474 442
474 445
474 447
474 453
474 461
474 467
474 469
474 472
474 493
474 499
474 501
474 504
474 508
474 509
474 515
474 527
474 528
474 534
474 535
474 547
474 549
475 391
475 422
475 426
475 436
475 448
475 455
475 464
475 487
475 497
475 514
475 531
475 532
475 550
476 388
476 405
476 407
476 409
476 415
476 428
476 432
476 437
476 444
476 454
476 461
476 468
476 471
476 485
476 489
476 491
476 493
476 512
476 516
476 520
476 522
476 526
476 557
477 392
477 394
477 404
477 411
477 416
477 427
477 433
477 435
477 440
477 443
477 451
477 452
477 456
477 458
477 462
477 463
477 473
477 490
477 492
477 494
477 495
477 500
477 510
477 511
477 517
477 518
477 524
477 542
477 551
477 553
478 399
478 409
478 413
478 417
478 426
478 432
478 436
478 448
478 455
478 464
478 468
478 471
478 487
478 491
478 497
478 506
478 512
478 514
478 531
478 537
478 541
479 396
479 400
479 412
479 420
479 424
479 429
479 431
479 441
479 446
479 449
479 451
479 459
479 460
479 465
479 473
479 481
479 482
479 483
479 484
479 496
479 498
479 500
479 505
479 507
479 525
479 529
479 530
479 533
479 543
479 545
479 566
480 408
480 410
480 412
480 424
480 430
480 431
480 434
480 439
480 446
480 450
480 460
480 465
480 466
480 482
480 484
480 486
480 488
480 496
480 498
480 503
480 505
480 513
480 519
480 521
480 530
480 533
480 540
480 544
480 552
480 554
481 400
481 402
481 420
481 424
481 427
481 429
481 441
481 446
481 449
481 451
481 452
481 459
481 465
481 473
481 479
481 483
481 484
481 494
481 498
481 500
481 505
481 507
481 510
481 525
481 529
481 533
481 539
481 543
481 545
482 410
482 412
482 424
482 430
482 431
482 434
482 439
482 441
482 446
482 459
482 460
482 465
482 466
482 479
482 480
482 484
482 486
482 496
482 498
482 503
482 505
482 519
482 521
482 525
482 530
482 533
482 540
482 544
482 554
483 400
483 402
483 404
483 420
483 427
483 429
483 433
483 441
483 449
483 451
483 452
483 459
483 473
483 479
483 481
483 484
483 494
483 495
483 500
483 505
483 507
483 510
483 511
483 525
483 529
483 539
483 543
483 545
483 561
484 396
484 412
484 424
484 429
484 431
484 434
484 439
484 441
484 446
484 449
484 459
484 460
484 465
484 479
484 480
484 481
484 482
484 483
484 496
484 498
484 503
484 505
484 507
484 521
484 525
484 530
484 533
484 543
484 544
484 554
485 405
485 407
485 415
485 428
485 437
485 438
485 444
485 447
485 454
485 461
485 467
485 468
485 476
485 489
485 491
485 493
485 501
485 515
485 516
485 520
485 522
485 526
485 548
485 555
485 565
486 406
486 408
486 410
486 421
486 425
486 430
486 434
486 439
486 450
486 453
486 457
486 460
486 466
486 472
486 480
486 482
486 488
486 496
486 503
486 508
486 509
486 513
486 519
486 521
486 535
486 536
486 538
486 540
486 552
486 558
486 560
487 413
487 422
487 426
487 436
487 448
487 455
487 464
487 475
487 478
487 497
487 506
487 514
487 531
487 532
487 537
487 550
487 567
488 401
488 406
488 421
488 425
488 430
488 445
488 450
488 453
488 457
488 466
488 469
488 472
488 480
488 486
488 503
488 504
488 508
488 509
488 513
488 519
488 521
488 528
488 535
488 536
488 538
488 540
488 549
488 552
488 558
488 560
489 407
489 415
489 428
489 432
489 437
489 444
489 454
489 461
489 468
489 471
489 476
489 485
489 491
489 493
489 512
489 515
489 516
489 520
489 522
489 526
489 546
489 548
489 557
489 565
490 411
490 416
490 433
490 435
490 440
490 443
490 452
490 456
490 458
490 462
490 463
490 470
490 473
490 477
490 492
490 494
490 495
490 502
490 510
490 511
490 517
490 518
490 523
490 524
490 542
490 551
490 553
490 556
490 562
490 572
491 407
491 409
491 415
491 417
491 432
491 437
491 444
491 468
491 471
491 476
491 478
491 485
491 489
491 506
491 512
491 516
491 520
491 522
491 541
491 546
491 557
491 565
491 571
492 416
492 418
492 435
492 440
492 443
492 456
492 458
492 462
492 463
492 470
492 477
492 490
492 494
492 495
492 502
492 511
492 517
492 518
492 523
492 524
492 542
492 551
492 553
492 556
492 572
493 405
493 419
493 428
493 438
493 444
493 447
493 454
493 461
493 467
493 474
493 476
493 485
493 489
493 499
493 501
493 515
493 516
493 520
493 526
493 527
493 534
493 547
493 548
493 555
493 564
494 404
494 411
494 427
494 433
494 435
494 449
494 451
494 452
494 456
494 458
494 473
494 477
494 481
494 483
494 490
494 492
494 495
494 500
494 507
494 510
494 511
494 517
494 518
494 529
494 539
494 542
494 551
494 559
494 561
494 562
495 411
495 416
495 427
495 433
495 435
495 440
495 451
495 452
495 456
495 458
495 462
495 473
495 477
495 483
495 490
495 492
495 494
495 500
495 510
495 511
495 517
495 518
495 524
495 539
495 542
495 551
495 553
495 559
495 561
495 562
495 572
496 430
496 431
496 434
496 439
496 446
496 460
496 465
496 466
496 479
496 480
496 482
496 484
496 486
496 498
496 503
496 505
496 513
496 519
496 521
496 525
496 530
496 533
496 540
496 544
496 552
496 554
496 568
496 569
496 573
497 413
497 417
497 436
497 448
497 455
497 464
497 471
497 475
497 478
497 487
497 506
497 512
497 514
497 531
497 532
497 537
497 541
497 546
497 563
497 567
497 581
498 412
498 424
498 431
498 434
498 439
498 441
498 446
498 459
498 460
498 465
498 466
498 479
498 480
498 481
498 482
498 484
498 496
498 503
498 505
498 507
498 519
498 521
498 525
498 530
498 533
498 540
498 543
498 544
498 554
498 566
498 568
498 569
498 573
498 574
499 419
499 438
499 442
499 445
499 447
499 461
499 467
499 469
499 472
499 474
499 493
499 501
499 504
499 508
499 509
499 515
499 526
499 527
499 528
499 534
499 535
499 547
499 549
499 564
499 575
500 420
500 427
500 433
500 449
500 451
500 452
500 456
500 459
500 473
500 477
500 479
500 481
500 483
500 494
500 495
500 507
500 510
500 511
500 525
500 529
500 539
500 542
500 543
500 545
500 559
500 561
500 578
500 588
501 419
501 438
501 442
501 445
501 447
501 454
501 461
501 467
501 469
501 474
501 485
501 493
501 499
501 504
501 508
501 515
501 516
501 526
501 527
501 528
501 534
501 547
501 548
501 549
501 555
501 564
501 586
501 589
502 418
502 423
502 443
502 458
502 462
502 463
502 470
502 490
502 492
502 517
502 518
502 523
502 524
502 553
502 556
502 570
502 584
503 430
503 434
503 439
503 450
503 457
503 460
503 465
503 466
503 480
503 482
503 484
503 486
503 488
503 496
503 498
503 505
503 513
503 519
503 521
503 530
503 533
503 538
503 540
503 544
503 552
503 554
503 560
503 568
503 569
503 583
504 425
504 442
504 445
504 447
504 453
504 467
504 469
504 472
504 474
504 488
504 499
504 501
504 508
504 509
504 515
504 527
504 528
504 534
504 535
504 536
504 547
504 549
504 558
504 575
504 579
504 589
505 424
505 429
505 431
505 441
505 446
505 459
505 460
505 465
505 479
505 480
505 481
505 482
505 483
505 484
505 496
505 498
505 503
505 507
505 521
505 525
505 529
505 530
505 533
505 543
505 544
505 545
505 554
505 566
505 569
505 573
505 574
505 582
506 417
506 448
506 455
506 464
506 468
506 471
506 478
506 487
506 491
506 497
506 512
506 514
506 522
506 531
506 537
506 541
506 546
506 563
506 567
506 571
506 581
506 591
506 599
507 420
507 429
507 441
507 446
507 449
507 451
507 459
507 465
507 473
507 479
507 481
507 483
507 484
507 494
507 498
507 500
507 505
507 510
507 525
507 529
507 533
507 539
507 543
507 545
507 554
507 561
507 566
507 574
507 578
507 582
508 425
508 445
508 450
508 453
508 457
508 469
508 472
508 474
508 486
508 488
508 499
508 501
508 504
508 509
508 513
508 527
508 528
508 534
508 535
508 536
508 538
508 547
508 549
508 558
508 560
508 575
508 579
509 425
509 445
509 450
509 453
509 457
509 466
509 469
509 472
509 474
509 486
509 488
509 499
509 504
509 508
509 513
509 519
509 528
509 534
509 535
509 536
509 538
509 540
509 549
509 552
509 558
509 560
509 575
509 579
509 585
510 427
510 433
510 435
510 449
510 451
510 452
510 456
510 473
510 477
510 481
510 483
510 490
510 494
510 495
510 500
510 507
510 511
510 517
510 518
510 529
510 539
510 542
510 545
510 551
510 559
510 561
510 562
510 572
510 578
510 588
510 592
510 593
511 433
511 435
511 451
511 452
511 456
511 458
511 462
511 473
511 477
511 483
511 490
511 492
511 494
511 495
511 500
511 510
511 517
511 518
511 524
511 529
511 539
511 542
511 551
511 553
511 559
511 561
511 562
511 572
511 592
511 593
511 595
512 432
512 448
512 464
512 468
512 471
512 476
512 478
512 489
512 491
512 497
512 506
512 520
512 522
512 537
512 541
512 546
512 557
512 563
512 567
512 571
512 590
512 591
512 599
513 450
513 453
513 457
513 466
513 472
513 480
513 486
513 488
513 496
513 503
513 508
513 509
513 519
513 521
513 535
513 536
513 538
513 540
513 544
513 549
513 552
513 558
513 560
513 568
513 583
513 585
513 596
514 426
514 436
514 448
514 455
514 464
514 475
514 478
514 487
514 497
514 506
514 531
514 532
514 537
514 550
514 567
514 577
514 580
514 581
514 597
515 438
515 447
515 454
515 461
515 467
515 474
515 485
515 489
515 493
515 499
515 501
515 504
515 516
515 526
515 527
515 528
515 534
515 547
515 548
515 555
515 564
515 576
515 586
515 589
515 605
516 428
516 444
516 454
516 461
516 467
516 476
516 485
516 489
516 491
516 493
516 501
516 515
516 520
516 522
516 526
516 527
516 548
516 555
516 557
516 564
516 565
516 576
516 594
517 435
517 440
517 452
517 456
517 458
517 462
517 463
517 477
517 490
517 492
517 494
517 495
517 502
517 510
517 511
517 518
517 523
517 524
517 539
517 542
517 551
517 553
517 556
517 559
517 561
517 562
517 572
517 587
517 592
517 595
518 440
518 443
518 456
518 458
518 462
518 463
518 470
518 477
518 490
518 492
518 494
518 495
518 502
518 510
518 511
518 517
518 523
518 524
518 542
518 551
518 553
518 556
518 559
518 562
518 570
518 572
518 584
518 587
518 592
518 595
519 450
519 457
519 466
519 480
519 482
519 486
519 488
519 496
519 498
519 503
519 509
519 513
519 521
519 530
519 535
519 536
519 538
519 540
519 544
519 552
519 558
519 560
519 568
519 569
519 583
519 585
519 596
520 437
520 444
520 454
520 468
520 476
520 485
520 489
520 491
520 493
520 512
520 516
520 522
520 526
520 541
520 546
520 548
520 555
520 557
520 565
520 571
520 576
520 590
520 594
520 602
521 460
521 465
521 466
521 480
521 482
521 484
521 486
521 488
521 496
521 498
521 503
521 505
521 513
521 519
521 530
521 533
521 538
521 540
521 544
521 552
521 554
521 560
521 568
521 569
521 573
521 583
521 596
521 600
522 437
522 468
522 471
522 476
522 485
522 489
522 491
522 506
522 512
522 516
522 520
522 541
522 546
522 548
522 557
522 563
522 565
522 571
522 590
522 591
522 594
522 602
523 443
523 462
523 463
523 470
523 490
523 492
523 502
523 517
523 518
523 524
523 551
523 553
523 556
523 570
523 584
523 587
523 598
524 443
524 458
524 462
524 463
524 470
524 477
524 490
524 492
524 495
524 502
524 511
524 517
524 518
524 523
524 542
524 551
524 553
524 556
524 562
524 570
524 572
524 584
524 587
524 595
524 598
525 441
525 446
525 459
525 465
525 479
525 481
525 482
525 483
525 484
525 496
525 498
525 500
525 505
525 507
525 529
525 530
525 533
525 539
525 543
525 544
525 545
525 554
525 566
525 569
525 573
525 574
525 578
525 582
525 606
525 609
526 454
526 461
526 467
526 476
526 485
526 489
526 493
526 499
526 501
526 515
526 516
526 520
526 527
526 534
526 547
526 548
526 555
526 564
526 565
526 576
526 586
526 594
526 605
527 447
527 461
527 467
527 469
527 474
527 493
527 499
527 501
527 504
527 508
527 515
527 516
527 526
527 528
527 534
527 535
527 547
527 548
527 549
527 555
527 564
527 575
527 576
527 586
527 589
528 445
528 453
528 469
528 472
528 474
528 488
528 499
528 501
528 504
528 508
528 509
528 515
528 527
528 534
528 535
528 536
528 538
528 547
528 549
528 558
528 564
528 575
528 579
528 589
528 607
529 449
529 451
529 459
529 473
529 479
529 481
529 483
529 494
529 500
529 505
529 507
529 510
529 511
529 525
529 539
529 542
529 543
529 545
529 559
529 561
529 562
529 566
529 578
529 582
529 588
529 593
529 610
529 611
530 460
530 465
530 479
530 480
530 482
530 484
530 496
530 498
530 503
530 505
530 519
530 521
530 525
530 533
530 540
530 543
530 544
530 552
530 554
530 566
530 568
530 569
530 573
530 574
530 583
530 600
530 603
531 455
531 464
531 475
531 478
531 487
531 497
531 506
531 514
531 532
531 537
531 541
531 550
531 563
531 567
531 577
531 580
531 581
531 597
531 608
532 455
532 475
532 487
532 497
532 514
532 531
532 537
532 550
532 567
532 577
532 580
532 597
532 601
532 608
533 446
533 460
533 465
533 479
533 480
533 481
533 482
533 484
533 496
533 498
533 503
533 505
533 507
533 521
533 525
533 530
533 540
533 543
533 544
533 545
533 554
533 566
533 568
533 569
533 573
533 574
533 582
533 600
533 603
533 606
534 467
534 469
534 472
534 474
534 493
534 499
534 501
534 504
534 508
534 509
534 515
534 526
534 527
534 528
534 535
534 536
534 547
534 549
534 555
534 564
534 575
534 579
534 586
534 589
534 607
535 453
535 457
535 469
535 472
535 474
535 486
535 488
535 499
535 504
535 508
535 509
535 513
535 519
535 527
535 528
535 534
535 536
535 538
535 547
535 549
535 552
535 558
535 560
535 575
535 579
535 585
535 589
535 604
535 607
536 453
536 457
536 469
536 472
536 486
536 488
536 504
536 508
536 509
536 513
536 519
536 528
536 534
536 535
536 538
536 540
536 549
536 552
536 558
536 560
536 575
536 579
536 583
536 585
536 596
536 604
536 607
537 455
537 464
537 471
537 478
537 487
537 497
537 506
537 512
537 514
537 531
537 532
537 541
537 546
537 550
537 563
537 567
537 571
537 577
537 581
537 591
537 597
537 599
537 608
537 618
538 457
538 466
538 472
538 486
538 488
538 503
538 508
538 509
538 513
538 519
538 521
538 528
538 535
538 536
538 540
538 544
538 549
538 552
538 558
538 560
538 568
538 579
538 583
538 585
538 596
538 604
538 613
539 473
539 481
539 483
539 494
539 495
539 500
539 507
539 510
539 511
539 517
539 525
539 529
539 542
539 543
539 545
539 559
539 561
539 562
539 566
539 578
539 582
539 588
539 592
539 593
539 610
539 611
539 617
540 466
540 480
540 482
540 486
540 488
540 496
540 498
540 503
540 509
540 513
540 519
540 521
540 530
540 533
540 536
540 538
540 544
540 552
540 554
540 558
540 560
540 568
540 569
540 573
540 583
540 585
540 596
540 600
540 604
540 613
540 616
541 468
541 471
541 478
541 491
541 497
541 506
541 512
541 520
541 522
541 531
541 537
541 546
541 557
541 563
541 567
541 571
541 581
541 590
541 591
541 599
542 477
542 490
542 492
542 494
542 495
542 500
542 510
542 511
542 517
542 518
542 524
542 529
542 539
542 551
542 553
542 556
542 559
542 561
542 562
542 572
542 578
542 587
542 588
542 592
542 593
542 595
542 610
542 617
542 620
542 621
543 459
543 479
543 481
543 483
543 484
543 498
543 500
543 505
543 507
543 525
543 529
543 530
543 533
543 539
543 544
543 545
543 554
543 561
543 566
543 569
543 573
543 574
543 578
543 582
543 588
543 603
543 606
543 609
543 611
543 632
543 633
544 480
544 482
544 484
544 496
544 498
544 503
544 505
544 513
544 519
544 521
544 525
544 530
544 533
544 538
544 540
544 543
544 552
544 554
544 560
544 568
544 569
544 573
544 574
544 583
544 596
544 600
544 603
544 613
544 616
544 624
545 479
545 481
545 483
545 500
545 505
545 507
545 510
545 525
545 529
545 533
545 539
545 543
545 554
545 559
545 561
545 566
545 573
545 574
545 578
545 582
545 588
545 593
545 606
545 609
545 610
545 611
545 632
546 468
546 471
546 489
546 491
546 497
546 506
546 512
546 520
546 522
546 537
546 541
546 557
546 563
546 565
546 567
546 571
546 581
546 590
546 591
546 599
546 602
546 614
547 474
547 493
547 499
547 501
547 504
547 508
547 515
547 526
547 527
547 528
547 534
547 535
547 549
547 555
547 564
547 575
547 576
547 579
547 586
547 589
547 605
547 607
547 619
547 625
547 631
547 636
548 485
548 489
548 493
548 501
548 515
548 516
548 520
548 522
548 526
548 527
548 555
548 557
548 564
548 565
548 576
548 586
548 594
548 602
548 605
548 612
548 623
548 634
549 469
549 472
549 474
549 488
549 499
549 501
549 504
549 508
549 509
549 513
549 527
549 528
549 534
549 535
549 536
549 538
549 547
549 558
549 560
549 575
549 579
549 585
549 589
549 604
549 607
549 619
549 629
549 636
550 475
550 487
550 514
550 531
550 532
550 537
550 567
550 577
550 580
550 581
550 597
550 601
550 608
550 622
550 626
551 477
551 490
551 492
551 494
551 495
551 510
551 511
551 517
551 518
551 523
551 524
551 542
551 553
551 556
551 559
551 561
551 562
551 570
551 572
551 584
551 587
551 592
551 593
551 595
551 598
551 615
551 617
551 620
551 621
552 480
552 486
552 488
552 496
552 503
552 509
552 513
552 519
552 521
552 530
552 535
552 536
552 538
552 540
552 544
552 558
552 560
552 568
552 569
552 579
552 583
552 585
552 596
552 600
552 604
552 613
552 616
553 477
553 490
553 492
553 495
553 502
553 511
553 517
553 518
553 523
553 524
553 542
553 551
553 556
553 559
553 562
553 570
553 572
553 584
553 587
553 592
553 595
553 598
553 615
553 620
553 621
553 627
554 480
554 482
554 484
554 496
554 498
554 503
554 505
554 507
554 521
554 525
554 530
554 533
554 540
554 543
554 544
554 545
554 566
554 568
554 569
554 573
554 574
554 582
554 583
554 600
554 603
554 606
554 609
554 616
554 624
554 628
554 633
555 485
555 493
555 501
555 515
555 516
555 520
555 526
555 527
555 534
555 547
555 548
555 564
555 565
555 576
555 586
555 589
555 594
555 605
555 612
555 623
555 625
555 640
556 490
556 492
556 502
556 517
556 518
556 523
556 524
556 542
556 551
556 553
556 562
556 570
556 572
556 584
556 587
556 592
556 595
556 598
556 615
556 621
556 627
557 476
557 489
557 491
557 512
557 516
557 520
557 522
557 541
557 546
557 548
557 563
557 565
557 571
557 576
557 590
557 591
557 594
557 599
557 602
557 612
557 614
557 634
557 637
558 486
558 488
558 504
558 508
558 509
558 513
558 519
558 528
558 535
558 536
558 538
558 540
558 549
558 552
558 560
558 568
558 575
558 579
558 583
558 585
558 596
558 604
558 607
558 613
558 619
558 629
558 638
558 644
559 494
559 495
559 500
559 510
559 511
559 517
559 518
559 529
559 539
559 542
559 545
559 551
559 553
559 561
559 562
559 572
559 578
559 588
559 592
559 593
559 595
559 610
559 611
559 617
559 620
559 621
559 635
559 646
559 650
560 486
560 488
560 503
560 508
560 509
560 513
560 519
560 521
560 535
560 536
560 538
560 540
560 544
560 549
560 552
560 558
560 568
560 579
560 583
560 585
560 596
560 600
560 604
560 607
560 613
560 629
560 638
560 642
561 483
561 494
561 495
561 500
561 507
561 510
561 511
561 517
561 529
561 539
561 542
561 543
561 545
561 551
561 559
561 562
561 566
561 572
561 578
561 582
561 588
561 592
561 593
561 595
561 609
561 610
561 611
561 617
561 620
561 635
561 639
561 646
562 490
562 494
562 495
562 510
562 511
562 517
562 518
562 524
562 529
562 539
562 542
562 551
562 553
562 556
562 559
562 561
562 572
562 578
562 587
562 588
562 592
562 593
562 595
562 610
562 617
562 620
562 621
562 650
563 497
563 506
563 512
563 522
563 531
563 537
563 541
563 546
563 557
563 567
563 571
563 577
563 581
563 590
563 591
563 599
563 614
563 618
563 630
563 643
563 648
564 493
564 499
564 501
564 515
564 516
564 526
564 527
564 528
564 534
564 547
564 548
564 555
564 575
564 576
564 586
564 589
564 594
564 605
564 623
564 625
564 631
564 640
564 645
565 485
565 489
565 491
565 516
565 520
565 522
565 526
565 546
565 548
565 555
565 557
565 571
565 576
565 590
565 594
565 602
565 605
565 612
565 614
565 623
565 634
565 637
566 479
566 498
566 505
566 507
566 525
566 529
566 530
566 533
566 539
566 543
566 545
566 554
566 561
566 569
566 573
566 574
566 578
566 582
566 588
566 603
566 606
566 609
566 611
566 624
566 628
566 632
566 633
566 639
567 487
567 497
567 506
567 512
567 514
567 531
567 532
567 537
567 541
567 546
567 550
567 563
567 571
567 577
567 580
567 581
567 591
567 597
567 599
567 608
567 618
567 622
567 626
567 630
567 649
567 651
568 496
568 498
568 503
568 513
568 519
568 521
568 530
568 533
568 538
568 540
568 544
568 552
568 554
568 558
568 560
568 569
568 573
568 574
568 583
568 585
568 596
568 600
568 603
568 604
568 613
568 616
568 624
568 642
568 653
569 496
569 498
569 503
569 505
569 519
569 521
569 525
569 530
569 533
569 540
569 543
569 544
569 552
569 554
569 566
569 568
569 573
569 574
569 582
569 583
569 596
569 600
569 603
569 606
569 613
569 616
569 624
569 628
569 633
569 653
569 656
570 502
570 518
570 523
570 524
570 551
570 553
570 556
570 572
570 584
570 587
570 595
570 598
570 615
570 627
570 647
570 652
571 491
571 506
571 512
571 520
571 522
571 537
571 541
571 546
571 557
571 563
571 565
571 567
571 581
571 590
571 591
571 599
571 602
571 612
571 614
571 618
571 630
571 637
571 643
571 648
572 490
572 492
572 495
572 510
572 511
572 517
572 518
572 524
572 542
572 551
572 553
572 556
572 559
572 561
572 562
572 570
572 584
572 587
572 592
572 593
572 595
572 598
572 610
572 615
572 617
572 620
572 621
572 627
572 652
572 654
572 655
573 496
573 498
573 505
573 521
573 525
573 530
573 533
573 540
573 543
573 544
573 545
573 554
573 566
573 568
573 569
573 574
573 582
573 583
573 600
573 603
573 606
573 609
573 616
573 624
573 628
573 633
573 656
574 498
574 505
574 507
574 525
574 530
574 533
574 543
574 544
574 545
574 554
574 566
574 568
574 569
574 573
574 578
574 582
574 600
574 603
574 606
574 609
574 611
574 616
574 624
574 628
574 632
574 633
574 656
575 499
575 504
575 508
575 509
575 527
575 528
575 534
575 535
575 536
575 547
575 549
575 558
575 564
575 579
575 585
575 586
575 589
575 604
575 607
575 619
575 625
575 629
575 631
575 636
575 641
575 644
576 515
576 516
576 520
576 526
576 527
576 547
576 548
576 555
576 557
576 564
576 565
576 586
576 594
576 602
576 605
576 612
576 623
576 625
576 634
576 640
576 645
577 514
577 531
577 532
577 537
577 550
577 563
577 567
577 580
577 581
577 597
577 599
577 601
577 608
577 618
577 622
577 626
577 630
577 649
577 651
578 500
578 507
578 510
578 525
578 529
578 539
578 542
578 543
578 545
578 559
578 561
578 562
578 566
578 574
578 582
578 588
578 592
578 593
578 606
578 609
578 610
578 611
578 617
578 632
578 633
578 635
578 639
578 646
579 504
579 508
579 509
579 528
579 534
579 535
579 536
579 538
579 547
579 549
579 552
579 558
579 560
579 575
579 585
579 589
579 596
579 604
579 607
579 619
579 629
579 631
579 636
579 638
579 641
579 644
580 514
580 531
580 532
580 550
580 567
580 577
580 597
580 601
580 608
580 622
580 626
581 497
581 506
581 514
581 531
581 537
581 541
581 546
581 550
581 563
581 567
581 571
581 577
581 591
581 597
581 599
581 608
581 618
581 622
581 626
581 630
581 648
581 649
581 651
582 505
582 507
582 525
582 529
582 533
582 539
582 543
582 545
582 554
582 561
582 566
582 569
582 573
582 574
582 578
582 588
582 603
582 606
582 609
582 610
582 611
582 624
582 628
582 632
582 633
582 635
582 639
582 656
583 503
583 513
583 519
583 521
583 530
583 536
583 538
583 540
583 544
583 552
583 554
583 558
583 560
583 568
583 569
583 573
583 585
583 596
583 600
583 603
583 604
583 613
583 616
583 624
583 638
583 642
583 653
584 502
584 518
584 523
584 524
584 551
584 553
584 556
584 570
584 572
584 587
584 595
584 598
584 615
584 621
584 627
584 647
584 652
584 655
585 509
585 513
585 519
585 535
585 536
585 538
585 540
585 549
585 552
585 558
585 560
585 568
585 575
585 579
585 583
585 596
585 604
585 607
585 613
585 619
585 629
585 638
585 641
585 642
585 644
586 501
586 515
586 526
586 527
586 534
586 547
586 548
586 555
586 564
586 575
586 576
586 589
586 594
586 605
586 607
586 612
586 619
586 623
586 625
586 631
586 636
586 640
586 645
587 517
587 518
587 523
587 524
587 542
587 551
587 553
587 556
587 562
587 570
587 572
587 584
587 592
587 595
587 598
587 615
587 620
587 621
587 627
587 647
587 652
587 654
587 655
588 500
588 510
588 529
588 539
588 542
588 543
588 545
588 559
588 561
588 562
588 566
588 578
588 582
588 592
588 593
588 595
588 609
588 610
588 611
588 617
588 620
588 632
588 635
588 639
588 646
588 650
589 501
589 504
589 515
589 527
589 528
589 534
589 535
589 547
589 549
589 555
589 564
589 575
589 579
589 586
589 605
589 607
589 619
589 625
589 629
589 631
589 636
589 640
589 641
589 645
590 512
590 520
590 522
590 541
590 546
590 557
590 563
590 565
590 571
590 591
590 594
590 599
590 602
590 612
590 614
590 630
590 634
590 637
590 643
590 648
591 506
591 512
591 522
591 537
591 541
591 546
591 557
591 563
591 567
591 571
591 581
591 590
591 599
591 602
591 614
591 618
591 622
591 630
591 637
591 643
591 648
591 649
592 510
592 511
592 517
592 518
592 539
592 542
592 551
592 553
592 556
592 559
592 561
592 562
592 572
592 578
592 587
592 588
592 593
592 595
592 610
592 615
592 617
592 620
592 621
592 635
592 646
592 650
592 654
592 655
593 510
593 511
593 529
593 539
593 542
593 545
593 551
593 559
593 561
593 562
593 572
593 578
593 588
593 592
593 595
593 610
593 611
593 617
593 620
593 621
593 635
593 639
593 646
593 650
593 654
594 516
594 520
594 522
594 526
594 548
594 555
594 557
594 564
594 565
594 576
594 586
594 590
594 602
594 605
594 612
594 614
594 623
594 625
594 634
594 637
594 640
595 511
595 517
595 518
595 524
595 542
595 551
595 553
595 556
595 559
595 561
595 562
595 570
595 572
595 584
595 587
595 588
595 592
595 593
595 598
595 610
595 615
595 617
595 620
595 621
595 627
595 650
595 652
595 654
595 655
596 513
596 519
596 521
596 536
596 538
596 540
596 544
596 552
596 558
596 560
596 568
596 569
596 579
596 583
596 585
596 600
596 604
596 613
596 616
596 629
596 638
596 642
596 644
596 653
597 514
597 531
597 532
597 537
597 550
597 567
597 577
597 580
597 581
597 601
597 608
597 618
597 622
597 626
597 651
598 523
598 524
598 551
598 553
598 556
598 570
598 572
598 584
598 587
598 595
598 615
598 621
598 627
598 647
598 652
598 655
599 506
599 512
599 537
599 541
599 546
599 557
599 563
599 567
599 571
599 577
599 581
599 590
599 591
599 608
599 614
599 618
599 622
599 630
599 643
599 648
599 649
599 651
600 521
600 530
600 533
600 540
600 544
600 552
600 554
600 560
600 568
600 569
600 573
600 574
600 583
600 596
600 603
600 606
600 613
600 616
600 624
600 628
600 633
600 642
600 653
600 656
601 532
601 550
601 577
601 580
601 597
601 608
601 622
601 626
601 651
602 520
602 522
602 546
602 548
602 557
602 565
602 571
602 576
602 590
602 591
602 594
602 605
602 612
602 614
602 623
602 634
602 637
602 643
602 648
603 530
603 533
603 543
603 544
603 554
603 566
603 568
603 569
603 573
603 574
603 582
603 583
603 600
603 606
603 609
603 613
603 616
603 624
603 628
603 632
603 633
603 653
603 656
604 535
604 536
604 538
604 540
604 549
604 552
604 558
604 560
604 568
604 575
604 579
604 583
604 585
604 596
604 607
604 613
604 619
604 629
604 636
604 638
604 641
604 642
604 644
605 515
605 526
605 547
605 548
605 555
605 564
605 565
605 576
605 586
605 589
605 594
605 602
605 612
605 623
605 625
605 631
605 634
605 636
605 640
605 645
606 525
606 533
606 543
606 545
606 554
606 566
606 569
606 573
606 574
606 578
606 582
606 600
606 603
606 609
606 611
606 616
606 624
606 628
606 632
606 633
606 639
606 656
607 528
607 534
607 535
607 536
607 547
607 549
607 558
607 560
607 575
607 579
607 585
607 586
607 589
607 604
607 619
607 625
607 629
607 631
607 636
607 638
607 641
607 644
607 645
608 531
608 532
608 537
608 550
608 567
608 577
608 580
608 581
608 597
608 599
608 601
608 618
608 622
608 626
608 630
608 649
608 651
609 525
609 543
609 545
609 554
609 561
609 566
609 573
609 574
609 578
609 582
609 588
609 603
609 606
609 610
609 611
609 624
609 628
609 632
609 633
609 635
609 639
609 646
609 656
610 529
610 539
610 542
610 545
610 559
610 561
610 562
610 572
610 578
610 582
610 588
610 592
610 593
610 595
610 609
610 611
610 617
610 620
610 621
610 632
610 635
610 639
610 646
610 650
610 654
611 529
611 539
611 543
611 545
611 559
611 561
611 566
611 574
611 578
611 582
611 588
611 593
611 606
611 609
611 610
611 617
611 628
611 632
611 633
611 635
611 639
611 646
611 650
612 548
612 555
612 557
612 565
612 571
612 576
612 586
612 590
612 594
612 602
612 605
612 614
612 623
612 634
612 637
612 640
612 643
613 538
613 540
613 544
613 552
613 558
613 560
613 568
613 569
613 583
613 585
613 596
613 600
613 603
613 604
613 616
613 624
613 638
613 642
613 644
613 653
613 656
614 546
614 557
614 563
614 565
614 571
614 590
614 591
614 594
614 599
614 602
614 612
614 623
614 630
614 634
614 637
614 643
614 648
615 551
615 553
615 556
615 570
615 572
615 584
615 587
615 592
615 595
615 598
615 620
615 621
615 627
615 647
615 652
615 654
615 655
616 540
616 544
616 552
616 554
616 568
616 569
616 573
616 574
616 583
616 596
616 600
616 603
616 606
616 613
616 624
616 628
616 633
616 638
616 642
616 653
616 656
617 539
617 542
617 551
617 559
617 561
617 562
617 572
617 578
617 588
617 592
617 593
617 595
617 610
617 611
617 620
617 621
617 635
617 639
617 646
617 650
617 654
617 655
618 537
618 563
618 567
618 571
618 577
618 581
618 591
618 597
618 599
618 608
618 622
618 626
618 630
618 643
618 648
618 649
618 651
619 547
619 549
619 558
619 575
619 579
619 585
619 586
619 589
619 604
619 607
619 625
619 629
619 631
619 636
619 638
619 641
619 644
619 645
620 542
620 551
620 553
620 559
620 561
620 562
620 572
620 587
620 588
620 592
620 593
620 595
620 610
620 615
620 617
620 621
620 635
620 646
620 650
620 652
620 654
620 655
621 542
621 551
621 553
621 556
621 559
621 562
621 572
621 584
621 587
621 592
621 593
621 595
621 598
621 610
621 615
621 617
621 620
621 627
621 646
621 647
621 650
621 652
621 654
621 655
622 550
622 567
622 577
622 580
622 581
622 591
622 597
622 599
622 601
622 608
622 618
622 626
622 630
622 648
622 649
622 651
623 548
623 555
623 564
623 565
623 576
623 586
623 594
623 602
623 605
623 612
623 614
623 625
623 631
623 634
623 637
623 640
623 645
624 544
624 554
624 566
624 568
624 569
624 573
624 574
624 582
624 583
624 600
624 603
624 606
624 609
624 613
624 616
624 628
624 632
624 633
624 642
624 653
624 656
625 547
625 555
625 564
625 575
625 576
625 586
625 589
625 594
625 605
625 607
625 619
625 623
625 631
625 634
625 636
625 640
625 641
625 645
626 550
626 567
626 577
626 580
626 581
626 597
626 601
626 608
626 618
626 622
626 649
626 651
627 553
627 556
627 570
627 572
627 584
627 587
627 595
627 598
627 615
627 621
627 647
627 652
627 654
627 655
628 554
628 566
628 569
628 573
628 574
628 582
628 600
628 603
628 606
628 609
628 611
628 616
628 624
628 632
628 633
628 639
628 653
628 656
629 549
629 558
629 560
629 575
629 579
629 585
629 589
629 596
629 604
629 607
629 619
629 631
629 636
629 638
629 641
629 642
629 644
630 563
630 567
630 571
630 577
630 581
630 590
630 591
630 599
630 608
630 614
630 618
630 622
630 637
630 643
630 648
630 649
630 651
631 547
631 564
631 575
631 579
631 586
631 589
631 605
631 607
631 619
631 623
631 625
631 629
631 636
631 640
631 641
631 645
632 543
632 545
632 566
632 574
632 578
632 582
632 588
632 603
632 606
632 609
632 610
632 611
632 624
632 628
632 633
632 635
632 639
632 646
632 656
633 543
633 554
633 566
633 569
633 573
633 574
633 578
633 582
633 600
633 603
633 606
633 609
633 611
633 616
633 624
633 628
633 632
633 635
633 639
633 656
634 548
634 557
634 565
634 576
634 590
634 594
634 602
634 605
634 612
634 614
634 623
634 625
634 637
634 640
634 643
634 645
635 559
635 561
635 578
635 582
635 588
635 592
635 593
635 609
635 610
635 611
635 617
635 620
635 632
635 633
635 639
635 646
635 650
635 654
636 547
636 549
636 575
636 579
636 586
636 589
636 604
636 605
636 607
636 619
636 625
636 629
636 631
636 640
636 641
636 644
636 645
637 557
637 565
637 571
637 590
637 591
637 594
637 602
637 612
637 614
637 623
637 630
637 634
637 643
637 648
638 558
638 560
638 579
638 583
638 585
638 596
638 604
638 607
638 613
638 616
638 619
638 629
638 641
638 642
638 644
638 653
639 561
639 566
639 578
639 582
639 588
639 593
639 606
639 609
639 610
639 611
639 617
639 628
639 632
639 633
639 635
639 646
639 650
640 555
640 564
640 576
640 586
640 589
640 594
640 605
640 612
640 623
640 625
640 631
640 634
640 636
640 645
641 575
641 579
641 585
641 589
641 604
641 607
641 619
641 625
641 629
641 631
641 636
641 638
641 644
641 645
642 560
642 568
642 583
642 585
642 596
642 600
642 604
642 613
642 616
642 624
642 629
642 638
642 644
642 653
643 563
643 571
643 590
643 591
643 599
643 602
643 612
643 614
643 618
643 630
643 634
643 637
643 648
643 649
644 558
644 575
644 579
644 585
644 596
644 604
644 607
644 613
644 619
644 629
644 636
644 638
644 641
644 642
645 564
645 576
645 586
645 589
645 605
645 607
645 619
645 623
645 625
645 631
645 634
645 636
645 640
645 641
646 559
646 561
646 578
646 588
646 592
646 593
646 609
646 610
646 611
646 617
646 620
646 621
646 632
646 635
646 639
646 650
646 654
647 570
647 584
647 587
647 598
647 615
647 621
647 627
647 652
647 654
647 655
648 563
648 571
648 581
648 590
648 591
648 599
648 602
648 614
648 618
648 622
648 630
648 637
648 643
648 649
648 651
649 567
649 577
649 581
649 591
649 599
649 608
649 618
649 622
649 626
649 630
649 643
649 648
649 651
650 559
650 562
650 588
650 592
650 593
650 595
650 610
650 611
650 617
650 620
650 621
650 635
650 639
650 646
650 654
650 655
651 567
651 577
651 581
651 597
651 599
651 601
651 608
651 618
651 622
651 626
651 630
651 648
651 649
652 570
652 572
652 584
652 587
652 595
652 598
652 615
652 620
652 621
652 627
652 647
652 654
652 655
653 568
653 569
653 583
653 596
653 600
653 603
653 613
653 616
653 624
653 628
653 638
653 642
653 656
654 572
654 587
654 592
654 593
654 595
654 610
654 615
654 617
654 620
654 621
654 627
654 635
654 646
654 647
654 650
654 652
654 655
655 572
655 584
655 587
655 592
655 595
655 598
655 615
655 617
655 620
655 621
655 627
655 647
655 650
655 652
655 654
656 569
656 573
656 574
656 582
656 600
656 603
656 606
656 609
656 613
656 616
656 624
656 628
656 632
656 633
656 653
