1 5
1 18
1 31
1 47
2 3
2 10
2 21
2 22
2 32
2 34
2 48
3 2
3 22
3 34
3 48
4 6
4 20
4 26
4 27
4 38
5 1
5 18
5 31
5 47
6 4
6 26
6 27
6 33
7 9
7 23
7 51
8 24
8 25
8 39
8 40
8 42
9 7
9 12
9 13
9 23
9 50
9 53
10 2
10 14
10 21
10 22
10 32
10 36
11 17
11 28
11 30
11 43
11 46
12 9
12 13
12 23
12 44
12 50
13 9
13 12
13 16
13 35
13 44
13 50
14 10
14 20
14 21
14 36
14 37
14 38
15 16
15 29
15 35
15 49
15 52
16 13
16 15
16 35
16 44
16 49
17 11
17 30
17 43
17 55
18 1
18 5
18 19
18 31
18 41
18 47
18 57
19 18
19 28
19 41
19 45
19 46
20 4
20 14
20 27
20 37
20 38
20 58
20 61
21 2
21 10
21 14
21 32
21 36
21 37
22 2
22 3
22 10
22 32
22 34
22 48
23 7
23 9
23 12
23 51
23 53
24 8
24 25
24 39
24 40
24 42
25 8
25 24
25 39
25 40
25 42
25 54
26 4
26 6
26 27
26 33
26 38
26 56
26 58
26 60
27 4
27 6
27 20
27 26
27 33
27 38
27 56
27 58
27 60
27 70
28 11
28 19
28 30
28 45
28 46
28 62
28 68
29 15
29 49
29 52
29 65
30 11
30 17
30 28
30 43
30 46
30 62
31 1
31 5
31 18
31 47
31 57
31 75
32 2
32 10
32 21
32 22
32 34
32 36
32 48
32 64
32 66
32 88
33 6
33 26
33 27
33 51
33 56
33 60
33 76
34 2
34 3
34 22
34 32
34 48
34 64
34 67
34 71
34 82
35 13
35 15
35 16
35 44
35 49
35 59
35 69
35 87
36 10
36 14
36 21
36 32
36 37
36 61
36 64
36 66
36 89
37 14
37 20
37 21
37 36
37 38
37 58
37 61
37 66
37 81
38 4
38 14
38 20
38 26
38 27
38 37
38 58
38 60
38 61
38 70
38 91
39 8
39 24
39 25
39 40
39 42
39 77
39 86
40 8
40 24
40 25
40 39
40 42
40 77
40 86
41 18
41 19
41 45
41 47
41 57
41 63
42 8
42 24
42 25
42 39
42 40
42 54
42 72
42 77
42 85
42 86
43 11
43 17
43 30
43 46
43 55
43 62
43 74
43 80
43 93
44 12
44 13
44 16
44 35
44 50
44 59
44 78
44 87
45 19
45 28
45 41
45 46
45 63
45 68
46 11
46 19
46 28
46 30
46 43
46 45
46 62
46 68
46 80
46 95
47 1
47 5
47 18
47 31
47 41
47 57
47 75
48 2
48 3
48 22
48 32
48 34
48 64
48 67
48 71
48 82
49 15
49 16
49 29
49 35
49 52
49 65
49 69
49 83
49 92
50 9
50 12
50 13
50 44
50 53
50 59
50 73
50 78
51 7
51 23
51 33
51 53
51 56
51 76
51 94
51 100
52 15
52 29
52 49
52 65
52 69
52 79
52 83
53 9
53 23
53 50
53 51
53 59
53 73
53 78
53 98
53 100
54 25
54 42
54 67
54 72
54 85
55 17
55 43
55 62
55 74
55 80
55 93
56 26
56 27
56 33
56 51
56 60
56 70
56 76
56 84
56 94
56 99
57 18
57 31
57 41
57 47
57 63
57 75
57 103
58 20
58 26
58 27
58 37
58 38
58 60
58 61
58 70
58 81
58 84
58 91
58 105
59 35
59 44
59 50
59 53
59 78
59 87
59 92
59 104
60 26
60 27
60 33
60 38
60 56
60 58
60 70
60 76
60 84
60 91
60 99
60 105
61 20
61 36
61 37
61 38
61 58
61 66
61 70
61 81
61 89
61 91
61 114
62 28
62 30
62 43
62 46
62 55
62 68
62 74
62 80
62 93
62 95
62 111
63 41
63 45
63 57
63 68
63 101
64 32
64 34
64 36
64 48
64 66
64 71
64 82
64 88
64 89
64 96
64 106
64 108
65 29
65 49
65 52
65 69
65 79
65 83
65 109
65 110
66 32
66 36
66 37
66 61
66 64
66 81
66 88
66 89
66 108
67 34
67 48
67 54
67 71
67 72
67 82
67 85
67 96
67 102
67 112
68 28
68 45
68 46
68 62
68 63
68 80
68 95
68 101
69 35
69 49
69 52
69 65
69 83
69 87
69 92
69 110
69 115
70 27
70 38
70 56
70 58
70 60
70 61
70 76
70 84
70 91
70 99
70 105
71 34
71 48
71 64
71 67
71 72
71 82
71 88
71 96
71 102
71 106
71 117
72 42
72 54
72 67
72 71
72 85
72 96
72 102
72 112
73 50
73 53
73 78
73 98
73 100
73 104
74 43
74 55
74 62
74 80
74 93
74 111
75 31
75 47
75 57
75 90
75 103
75 107
75 121
75 123
76 33
76 51
76 56
76 60
76 70
76 84
76 94
76 99
76 116
76 119
77 39
77 40
77 42
77 85
77 86
77 97
77 118
77 120
78 44
78 50
78 53
78 59
78 73
78 87
78 98
78 104
78 113
79 52
79 65
79 83
79 90
79 107
79 109
79 110
79 125
79 126
80 43
80 46
80 55
80 62
80 68
80 74
80 93
80 95
80 111
81 37
81 58
81 61
81 66
81 88
81 89
81 91
81 114
81 133
82 34
82 48
82 64
82 67
82 71
82 88
82 96
82 102
82 106
82 108
82 117
83 49
83 52
83 65
83 69
83 79
83 92
83 109
83 110
83 115
83 126
84 56
84 58
84 60
84 70
84 76
84 91
84 94
84 99
84 105
84 119
84 129
85 42
85 54
85 67
85 72
85 77
85 86
85 97
85 102
85 112
85 118
85 120
85 127
86 39
86 40
86 42
86 77
86 85
86 97
86 118
86 120
86 136
87 35
87 44
87 59
87 69
87 78
87 92
87 104
87 113
87 115
87 130
88 32
88 64
88 66
88 71
88 81
88 82
88 89
88 106
88 108
88 132
89 36
89 61
89 64
89 66
89 81
89 88
89 106
89 108
89 114
89 132
90 75
90 79
90 107
90 109
90 123
90 125
91 38
91 58
91 60
91 61
91 70
91 81
91 84
91 105
91 114
91 128
91 129
91 133
92 49
92 59
92 69
92 83
92 87
92 113
92 115
92 130
93 43
93 55
93 62
93 74
93 80
93 111
94 51
94 56
94 76
94 84
94 99
94 100
94 116
94 119
94 122
94 139
95 46
95 62
95 68
95 80
95 101
95 111
95 131
96 64
96 67
96 71
96 72
96 82
96 102
96 106
96 112
96 117
96 135
97 77
97 85
97 86
97 118
97 120
97 136
98 53
98 73
98 78
98 100
98 104
98 113
98 116
98 122
98 134
98 138
99 56
99 60
99 70
99 76
99 84
99 94
99 105
99 116
99 119
99 129
99 140
99 141
100 51
100 53
100 73
100 94
100 98
100 116
100 122
100 138
100 139
101 63
101 68
101 95
101 103
101 121
101 124
101 131
102 67
102 71
102 72
102 82
102 85
102 96
102 112
102 117
102 127
102 135
103 57
103 75
103 101
103 107
103 121
103 123
103 124
104 59
104 73
104 78
104 87
104 98
104 113
104 134
105 58
105 60
105 70
105 84
105 91
105 99
105 114
105 128
105 129
105 133
105 141
105 142
105 154
106 64
106 71
106 82
106 88
106 89
106 96
106 108
106 117
106 132
107 75
107 79
107 90
107 103
107 109
107 121
107 123
107 125
107 143
107 150
108 64
108 66
108 82
108 88
108 89
108 106
108 132
109 65
109 79
109 83
109 90
109 107
109 110
109 125
109 126
109 143
109 148
109 152
110 65
110 69
110 79
110 83
110 109
110 115
110 126
110 137
110 148
111 62
111 74
111 80
111 93
111 95
111 131
112 67
112 72
112 85
112 96
112 102
112 117
112 120
112 127
112 135
112 144
113 78
113 87
113 92
113 98
113 104
113 130
113 134
113 145
113 147
114 61
114 81
114 89
114 91
114 105
114 128
114 132
114 133
114 142
114 156
115 69
115 83
115 87
115 92
115 110
115 126
115 130
115 137
115 145
115 153
116 76
116 94
116 98
116 99
116 100
116 119
116 122
116 139
116 140
116 149
117 71
117 82
117 96
117 102
117 106
117 112
117 135
117 158
118 77
118 85
118 86
118 97
118 120
118 127
118 136
118 144
118 146
118 162
118 163
119 76
119 84
119 94
119 99
119 116
119 122
119 129
119 139
119 140
119 141
119 155
120 77
120 85
120 86
120 97
120 112
120 118
120 127
120 135
120 136
120 144
120 146
120 162
120 163
121 75
121 101
121 103
121 107
121 123
121 124
121 150
121 151
121 168
122 94
122 98
122 100
122 116
122 119
122 138
122 139
122 149
123 75
123 90
123 103
123 107
123 121
123 124
123 125
123 143
123 150
123 151
124 101
124 103
124 121
124 123
124 151
124 161
124 168
125 79
125 90
125 107
125 109
125 123
125 126
125 143
125 150
125 152
126 79
126 83
126 109
126 110
126 115
126 125
126 137
126 148
126 152
126 153
127 85
127 102
127 112
127 118
127 120
127 135
127 136
127 144
127 160
127 162
127 166
128 91
128 105
128 114
128 129
128 133
128 141
128 142
128 154
128 156
128 167
129 84
129 91
129 99
129 105
129 119
129 128
129 140
129 141
129 142
129 154
129 155
129 167
130 87
130 92
130 113
130 115
130 137
130 145
130 147
130 153
130 164
131 95
131 101
131 111
131 161
132 88
132 89
132 106
132 108
132 114
132 133
132 156
132 157
132 159
132 170
133 81
133 91
133 105
133 114
133 128
133 132
133 142
133 154
133 156
133 157
133 170
134 98
134 104
134 113
134 138
134 147
134 149
134 165
134 169
135 96
135 102
135 112
135 117
135 120
135 127
135 144
135 158
135 160
135 166
135 175
135 177
136 86
136 97
136 118
136 120
136 127
136 144
136 146
136 162
136 163
136 166
137 110
137 115
137 126
137 130
137 145
137 148
137 152
137 153
137 182
138 98
138 100
138 122
138 134
138 139
138 149
138 165
138 169
138 174
139 94
139 100
139 116
139 119
139 122
139 138
139 140
139 141
139 149
139 155
139 174
140 99
140 116
140 119
140 129
140 139
140 141
140 154
140 155
140 167
141 99
141 105
141 119
141 128
141 129
141 139
141 140
141 154
141 155
141 167
141 187
142 105
142 114
142 128
142 129
142 133
142 154
142 156
142 157
142 170
142 183
143 107
143 109
143 123
143 125
143 150
143 151
143 152
143 171
143 176
144 112
144 118
144 120
144 127
144 135
144 136
144 160
144 162
144 163
144 166
144 177
145 113
145 115
145 130
145 137
145 147
145 153
145 164
145 181
145 185
146 118
146 120
146 136
146 162
146 163
146 186
147 113
147 130
147 134
147 145
147 153
147 164
147 165
147 181
147 185
148 109
148 110
148 126
148 137
148 152
148 153
148 180
148 182
149 116
149 122
149 134
149 138
149 139
149 155
149 169
149 174
150 107
150 121
150 123
150 125
150 143
150 151
150 152
150 171
150 176
150 193
151 121
151 123
151 124
151 143
151 150
151 168
151 173
151 176
151 189
152 109
152 125
152 126
152 137
152 143
152 148
152 150
152 171
152 180
152 192
153 115
153 126
153 130
153 137
153 145
153 147
153 148
153 164
153 181
153 182
154 105
154 128
154 129
154 133
154 140
154 141
154 142
154 156
154 167
154 183
154 187
154 200
155 119
155 129
155 139
155 140
155 141
155 149
155 167
155 174
155 187
155 191
156 114
156 128
156 132
156 133
156 142
156 154
156 157
156 170
156 183
156 196
156 198
157 132
157 133
157 142
157 156
157 159
157 170
157 178
157 196
157 202
158 117
158 135
158 159
158 160
158 175
158 177
158 179
158 190
159 132
159 157
159 158
159 170
159 178
159 179
159 195
159 202
160 127
160 135
160 144
160 158
160 166
160 175
160 177
160 179
160 190
161 124
161 131
161 168
161 173
161 199
162 118
162 120
162 127
162 136
162 144
162 146
162 163
162 166
162 177
162 186
162 201
163 118
163 120
163 136
163 144
163 146
163 162
163 186
163 201
164 130
164 145
164 147
164 153
164 165
164 181
164 185
164 203
164 207
165 134
165 138
165 147
165 164
165 169
165 185
165 188
165 207
166 127
166 135
166 136
166 144
166 160
166 162
166 175
166 177
166 186
166 190
166 201
166 210
167 128
167 129
167 140
167 141
167 154
167 155
167 183
167 187
167 191
167 200
168 121
168 124
168 151
168 161
168 173
168 189
169 134
169 138
169 149
169 165
169 174
169 188
169 194
169 219
170 132
170 133
170 142
170 156
170 157
170 159
170 178
170 183
170 196
170 198
170 202
170 212
171 143
171 150
171 152
171 176
171 180
171 192
171 193
171 217
172 184
172 199
172 208
173 151
173 161
173 168
173 189
173 213
174 138
174 139
174 149
174 155
174 169
174 191
174 194
174 204
174 211
175 135
175 158
175 160
175 166
175 177
175 179
175 190
175 206
175 210
176 143
176 150
176 151
176 171
176 189
176 193
176 217
176 220
177 135
177 144
177 158
177 160
177 162
177 166
177 175
177 190
177 201
177 206
177 210
178 157
178 159
178 170
178 179
178 195
178 196
178 202
178 212
178 221
178 227
179 158
179 159
179 160
179 175
179 178
179 190
179 195
179 206
179 225
180 148
180 152
180 171
180 182
180 192
180 193
180 197
181 145
181 147
181 153
181 164
181 182
181 185
181 203
181 205
181 207
181 224
182 137
182 148
182 153
182 180
182 181
182 197
182 203
182 205
182 229
182 232
183 142
183 154
183 156
183 167
183 170
183 187
183 196
183 198
183 200
183 215
184 172
184 199
184 208
184 209
184 228
185 145
185 147
185 164
185 165
185 181
185 188
185 203
185 207
185 223
185 224
186 146
186 162
186 163
186 166
186 201
186 214
186 231
187 141
187 154
187 155
187 167
187 183
187 191
187 200
187 215
187 216
187 218
187 238
188 165
188 169
188 185
188 194
188 207
188 219
188 223
188 235
189 151
189 168
189 173
189 176
189 220
190 158
190 160
190 166
190 175
190 177
190 179
190 206
190 210
190 226
190 240
191 155
191 167
191 174
191 187
191 204
191 211
191 216
191 218
191 230
191 238
192 152
192 171
192 180
192 193
192 197
192 229
192 236
193 150
193 171
193 176
193 180
193 192
193 217
194 169
194 174
194 188
194 204
194 211
194 219
194 233
194 235
195 159
195 178
195 179
195 202
195 206
195 212
195 221
195 225
195 227
196 156
196 157
196 170
196 178
196 183
196 198
196 202
196 212
196 215
196 227
196 234
196 246
197 180
197 182
197 192
197 203
197 205
197 229
197 232
197 236
197 244
198 156
198 170
198 183
198 196
198 200
198 212
198 215
198 234
198 239
198 246
199 161
199 172
199 184
199 208
199 213
199 222
199 237
200 154
200 167
200 183
200 187
200 198
200 215
200 216
200 218
200 238
200 239
201 162
201 163
201 166
201 177
201 186
201 210
201 214
201 231
201 240
201 245
202 157
202 159
202 170
202 178
202 195
202 196
202 212
202 221
202 227
202 234
202 247
203 164
203 181
203 182
203 185
203 197
203 205
203 207
203 224
203 232
203 244
204 174
204 191
204 194
204 211
204 218
204 230
204 233
204 238
204 251
204 252
205 181
205 182
205 197
205 203
205 224
205 229
205 232
205 244
206 175
206 177
206 179
206 190
206 195
206 210
206 221
206 225
206 226
206 241
206 253
206 254
207 164
207 165
207 181
207 185
207 188
207 203
207 223
207 224
207 235
207 248
208 172
208 184
208 199
208 209
208 222
208 228
208 237
208 249
209 184
209 208
209 228
209 249
210 166
210 175
210 177
210 190
210 201
210 206
210 226
210 231
210 240
210 241
210 253
211 174
211 191
211 194
211 204
211 218
211 219
211 230
211 233
211 250
211 251
211 252
212 170
212 178
212 195
212 196
212 198
212 202
212 221
212 227
212 234
212 246
212 247
212 260
213 173
213 199
213 222
213 237
213 242
213 255
214 186
214 201
214 231
214 245
215 183
215 187
215 196
215 198
215 200
215 216
215 234
215 239
215 246
215 257
215 258
216 187
216 191
216 200
216 215
216 218
216 238
216 239
216 251
216 258
217 171
217 176
217 193
217 220
217 243
217 268
218 187
218 191
218 200
218 204
218 211
218 216
218 230
218 238
218 251
218 252
218 270
219 169
219 188
219 194
219 211
219 223
219 233
219 235
219 250
220 176
220 189
220 217
220 242
220 243
220 259
221 178
221 195
221 202
221 206
221 212
221 225
221 227
221 241
221 247
221 254
221 261
222 199
222 208
222 213
222 228
222 237
222 255
222 264
222 265
223 185
223 188
223 207
223 219
223 235
223 248
223 250
223 263
223 269
224 181
224 185
224 203
224 205
224 207
224 232
224 244
224 248
224 262
225 179
225 195
225 206
225 221
225 226
225 227
225 241
225 247
225 254
225 261
225 271
225 276
226 190
226 206
226 210
226 225
226 240
226 241
226 253
226 254
226 271
227 178
227 195
227 196
227 202
227 212
227 221
227 225
227 234
227 247
227 260
227 261
228 184
228 208
228 209
228 222
228 237
228 249
228 264
228 267
229 182
229 192
229 197
229 205
229 232
229 236
229 244
229 256
229 273
230 191
230 204
230 211
230 218
230 233
230 238
230 251
230 252
230 270
231 186
231 201
231 210
231 214
231 240
231 245
231 266
231 272
232 182
232 197
232 203
232 205
232 224
232 229
232 244
232 256
232 262
232 273
233 194
233 204
233 211
233 219
233 230
233 235
233 250
233 252
234 196
234 198
234 202
234 212
234 215
234 227
234 246
234 247
234 257
234 260
235 188
235 194
235 207
235 219
235 223
235 233
235 248
235 250
235 263
235 269
236 192
236 197
236 229
236 256
236 268
236 274
237 199
237 208
237 213
237 222
237 228
237 249
237 255
237 264
237 265
238 187
238 191
238 200
238 204
238 216
238 218
238 230
238 239
238 251
238 258
238 270
238 275
238 278
239 198
239 200
239 215
239 216
239 238
239 246
239 257
239 258
239 275
239 279
240 190
240 201
240 210
240 226
240 231
240 241
240 245
240 253
240 266
240 271
240 272
240 280
241 206
241 210
241 221
241 225
241 226
241 240
241 253
241 254
241 271
241 276
241 280
242 213
242 220
242 255
242 259
242 265
242 281
242 282
243 217
243 220
243 259
243 268
243 286
244 197
244 203
244 205
244 224
244 229
244 232
244 256
244 262
244 273
244 288
245 201
245 214
245 231
245 240
245 266
245 272
245 291
246 196
246 198
246 212
246 215
246 234
246 239
246 257
246 258
246 260
246 279
246 289
247 202
247 212
247 221
247 225
247 227
247 234
247 254
247 260
247 261
247 276
247 277
247 295
248 207
248 223
248 224
248 235
248 250
248 262
248 263
248 269
248 284
248 285
249 208
249 209
249 228
249 237
249 264
249 267
250 211
250 219
250 223
250 233
250 235
250 248
250 252
250 263
250 285
250 294
251 204
251 211
251 216
251 218
251 230
251 238
251 252
251 270
251 275
251 278
251 287
252 204
252 211
252 218
252 230
252 233
252 250
252 251
252 270
252 278
252 287
253 206
253 210
253 226
253 240
253 241
253 254
253 271
253 272
253 280
253 296
254 206
254 221
254 225
254 226
254 241
254 247
254 253
254 261
254 271
254 276
254 277
254 302
255 213
255 222
255 237
255 242
255 259
255 265
255 281
255 282
255 292
255 297
256 229
256 232
256 236
256 244
256 273
256 274
256 283
256 290
257 215
257 234
257 239
257 246
257 258
257 260
257 279
257 289
257 293
258 215
258 216
258 238
258 239
258 246
258 257
258 275
258 279
258 293
259 220
259 242
259 243
259 255
259 281
259 282
259 286
259 297
260 212
260 227
260 234
260 246
260 247
260 257
260 261
260 277
260 289
260 295
260 304
261 221
261 225
261 227
261 247
261 254
261 260
261 276
261 277
261 295
261 303
262 224
262 232
262 244
262 248
262 269
262 273
262 284
262 288
262 299
262 300
263 223
263 235
263 248
263 250
263 269
263 284
263 285
263 294
263 300
264 222
264 228
264 237
264 249
264 265
264 267
264 292
264 307
265 222
265 237
265 242
265 255
265 264
265 282
265 292
265 297
265 307
266 231
266 240
266 245
266 272
266 291
266 296
266 298
267 228
267 249
267 264
268 217
268 236
268 243
268 274
268 283
268 286
268 305
269 223
269 235
269 248
269 262
269 263
269 284
269 285
269 288
269 299
269 300
270 218
270 230
270 238
270 251
270 252
270 275
270 278
270 287
270 301
271 225
271 226
271 240
271 241
271 253
271 254
271 272
271 276
271 280
271 296
271 302
271 314
272 231
272 240
272 245
272 253
272 266
272 271
272 280
272 296
272 298
273 229
273 232
273 244
273 256
273 262
273 284
273 288
273 290
273 299
273 306
274 236
274 256
274 268
274 283
274 290
274 313
275 238
275 239
275 251
275 258
275 270
275 278
275 279
275 293
275 301
275 310
275 311
276 225
276 241
276 247
276 254
276 261
276 271
276 277
276 302
276 303
277 247
277 254
277 260
277 261
277 276
277 295
277 302
277 303
277 308
278 238
278 251
278 252
278 270
278 275
278 287
278 293
278 301
278 310
278 311
279 239
279 246
279 257
279 258
279 275
279 289
279 293
279 312
280 240
280 241
280 253
280 271
280 272
280 296
280 298
280 302
280 314
281 242
281 255
281 259
281 282
281 286
281 292
281 297
281 315
281 318
282 242
282 255
282 259
282 265
282 281
282 286
282 292
282 297
282 315
282 320
283 256
283 268
283 274
283 290
283 305
283 313
284 248
284 262
284 263
284 269
284 273
284 285
284 288
284 299
284 300
284 321
284 323
285 248
285 250
285 263
285 269
285 284
285 294
285 299
285 300
285 309
285 317
285 321
286 243
286 259
286 268
286 281
286 282
286 297
286 305
286 315
286 318
287 251
287 252
287 270
287 278
287 294
287 301
287 310
287 319
287 330
288 244
288 262
288 269
288 273
288 284
288 290
288 299
288 300
288 306
288 321
288 322
288 323
289 246
289 257
289 260
289 279
289 295
289 304
289 308
289 312
289 328
290 256
290 273
290 274
290 283
290 288
290 306
290 313
290 322
291 245
291 266
291 298
291 316
292 255
292 264
292 265
292 281
292 282
292 297
292 307
292 315
292 320
292 324
292 333
293 257
293 258
293 275
293 278
293 279
293 310
293 311
293 312
293 325
293 326
294 250
294 263
294 285
294 287
294 309
294 317
294 319
294 331
295 247
295 260
295 261
295 277
295 289
295 303
295 304
295 308
295 337
296 253
296 266
296 271
296 272
296 280
296 298
296 314
296 316
296 329
297 255
297 259
297 265
297 281
297 282
297 286
297 292
297 307
297 315
297 320
297 333
298 266
298 272
298 280
298 291
298 296
298 314
298 316
298 329
298 346
299 262
299 269
299 273
299 284
299 285
299 288
299 300
299 306
299 317
299 321
299 323
299 342
300 262
300 263
300 269
300 284
300 285
300 288
300 299
300 309
300 317
300 321
300 323
300 342
301 270
301 275
301 278
301 287
301 310
301 311
301 319
301 326
301 330
301 343
302 254
302 271
302 276
302 277
302 280
302 303
302 314
302 327
302 334
302 338
303 261
303 276
303 277
303 295
303 302
303 308
303 327
303 334
303 337
303 340
304 260
304 289
304 295
304 308
304 312
304 328
304 337
304 350
305 268
305 283
305 286
305 318
305 332
305 347
305 349
306 273
306 288
306 290
306 299
306 313
306 322
306 323
306 339
307 264
307 265
307 292
307 297
307 320
307 324
307 335
307 352
307 356
308 277
308 289
308 295
308 303
308 304
308 328
308 337
308 340
308 350
309 285
309 294
309 300
309 317
309 319
309 321
309 331
309 336
310 275
310 278
310 287
310 293
310 301
310 311
310 325
310 326
310 330
310 343
310 344
310 358
311 275
311 278
311 293
311 301
311 310
311 312
311 325
311 326
311 344
311 358
312 279
312 289
312 293
312 304
312 311
312 325
312 328
312 348
312 350
313 274
313 283
313 290
313 306
313 322
313 332
313 341
313 359
314 271
314 280
314 296
314 298
314 302
314 316
314 327
314 329
314 334
314 338
315 281
315 282
315 286
315 292
315 297
315 318
315 320
315 333
315 345
315 352
315 354
316 291
316 296
316 298
316 314
316 329
316 346
316 355
317 285
317 294
317 299
317 300
317 309
317 321
317 331
317 336
317 342
317 361
317 364
318 281
318 286
318 305
318 315
318 345
318 347
318 349
318 354
319 287
319 294
319 301
319 309
319 330
319 331
319 343
319 351
319 373
320 282
320 292
320 297
320 307
320 315
320 324
320 333
320 352
320 367
321 284
321 285
321 288
321 299
321 300
321 309
321 317
321 323
321 336
321 339
321 342
321 360
321 361
322 288
322 290
322 306
322 313
322 323
322 339
322 341
322 357
322 359
323 284
323 288
323 299
323 300
323 306
323 321
323 322
323 339
323 342
323 357
323 360
324 292
324 307
324 320
324 333
324 335
324 352
324 356
324 377
325 293
325 310
325 311
325 312
325 326
325 344
325 348
325 358
325 375
326 293
326 301
326 310
326 311
326 325
326 330
326 343
326 344
326 358
326 374
326 379
327 302
327 303
327 314
327 329
327 334
327 338
327 368
327 370
328 289
328 304
328 308
328 312
328 337
328 340
328 348
328 350
328 363
328 371
329 296
329 298
329 314
329 316
329 327
329 338
329 346
329 355
329 368
329 370
329 378
330 287
330 301
330 310
330 319
330 326
330 331
330 343
330 351
330 358
330 373
330 374
331 294
331 309
331 317
331 319
331 330
331 336
331 351
331 364
331 366
331 373
332 305
332 313
332 341
332 347
332 349
332 362
332 382
333 292
333 297
333 315
333 320
333 324
333 345
333 352
333 354
333 367
333 381
333 383
334 302
334 303
334 314
334 327
334 338
334 340
334 370
334 376
334 388
335 307
335 324
335 353
335 356
335 369
336 309
336 317
336 321
336 331
336 342
336 361
336 364
336 366
336 384
337 295
337 303
337 304
337 308
337 328
337 340
337 350
337 363
337 371
337 376
337 380
338 302
338 314
338 327
338 329
338 334
338 355
338 368
338 370
338 388
339 306
339 321
339 322
339 323
339 342
339 357
339 359
339 360
339 385
339 386
340 303
340 308
340 328
340 334
340 337
340 350
340 363
340 376
340 380
341 313
341 322
341 332
341 347
341 359
341 362
341 382
341 387
342 299
342 300
342 317
342 321
342 323
342 336
342 339
342 357
342 360
342 361
342 386
343 301
343 310
343 319
343 326
343 330
343 344
343 351
343 358
343 373
343 374
344 310
344 311
344 325
344 326
344 343
344 348
344 358
344 375
344 379
344 394
345 315
345 318
345 333
345 352
345 354
345 367
345 372
345 381
346 298
346 316
346 329
346 355
346 365
346 378
346 389
347 305
347 318
347 332
347 341
347 349
347 362
347 372
347 382
347 392
347 395
348 312
348 325
348 328
348 344
348 350
348 371
348 375
348 390
349 305
349 318
349 332
349 347
349 354
349 362
349 372
349 392
350 304
350 308
350 312
350 328
350 337
350 340
350 348
350 363
350 371
350 375
350 380
350 390
350 400
351 319
351 330
351 331
351 343
351 358
351 366
351 373
351 374
351 391
352 307
352 315
352 320
352 324
352 333
352 345
352 356
352 367
352 377
352 383
352 398
353 335
353 356
353 369
353 393
354 315
354 318
354 333
354 345
354 349
354 367
354 372
354 381
354 399
355 316
355 329
355 338
355 346
355 365
355 368
355 378
355 401
355 404
356 307
356 324
356 335
356 352
356 353
356 369
356 377
356 383
356 393
356 408
357 322
357 323
357 339
357 342
357 359
357 360
357 361
357 385
357 386
357 402
358 310
358 311
358 325
358 326
358 330
358 343
358 344
358 351
358 374
358 379
358 394
358 406
359 313
359 322
359 339
359 341
359 357
359 362
359 382
359 385
359 387
359 396
359 402
360 321
360 323
360 339
360 342
360 357
360 361
360 384
360 385
360 386
360 403
361 317
361 321
361 336
361 342
361 357
361 360
361 364
361 384
361 386
361 403
362 332
362 341
362 347
362 349
362 359
362 372
362 382
362 387
362 392
362 395
362 396
363 328
363 337
363 340
363 350
363 371
363 376
363 380
363 390
363 397
363 400
364 317
364 331
364 336
364 361
364 366
364 384
364 386
364 403
365 346
365 355
365 378
365 389
365 401
366 331
366 336
366 351
366 364
366 373
366 384
366 391
366 407
366 416
367 320
367 333
367 345
367 352
367 354
367 377
367 381
367 383
367 398
367 413
368 327
368 329
368 338
368 355
368 370
368 378
368 388
368 404
368 410
369 335
369 353
369 356
369 377
369 393
369 405
370 327
370 329
370 334
370 338
370 368
370 376
370 378
370 388
370 410
371 328
371 337
371 348
371 350
371 363
371 375
371 380
371 390
371 400
372 345
372 347
372 349
372 354
372 362
372 381
372 392
372 395
372 399
372 412
373 319
373 330
373 331
373 343
373 351
373 366
373 374
373 391
373 407
373 411
374 326
374 330
374 343
374 351
374 358
374 373
374 379
374 391
374 394
374 406
374 411
375 325
375 344
375 348
375 350
375 371
375 379
375 390
375 400
375 409
375 423
376 334
376 337
376 340
376 363
376 370
376 380
376 388
376 397
377 324
377 352
377 356
377 367
377 369
377 383
377 393
377 398
377 408
378 329
378 346
378 355
378 365
378 368
378 370
378 389
378 401
378 404
378 410
378 415
379 326
379 344
379 358
379 374
379 375
379 394
379 406
379 409
379 420
380 337
380 340
380 350
380 363
380 371
380 376
380 390
380 397
380 400
380 421
381 333
381 345
381 354
381 367
381 372
381 383
381 398
381 399
381 413
382 332
382 341
382 347
382 359
382 362
382 387
382 392
382 395
382 396
382 412
382 430
383 333
383 352
383 356
383 367
383 377
383 381
383 398
383 408
383 413
383 422
384 336
384 360
384 361
384 364
384 366
384 386
384 403
384 416
385 339
385 357
385 359
385 360
385 386
385 387
385 396
385 402
385 414
385 424
386 339
386 342
386 357
386 360
386 361
386 364
386 384
386 385
386 403
387 341
387 359
387 362
387 382
387 385
387 395
387 396
387 402
387 414
387 430
388 334
388 338
388 368
388 370
388 376
388 397
388 410
388 417
388 419
388 428
389 346
389 365
389 378
389 401
389 415
389 426
390 348
390 350
390 363
390 371
390 375
390 380
390 400
390 409
390 421
390 423
390 431
391 351
391 366
391 373
391 374
391 406
391 407
391 411
391 416
391 438
392 347
392 349
392 362
392 372
392 382
392 395
392 399
392 412
392 425
392 427
393 353
393 356
393 369
393 377
393 405
393 408
393 418
393 432
394 344
394 358
394 374
394 379
394 406
394 409
394 411
394 420
394 436
395 347
395 362
395 372
395 382
395 387
395 392
395 396
395 412
395 425
395 430
395 437
395 444
396 359
396 362
396 382
396 385
396 387
396 395
396 402
396 414
396 430
396 437
397 363
397 376
397 380
397 388
397 400
397 417
397 421
397 428
397 439
398 352
398 367
398 377
398 381
398 383
398 408
398 413
398 422
398 434
399 354
399 372
399 381
399 392
399 412
399 425
399 427
399 434
400 350
400 363
400 371
400 375
400 380
400 390
400 397
400 421
400 423
400 431
400 439
401 355
401 365
401 378
401 389
401 404
401 415
401 426
401 429
401 446
402 357
402 359
402 385
402 387
402 396
402 414
402 424
402 430
402 442
403 360
403 361
403 364
403 384
403 386
403 433
403 441
404 355
404 368
404 378
404 401
404 410
404 415
404 419
404 429
404 435
404 449
405 369
405 393
405 418
405 440
406 358
406 374
406 379
406 391
406 394
406 409
406 411
406 420
406 436
406 438
407 366
407 373
407 391
407 411
407 416
407 433
407 438
407 453
408 356
408 377
408 383
408 393
408 398
408 413
408 422
408 432
408 443
408 445
408 455
409 375
409 379
409 390
409 394
409 406
409 420
409 423
409 431
409 436
409 450
410 368
410 370
410 378
410 388
410 404
410 417
410 419
410 429
410 435
410 449
410 451
411 373
411 374
411 391
411 394
411 406
411 407
411 416
411 420
411 436
411 438
412 372
412 382
412 392
412 395
412 399
412 425
412 427
412 430
412 437
412 444
412 458
412 461
413 367
413 381
413 383
413 398
413 408
413 422
413 434
413 443
413 447
414 385
414 387
414 396
414 402
414 424
414 430
414 442
414 462
415 378
415 389
415 401
415 404
415 426
415 429
415 446
415 449
416 366
416 384
416 391
416 407
416 411
416 433
416 438
416 453
417 388
417 397
417 410
417 419
417 428
417 435
417 439
417 448
417 451
417 452
417 464
418 393
418 405
418 432
418 440
418 445
418 454
419 388
419 404
419 410
419 417
419 428
419 435
419 448
419 449
419 451
419 464
420 379
420 394
420 406
420 409
420 411
420 423
420 436
420 450
420 459
421 380
421 390
421 397
421 400
421 428
421 431
421 439
421 452
421 460
422 383
422 398
422 408
422 413
422 432
422 434
422 443
422 445
422 455
423 375
423 390
423 400
423 409
423 420
423 431
423 450
423 456
424 385
424 402
424 414
424 442
424 457
424 462
425 392
425 395
425 399
425 412
425 427
425 437
425 444
425 447
425 458
425 461
426 389
426 401
426 415
426 429
426 446
427 392
427 399
427 412
427 425
427 434
427 444
427 447
427 461
427 468
428 388
428 397
428 417
428 419
428 421
428 439
428 448
428 452
428 471
429 401
429 404
429 410
429 415
429 426
429 435
429 446
429 449
429 465
430 382
430 387
430 395
430 396
430 402
430 412
430 414
430 437
430 442
430 444
430 458
430 469
431 390
431 400
431 409
431 421
431 423
431 450
431 456
431 460
431 467
431 476
432 393
432 408
432 418
432 422
432 443
432 445
432 454
432 455
433 403
433 407
433 416
433 438
433 453
433 463
433 475
434 398
434 399
434 413
434 422
434 427
434 447
434 468
434 472
435 404
435 410
435 417
435 419
435 429
435 448
435 449
435 451
435 464
435 465
435 477
436 394
436 406
436 409
436 411
436 420
436 438
436 450
436 459
436 479
437 395
437 396
437 412
437 425
437 430
437 444
437 458
437 469
438 391
438 406
438 407
438 411
438 416
438 433
438 436
438 453
438 466
439 397
439 400
439 417
439 421
439 428
439 448
439 452
439 460
439 474
440 405
440 418
440 445
440 454
440 481
441 403
441 457
441 463
441 470
442 402
442 414
442 424
442 430
442 457
442 462
442 469
442 484
443 408
443 413
443 422
443 432
443 445
443 454
443 455
443 478
444 395
444 412
444 425
444 427
444 430
444 437
444 458
444 461
445 408
445 418
445 422
445 432
445 440
445 443
445 454
445 455
445 478
445 486
446 401
446 415
446 426
446 429
446 465
446 480
447 413
447 425
447 427
447 434
447 461
447 468
447 472
447 482
447 490
448 417
448 419
448 428
448 435
448 439
448 451
448 452
448 464
448 471
448 493
449 404
449 410
449 415
449 419
449 429
449 435
449 451
449 464
449 465
449 477
449 494
450 409
450 420
450 423
450 431
450 436
450 456
450 459
450 473
450 476
450 479
450 492
450 495
451 410
451 417
451 419
451 435
451 448
451 449
451 464
451 465
451 471
451 477
452 417
452 421
452 428
452 439
452 448
452 460
452 464
452 471
452 474
452 491
452 493
453 407
453 416
453 433
453 438
453 466
453 475
454 418
454 432
454 440
454 443
454 445
454 455
454 478
454 481
454 486
454 503
455 408
455 422
455 432
455 443
455 445
455 454
455 478
455 486
456 423
456 431
456 450
456 460
456 467
456 473
456 476
456 492
456 496
457 424
457 441
457 442
457 462
457 470
457 484
457 487
457 489
458 412
458 425
458 430
458 437
458 444
458 461
458 469
458 485
458 501
459 420
459 436
459 450
459 473
459 479
459 488
459 495
460 421
460 431
460 439
460 452
460 456
460 467
460 474
460 476
460 496
460 497
461 412
461 425
461 427
461 444
461 447
461 458
461 468
461 472
461 482
461 490
461 501
462 414
462 424
462 442
462 457
462 469
462 484
462 485
462 489
462 508
463 433
463 441
463 470
463 475
463 483
463 487
463 505
464 417
464 419
464 435
464 448
464 449
464 451
464 452
464 471
464 477
464 493
464 494
464 502
464 504
465 429
465 435
465 446
465 449
465 451
465 477
465 480
465 494
465 504
465 509
466 438
466 453
466 475
466 488
467 431
467 456
467 460
467 474
467 476
467 492
467 496
467 497
468 427
468 434
468 447
468 461
468 472
468 482
468 490
468 514
469 430
469 437
469 442
469 458
469 462
469 484
469 485
469 506
469 508
470 441
470 457
470 463
470 483
470 487
470 489
470 505
470 510
471 428
471 448
471 451
471 452
471 464
471 474
471 477
471 491
471 493
471 502
471 520
472 434
472 447
472 461
472 468
472 482
472 490
472 498
472 499
472 512
473 450
473 456
473 459
473 476
473 479
473 492
473 495
473 511
474 439
474 452
474 460
474 467
474 471
474 491
474 496
474 497
474 515
475 433
475 453
475 463
475 466
475 483
475 505
475 516
476 431
476 450
476 456
476 460
476 467
476 473
476 492
476 496
476 511
476 517
476 524
477 435
477 449
477 451
477 464
477 465
477 471
477 493
477 494
477 502
477 504
477 523
477 526
478 443
478 445
478 454
478 455
478 486
478 498
478 499
478 507
478 522
479 436
479 450
479 459
479 473
479 488
479 495
479 511
479 513
480 446
480 465
480 494
480 500
480 509
481 440
481 454
481 486
481 503
482 447
482 461
482 468
482 472
482 490
482 501
482 514
483 463
483 470
483 475
483 487
483 505
483 510
483 525
484 442
484 457
484 462
484 469
484 485
484 489
484 506
484 508
484 518
484 527
485 458
485 462
485 469
485 484
485 501
485 506
485 508
485 521
485 529
486 445
486 454
486 455
486 478
486 481
486 503
486 507
486 522
487 457
487 463
487 470
487 483
487 489
487 505
487 510
487 518
487 525
487 530
487 533
488 459
488 466
488 479
488 495
488 513
488 516
488 519
488 538
489 457
489 462
489 470
489 484
489 487
489 508
489 510
489 518
489 527
489 530
490 447
490 461
490 468
490 472
490 482
490 499
490 512
490 514
491 452
491 471
491 474
491 493
491 497
491 515
491 520
492 450
492 456
492 467
492 473
492 476
492 495
492 496
492 511
492 517
492 524
493 448
493 452
493 464
493 471
493 477
493 491
493 497
493 502
493 504
493 520
493 526
494 449
494 464
494 465
494 477
494 480
494 502
494 504
494 509
494 523
494 526
495 450
495 459
495 473
495 479
495 488
495 492
495 511
495 513
495 524
495 536
496 456
496 460
496 467
496 474
496 476
496 492
496 497
496 515
496 517
496 524
496 528
496 540
497 460
497 467
497 474
497 491
497 493
497 496
497 515
497 520
497 528
498 472
498 478
498 499
498 507
498 512
498 522
498 532
498 547
499 472
499 478
499 490
499 498
499 507
499 512
499 544
500 480
500 509
500 531
501 458
501 461
501 482
501 485
501 506
501 514
501 521
501 535
502 464
502 471
502 477
502 493
502 494
502 504
502 520
502 523
502 526
502 542
502 546
503 454
503 481
503 486
503 522
503 534
503 537
504 464
504 465
504 477
504 493
504 494
504 502
504 509
504 523
504 526
504 542
504 546
505 463
505 470
505 475
505 483
505 487
505 510
505 525
505 533
505 539
506 469
506 484
506 485
506 501
506 508
506 521
506 529
506 535
506 548
507 478
507 486
507 498
507 499
507 512
507 522
507 532
507 547
508 462
508 469
508 484
508 485
508 489
508 506
508 518
508 527
508 529
508 530
508 555
509 465
509 480
509 494
509 500
509 504
509 523
509 531
510 470
510 483
510 487
510 489
510 505
510 518
510 525
510 530
510 533
510 551
511 473
511 476
511 479
511 492
511 495
511 513
511 517
511 524
511 536
511 540
512 472
512 490
512 498
512 499
512 507
512 544
512 545
513 479
513 488
513 495
513 511
513 519
513 536
513 538
513 561
514 468
514 482
514 490
514 501
514 521
514 535
514 541
514 545
515 474
515 491
515 496
515 497
515 517
515 520
515 528
515 543
515 550
515 556
516 475
516 488
516 519
516 539
516 549
516 553
517 476
517 492
517 496
517 511
517 515
517 524
517 528
517 540
517 556
518 484
518 487
518 489
518 508
518 510
518 527
518 530
518 555
519 488
519 513
519 516
519 538
519 549
519 561
520 471
520 491
520 493
520 497
520 502
520 515
520 526
520 542
520 543
520 562
520 566
521 485
521 501
521 506
521 514
521 529
521 535
521 548
521 560
522 478
522 486
522 498
522 503
522 507
522 532
522 534
522 537
522 547
522 554
523 477
523 494
523 502
523 504
523 509
523 526
523 531
523 546
523 557
523 558
523 570
524 476
524 492
524 495
524 496
524 511
524 517
524 528
524 536
524 540
524 564
525 483
525 487
525 505
525 510
525 530
525 533
525 539
525 551
525 569
526 477
526 493
526 494
526 502
526 504
526 520
526 523
526 542
526 546
526 558
526 570
527 484
527 489
527 508
527 518
527 529
527 530
527 555
527 568
527 574
527 577
528 496
528 497
528 515
528 517
528 524
528 540
528 550
528 556
528 564
529 485
529 506
529 508
529 521
529 527
529 535
529 548
529 555
529 560
529 568
529 582
530 487
530 489
530 508
530 510
530 518
530 525
530 527
530 533
530 551
530 555
530 574
530 577
530 578
531 500
531 509
531 523
531 552
531 557
531 558
531 585
532 498
532 507
532 522
532 537
532 544
532 547
532 554
532 559
532 572
533 487
533 505
533 510
533 525
533 530
533 539
533 551
533 569
533 578
534 503
534 522
534 537
534 554
534 565
534 571
535 501
535 506
535 514
535 521
535 529
535 541
535 548
535 560
535 563
535 567
535 568
535 581
536 495
536 511
536 513
536 524
536 538
536 540
536 561
536 564
536 573
537 503
537 522
537 532
537 534
537 554
537 565
537 571
537 572
538 488
538 513
538 519
538 536
538 549
538 561
538 573
538 579
539 505
539 516
539 525
539 533
539 551
539 553
539 569
539 580
539 592
540 496
540 511
540 517
540 524
540 528
540 536
540 550
540 556
540 564
540 583
541 514
541 535
541 545
541 563
541 567
541 576
541 581
541 595
542 502
542 504
542 520
542 526
542 543
542 546
542 566
542 570
542 584
542 587
543 515
543 520
543 542
543 550
543 562
543 566
543 587
544 499
544 512
544 532
544 545
544 547
544 559
544 575
544 576
545 512
545 514
545 541
545 544
545 559
545 563
545 575
545 576
545 594
546 502
546 504
546 523
546 526
546 542
546 558
546 566
546 570
546 584
547 498
547 507
547 522
547 532
547 544
547 554
547 559
547 572
547 575
547 589
548 506
548 521
548 529
548 535
548 555
548 560
548 567
548 568
548 582
548 597
549 516
549 519
549 538
549 553
549 561
549 579
549 580
550 515
550 528
550 540
550 543
550 556
550 562
550 586
551 510
551 525
551 530
551 533
551 539
551 569
551 574
551 578
551 599
552 531
552 557
552 585
552 602
553 516
553 539
553 549
553 569
553 580
553 592
554 522
554 532
554 534
554 537
554 547
554 565
554 571
554 572
554 589
554 590
554 591
554 603
555 508
555 518
555 527
555 529
555 530
555 548
555 560
555 568
555 574
555 577
555 582
555 588
556 515
556 517
556 528
556 540
556 550
556 562
556 564
556 583
556 586
557 523
557 531
557 552
557 558
557 570
557 585
557 593
558 523
558 526
558 531
558 546
558 557
558 570
558 585
558 593
558 604
559 532
559 544
559 545
559 547
559 572
559 575
559 576
559 589
559 594
560 521
560 529
560 535
560 548
560 555
560 567
560 568
560 581
560 582
560 597
561 513
561 519
561 536
561 538
561 549
561 573
561 579
561 596
561 598
562 520
562 543
562 550
562 556
562 566
562 586
562 587
563 535
563 541
563 545
563 567
563 575
563 576
563 581
563 594
563 595
564 524
564 528
564 536
564 540
564 556
564 573
564 583
564 596
565 534
565 537
565 554
565 571
565 572
565 590
565 591
565 603
566 520
566 542
566 543
566 546
566 562
566 584
566 587
566 601
567 535
567 541
567 548
567 560
567 563
567 568
567 581
567 582
567 595
567 597
568 527
568 529
568 535
568 548
568 555
568 560
568 567
568 577
568 582
568 588
568 597
569 525
569 533
569 539
569 551
569 553
569 574
569 578
569 580
569 592
569 599
570 523
570 526
570 542
570 546
570 557
570 558
570 584
570 593
570 601
570 604
571 534
571 537
571 554
571 565
571 590
571 603
572 532
572 537
572 547
572 554
572 559
572 565
572 589
572 591
572 603
573 536
573 538
573 561
573 564
573 596
573 598
574 527
574 530
574 551
574 555
574 569
574 577
574 578
574 588
574 599
575 544
575 545
575 547
575 559
575 563
575 576
575 589
575 594
576 541
576 544
576 545
576 559
576 563
576 575
576 581
576 594
576 595
577 527
577 530
577 555
577 568
577 574
577 578
577 588
577 599
578 530
578 533
578 551
578 569
578 574
578 577
578 592
578 599
579 538
579 549
579 561
579 598
579 600
580 539
580 549
580 553
580 569
580 592
580 600
581 535
581 541
581 560
581 563
581 567
581 576
581 582
581 595
581 597
582 529
582 548
582 555
582 560
582 567
582 568
582 581
582 588
582 597
583 540
583 556
583 564
583 586
584 542
584 546
584 566
584 570
584 587
584 593
584 601
584 604
585 531
585 552
585 557
585 558
585 602
586 550
586 556
586 562
586 583
586 587
587 542
587 543
587 562
587 566
587 584
587 586
587 601
588 555
588 568
588 574
588 577
588 582
589 547
589 554
589 559
589 572
589 575
589 591
590 554
590 565
590 571
590 591
590 603
591 554
591 565
591 572
591 589
591 590
591 603
592 539
592 553
592 569
592 578
592 580
593 557
593 558
593 570
593 584
593 601
593 604
594 545
594 559
594 563
594 575
594 576
594 595
595 541
595 563
595 567
595 576
595 581
595 594
595 597
596 561
596 564
596 573
596 598
597 548
597 560
597 567
597 568
597 581
597 582
597 595
598 561
598 573
598 579
598 596
598 600
599 551
599 569
599 574
599 577
599 578
600 579
600 580
600 598
601 566
601 570
601 584
601 587
601 593
601 604
602 552
602 585
603 554
603 565
603 571
603 572
603 590
603 591
604 558
604 570
604 584
604 593
604 601
