1 8
1 9
1 17
1 33
1 36
1 38
2 6
2 20
2 22
2 23
2 27
2 40
2 50
2 59
3 10
3 13
3 18
3 28
3 37
3 42
3 53
4 12
4 14
4 30
4 32
4 34
4 57
4 58
5 7
5 19
5 24
5 25
5 26
5 39
5 55
6 2
6 23
6 27
6 29
6 31
6 40
6 44
6 52
7 5
7 14
7 19
7 26
7 32
7 39
7 46
7 49
8 1
8 9
8 11
8 33
8 36
8 47
9 1
9 8
9 11
9 16
9 33
9 43
9 47
10 3
10 13
10 18
10 21
10 28
10 37
10 41
10 56
11 8
11 9
11 15
11 16
11 43
11 45
11 47
12 4
12 18
12 30
12 34
12 42
12 58
12 62
13 3
13 10
13 21
13 28
13 37
13 41
14 4
14 7
14 19
14 26
14 32
14 34
14 46
14 49
14 54
14 70
15 11
15 16
15 20
15 35
15 45
15 48
15 64
15 68
16 9
16 11
16 15
16 35
16 43
16 45
16 47
16 63
16 64
16 65
17 1
17 33
17 36
17 38
17 67
18 3
18 10
18 12
18 28
18 30
18 42
18 53
18 62
18 73
19 5
19 7
19 14
19 24
19 25
19 26
19 39
19 46
19 49
19 55
19 61
20 2
20 15
20 22
20 23
20 35
20 45
20 48
20 50
20 68
21 10
21 13
21 37
21 41
21 60
21 79
22 2
22 20
22 23
22 27
22 35
22 40
22 48
22 50
22 59
22 76
23 2
23 6
23 20
23 22
23 27
23 29
23 40
23 50
23 52
23 59
23 74
24 5
24 19
24 25
24 29
24 31
24 39
24 44
24 51
24 55
24 72
25 5
25 19
25 24
25 26
25 31
25 39
25 51
25 55
25 72
25 80
26 5
26 7
26 14
26 19
26 25
26 32
26 39
26 46
26 49
26 54
26 61
26 70
27 2
27 6
27 22
27 23
27 29
27 31
27 40
27 44
27 52
27 59
27 74
28 3
28 10
28 13
28 18
28 37
28 42
28 53
28 56
28 73
28 82
29 6
29 23
29 24
29 27
29 31
29 40
29 44
29 51
29 52
29 71
29 74
30 4
30 12
30 18
30 34
30 42
30 53
30 58
30 62
30 73
31 6
31 24
31 25
31 27
31 29
31 44
31 51
31 71
31 72
32 4
32 7
32 14
32 26
32 34
32 46
32 49
32 54
32 57
32 58
32 70
32 75
33 1
33 8
33 9
33 17
33 36
33 38
33 47
33 66
33 67
33 69
33 78
34 4
34 12
34 14
34 30
34 32
34 49
34 54
34 57
34 58
34 62
34 75
34 93
35 15
35 16
35 20
35 22
35 45
35 48
35 50
35 64
35 68
35 76
35 77
36 1
36 8
36 17
36 33
36 38
36 66
36 67
36 69
36 90
37 3
37 10
37 13
37 21
37 28
37 41
37 53
37 56
37 87
37 91
38 1
38 17
38 33
38 36
38 66
38 67
38 81
38 90
39 5
39 7
39 19
39 24
39 25
39 26
39 46
39 51
39 55
39 61
39 80
39 84
39 85
40 2
40 6
40 22
40 23
40 27
40 29
40 44
40 50
40 52
40 59
40 74
40 83
41 10
41 13
41 21
41 37
41 56
41 60
41 79
41 87
41 91
41 96
42 3
42 12
42 18
42 28
42 30
42 53
42 56
42 58
42 62
42 73
42 82
42 100
43 9
43 11
43 16
43 45
43 47
43 63
43 64
43 65
43 69
43 78
43 89
44 6
44 24
44 27
44 29
44 31
44 40
44 51
44 52
44 71
44 72
44 74
44 88
44 92
45 11
45 15
45 16
45 20
45 35
45 43
45 48
45 63
45 64
45 65
45 68
45 77
45 89
46 7
46 14
46 19
46 26
46 32
46 39
46 49
46 54
46 55
46 61
46 70
46 75
46 80
46 84
46 94
47 8
47 9
47 11
47 16
47 33
47 43
47 63
47 65
47 66
47 69
47 78
47 99
48 15
48 20
48 22
48 35
48 45
48 50
48 59
48 64
48 68
48 76
48 77
49 7
49 14
49 19
49 26
49 32
49 34
49 46
49 54
49 57
49 61
49 70
49 75
49 84
49 94
49 98
50 2
50 20
50 22
50 23
50 35
50 40
50 48
50 59
50 68
50 76
50 83
51 24
51 25
51 29
51 31
51 39
51 44
51 55
51 71
51 72
51 80
51 85
51 92
51 95
52 6
52 23
52 27
52 29
52 40
52 44
52 59
52 71
52 74
52 83
52 88
53 3
53 18
53 28
53 30
53 37
53 42
53 56
53 62
53 73
53 82
53 91
53 100
53 105
54 14
54 26
54 32
54 34
54 46
54 49
54 57
54 58
54 70
54 75
54 93
54 94
54 98
55 5
55 19
55 24
55 25
55 39
55 46
55 51
55 61
55 72
55 80
55 84
55 85
55 95
55 101
56 10
56 28
56 37
56 41
56 42
56 53
56 73
56 82
56 87
56 91
56 96
56 118
57 4
57 32
57 34
57 49
57 54
57 58
57 62
57 70
57 75
57 93
57 94
57 97
57 98
57 116
58 4
58 12
58 30
58 32
58 34
58 42
58 54
58 57
58 62
58 73
58 75
58 93
58 97
58 98
58 116
58 119
59 2
59 22
59 23
59 27
59 40
59 48
59 50
59 52
59 74
59 76
59 83
59 108
59 111
59 115
60 21
60 41
60 79
60 87
60 96
60 102
61 19
61 26
61 39
61 46
61 49
61 55
61 70
61 75
61 80
61 84
61 94
61 101
61 107
62 12
62 18
62 30
62 34
62 42
62 53
62 57
62 58
62 73
62 82
62 93
62 97
62 100
62 105
62 119
62 123
63 16
63 43
63 45
63 47
63 64
63 65
63 69
63 78
63 89
63 104
63 109
63 112
64 15
64 16
64 35
64 43
64 45
64 48
64 63
64 65
64 68
64 77
64 89
64 103
64 104
64 109
65 16
65 43
65 45
65 47
65 63
65 64
65 77
65 78
65 89
65 103
65 104
65 109
66 33
66 36
66 38
66 47
66 67
66 69
66 78
66 90
66 99
66 113
67 17
67 33
67 36
67 38
67 66
67 81
67 90
67 110
67 113
67 122
68 15
68 20
68 35
68 45
68 48
68 50
68 64
68 76
68 77
68 103
68 106
68 108
68 126
69 33
69 36
69 43
69 47
69 63
69 66
69 78
69 90
69 99
69 112
69 113
70 14
70 26
70 32
70 46
70 49
70 54
70 57
70 61
70 75
70 80
70 84
70 94
70 98
70 101
70 107
70 117
71 29
71 31
71 44
71 51
71 52
71 72
71 74
71 85
71 88
71 92
71 95
71 125
71 128
72 24
72 25
72 31
72 44
72 51
72 55
72 71
72 80
72 85
72 88
72 92
72 95
72 130
73 18
73 28
73 30
73 42
73 53
73 56
73 58
73 62
73 82
73 97
73 100
73 105
73 123
73 129
74 23
74 27
74 29
74 40
74 44
74 52
74 59
74 71
74 83
74 88
74 92
74 111
74 114
74 115
74 125
75 32
75 34
75 46
75 49
75 54
75 57
75 58
75 61
75 70
75 84
75 93
75 94
75 98
75 107
75 116
75 117
75 121
76 22
76 35
76 48
76 50
76 59
76 68
76 77
76 83
76 106
76 108
76 111
76 126
77 35
77 45
77 48
77 64
77 65
77 68
77 76
77 89
77 103
77 104
77 106
77 126
77 136
78 33
78 43
78 47
78 63
78 65
78 66
78 69
78 99
78 109
78 112
78 132
78 133
79 21
79 41
79 60
79 87
79 91
79 96
79 102
79 137
80 25
80 39
80 46
80 51
80 55
80 61
80 70
80 72
80 84
80 85
80 95
80 101
80 107
80 124
81 38
81 67
81 86
81 90
81 110
81 120
81 122
82 28
82 42
82 53
82 56
82 62
82 73
82 91
82 96
82 100
82 105
82 118
82 129
82 139
83 40
83 50
83 52
83 59
83 74
83 76
83 88
83 108
83 111
83 114
83 115
84 39
84 46
84 49
84 55
84 61
84 70
84 75
84 80
84 94
84 98
84 101
84 107
84 117
84 140
84 144
85 39
85 51
85 55
85 71
85 72
85 80
85 92
85 95
85 101
85 124
85 130
86 81
86 110
86 120
87 37
87 41
87 56
87 60
87 79
87 91
87 96
87 102
87 127
87 137
88 44
88 52
88 71
88 72
88 74
88 83
88 92
88 95
88 114
88 115
88 125
88 128
88 146
89 43
89 45
89 63
89 64
89 65
89 77
89 103
89 104
89 109
89 132
89 134
89 135
90 36
90 38
90 66
90 67
90 69
90 81
90 99
90 110
90 113
90 120
90 122
90 131
90 148
91 37
91 41
91 53
91 56
91 79
91 82
91 87
91 96
91 105
91 118
91 127
91 145
92 44
92 51
92 71
92 72
92 74
92 85
92 88
92 95
92 114
92 125
92 128
92 130
92 149
93 34
93 54
93 57
93 58
93 62
93 75
93 97
93 98
93 100
93 116
93 119
93 121
93 123
94 46
94 49
94 54
94 57
94 61
94 70
94 75
94 84
94 98
94 101
94 107
94 116
94 117
94 121
94 144
94 150
95 51
95 55
95 71
95 72
95 80
95 85
95 88
95 92
95 124
95 128
95 130
95 149
96 41
96 56
96 60
96 79
96 82
96 87
96 91
96 102
96 118
96 127
96 137
96 145
96 151
97 57
97 58
97 62
97 73
97 93
97 100
97 105
97 116
97 119
97 123
97 129
97 153
98 49
98 54
98 57
98 58
98 70
98 75
98 84
98 93
98 94
98 107
98 116
98 117
98 119
98 121
98 150
99 47
99 66
99 69
99 78
99 90
99 112
99 113
99 122
99 131
99 132
99 133
99 147
100 42
100 53
100 62
100 73
100 82
100 93
100 97
100 105
100 119
100 123
100 129
100 139
100 153
100 156
101 55
101 61
101 70
101 80
101 84
101 85
101 94
101 107
101 117
101 124
101 140
101 144
101 159
102 60
102 79
102 87
102 96
102 127
102 137
102 157
103 64
103 65
103 68
103 77
103 89
103 104
103 106
103 109
103 126
103 134
103 135
103 136
103 138
104 63
104 64
104 65
104 77
104 89
104 103
104 106
104 109
104 126
104 132
104 134
104 135
104 136
105 53
105 62
105 73
105 82
105 91
105 97
105 100
105 118
105 119
105 123
105 129
105 139
105 145
105 156
105 158
106 68
106 76
106 77
106 103
106 104
106 108
106 111
106 126
106 134
106 136
106 138
106 141
106 142
106 164
107 61
107 70
107 75
107 80
107 84
107 94
107 98
107 101
107 117
107 124
107 140
107 144
107 150
107 161
108 59
108 68
108 76
108 83
108 106
108 111
108 115
108 126
108 138
108 141
108 142
108 143
109 63
109 64
109 65
109 78
109 89
109 103
109 104
109 112
109 132
109 133
109 134
109 135
109 160
109 162
110 67
110 81
110 86
110 90
110 113
110 120
110 122
110 148
110 152
110 155
111 59
111 74
111 76
111 83
111 106
111 108
111 114
111 115
111 138
111 141
111 142
111 143
112 63
112 69
112 78
112 99
112 109
112 113
112 131
112 132
112 133
112 135
112 147
112 160
113 66
113 67
113 69
113 90
113 99
113 110
113 112
113 120
113 122
113 131
113 133
113 147
113 148
114 74
114 83
114 88
114 92
114 111
114 115
114 125
114 128
114 142
114 143
114 146
115 59
115 74
115 83
115 88
115 108
115 111
115 114
115 125
115 141
115 142
115 143
115 146
116 57
116 58
116 75
116 93
116 94
116 97
116 98
116 117
116 119
116 121
116 123
116 150
116 153
116 163
116 167
117 70
117 75
117 84
117 94
117 98
117 101
117 107
117 116
117 121
117 144
117 150
117 163
118 56
118 82
118 91
118 96
118 105
118 127
118 129
118 139
118 145
118 151
118 158
119 58
119 62
119 93
119 97
119 98
119 100
119 105
119 116
119 121
119 123
119 129
119 153
119 156
119 167
119 171
120 81
120 86
120 90
120 110
120 113
120 122
120 148
120 152
120 155
120 169
121 75
121 93
121 94
121 98
121 116
121 117
121 119
121 150
121 163
121 167
122 67
122 81
122 90
122 99
122 110
122 113
122 120
122 131
122 147
122 148
122 155
122 169
123 62
123 73
123 93
123 97
123 100
123 105
123 116
123 119
123 129
123 139
123 153
123 156
123 158
123 171
123 179
124 80
124 85
124 95
124 101
124 107
124 130
124 140
124 144
124 154
124 159
124 170
124 173
125 71
125 74
125 88
125 92
125 114
125 115
125 128
125 130
125 143
125 146
125 149
125 177
126 68
126 76
126 77
126 103
126 104
126 106
126 108
126 134
126 136
126 138
126 141
126 142
126 164
126 166
126 180
127 87
127 91
127 96
127 102
127 118
127 137
127 139
127 145
127 151
127 157
127 176
128 71
128 88
128 92
128 95
128 114
128 125
128 130
128 146
128 149
128 170
128 178
129 73
129 82
129 97
129 100
129 105
129 118
129 119
129 123
129 139
129 145
129 153
129 156
129 158
129 179
130 72
130 85
130 92
130 95
130 124
130 125
130 128
130 149
130 154
130 170
130 173
131 90
131 99
131 112
131 113
131 122
131 133
131 147
131 148
131 168
131 169
131 182
131 185
132 78
132 89
132 99
132 104
132 109
132 112
132 133
132 134
132 135
132 147
132 160
132 162
132 168
132 175
133 78
133 99
133 109
133 112
133 113
133 131
133 132
133 135
133 147
133 148
133 160
133 168
133 175
134 89
134 103
134 104
134 106
134 109
134 126
134 132
134 135
134 136
134 138
134 162
134 164
134 165
134 166
134 175
135 89
135 103
135 104
135 109
135 112
135 132
135 133
135 134
135 136
135 160
135 162
135 165
135 166
135 175
136 77
136 103
136 104
136 106
136 126
136 134
136 135
136 138
136 141
136 162
136 164
136 165
136 166
136 180
137 79
137 87
137 96
137 102
137 127
137 145
137 151
137 157
137 176
137 183
138 103
138 106
138 108
138 111
138 126
138 134
138 136
138 141
138 142
138 164
138 166
138 180
138 184
139 82
139 100
139 105
139 118
139 123
139 127
139 129
139 145
139 156
139 158
139 179
139 186
140 84
140 101
140 107
140 124
140 144
140 154
140 159
140 161
140 172
140 173
140 191
141 106
141 108
141 111
141 115
141 126
141 136
141 138
141 142
141 143
141 164
141 180
141 184
141 187
142 106
142 108
142 111
142 114
142 115
142 126
142 138
142 141
142 143
142 174
142 184
142 187
143 108
143 111
143 114
143 115
143 125
143 141
143 142
143 146
143 174
143 177
143 187
144 84
144 94
144 101
144 107
144 117
144 124
144 140
144 150
144 159
144 161
144 172
144 191
144 196
145 91
145 96
145 105
145 118
145 127
145 129
145 137
145 139
145 151
145 158
145 176
145 186
145 192
145 204
146 88
146 114
146 115
146 125
146 128
146 143
146 149
146 174
146 177
146 178
147 99
147 112
147 113
147 122
147 131
147 132
147 133
147 148
147 160
147 168
147 169
147 182
147 185
147 195
148 90
148 110
148 113
148 120
148 122
148 131
148 133
148 147
148 155
148 168
148 169
148 182
148 185
148 201
149 92
149 95
149 125
149 128
149 130
149 146
149 154
149 170
149 173
149 177
149 178
149 193
150 94
150 98
150 107
150 116
150 117
150 121
150 144
150 161
150 163
150 167
150 172
150 198
150 208
151 96
151 118
151 127
151 137
151 145
151 157
151 176
151 183
151 192
151 203
152 110
152 120
152 155
152 181
152 188
152 189
152 190
153 97
153 100
153 116
153 119
153 123
153 129
153 156
153 163
153 167
153 171
153 179
154 124
154 130
154 140
154 149
154 159
154 161
154 170
154 173
154 191
154 193
154 202
155 110
155 120
155 122
155 148
155 152
155 169
155 181
155 189
155 190
155 201
155 213
156 100
156 105
156 119
156 123
156 129
156 139
156 153
156 158
156 167
156 171
156 179
156 186
157 102
157 127
157 137
157 151
157 176
157 183
157 203
157 206
158 105
158 118
158 123
158 129
158 139
158 145
158 156
158 179
158 186
158 192
158 204
159 101
159 124
159 140
159 144
159 154
159 161
159 170
159 172
159 173
159 191
159 193
159 196
159 202
160 109
160 112
160 132
160 133
160 135
160 147
160 162
160 165
160 168
160 175
160 185
160 194
160 195
160 200
160 215
161 107
161 140
161 144
161 150
161 154
161 159
161 172
161 173
161 191
161 196
161 198
161 202
161 208
162 109
162 132
162 134
162 135
162 136
162 160
162 165
162 166
162 175
162 194
162 200
162 209
162 212
163 116
163 117
163 121
163 150
163 153
163 167
163 171
163 172
163 198
163 205
163 208
163 222
164 106
164 126
164 134
164 136
164 138
164 141
164 165
164 166
164 180
164 184
164 197
164 199
164 212
164 221
165 134
165 135
165 136
165 160
165 162
165 164
165 166
165 175
165 180
165 197
165 200
165 209
165 212
166 126
166 134
166 135
166 136
166 138
166 162
166 164
166 165
166 180
166 197
166 199
166 209
166 212
167 116
167 119
167 121
167 150
167 153
167 156
167 163
167 171
167 198
167 205
167 211
168 131
168 132
168 133
168 147
168 148
168 160
168 175
168 182
168 185
168 194
168 195
168 210
168 215
169 120
169 122
169 131
169 147
169 148
169 155
169 181
169 182
169 185
169 190
169 201
169 213
169 224
170 124
170 128
170 130
170 149
170 154
170 159
170 173
170 178
170 191
170 193
170 202
170 207
170 217
171 119
171 123
171 153
171 156
171 163
171 167
171 179
171 205
171 211
171 218
172 140
172 144
172 150
172 159
172 161
172 163
172 191
172 196
172 198
172 205
172 208
172 230
173 124
173 130
173 140
173 149
173 154
173 159
173 161
173 170
173 178
173 191
173 193
173 202
173 217
173 223
174 142
174 143
174 146
174 177
174 184
174 187
174 214
174 216
174 219
175 132
175 133
175 134
175 135
175 160
175 162
175 165
175 168
175 194
175 195
175 200
175 209
175 212
175 215
176 127
176 137
176 145
176 151
176 157
176 183
176 192
176 203
176 204
176 206
177 125
177 143
177 146
177 149
177 174
177 178
177 187
177 207
177 214
177 219
177 225
178 128
178 146
178 149
178 170
178 173
178 177
178 193
178 207
178 214
178 225
178 231
179 123
179 129
179 139
179 153
179 156
179 158
179 171
179 186
179 204
179 211
179 218
179 226
180 126
180 136
180 138
180 141
180 164
180 165
180 166
180 184
180 187
180 197
180 199
180 212
180 216
180 221
181 152
181 155
181 169
181 182
181 189
181 190
181 201
181 213
181 224
182 131
182 147
182 148
182 168
182 169
182 181
182 185
182 195
182 201
182 210
182 224
182 228
183 137
183 151
183 157
183 176
183 192
183 203
183 206
184 138
184 141
184 142
184 164
184 174
184 180
184 187
184 197
184 199
184 216
184 219
185 131
185 147
185 148
185 160
185 168
185 169
185 182
185 194
185 195
185 201
185 210
185 215
185 227
185 228
186 139
186 145
186 156
186 158
186 179
186 192
186 204
186 226
186 239
187 141
187 142
187 143
187 174
187 177
187 180
187 184
187 199
187 214
187 216
187 219
188 152
188 189
188 190
188 220
189 152
189 155
189 181
189 188
189 190
189 213
189 220
189 236
190 152
190 155
190 169
190 181
190 188
190 189
190 201
190 213
190 220
190 236
190 237
191 140
191 144
191 154
191 159
191 161
191 170
191 172
191 173
191 193
191 196
191 202
191 217
191 223
191 230
191 245
192 145
192 151
192 158
192 176
192 183
192 186
192 203
192 204
192 206
192 234
192 238
193 149
193 154
193 159
193 170
193 173
193 178
193 191
193 202
193 207
193 217
193 231
193 232
194 160
194 162
194 168
194 175
194 185
194 195
194 200
194 209
194 210
194 215
194 227
194 233
194 235
195 147
195 160
195 168
195 175
195 182
195 185
195 194
195 200
195 210
195 215
195 227
195 228
195 233
196 144
196 159
196 161
196 172
196 191
196 198
196 202
196 208
196 223
196 230
196 248
197 164
197 165
197 166
197 180
197 184
197 199
197 209
197 212
197 216
197 221
197 241
197 242
198 150
198 161
198 163
198 167
198 172
198 196
198 205
198 208
198 222
198 229
198 230
198 246
199 164
199 166
199 180
199 184
199 187
199 197
199 212
199 216
199 219
199 221
199 242
199 244
199 254
200 160
200 162
200 165
200 175
200 194
200 195
200 209
200 212
200 215
200 233
200 235
200 240
201 148
201 155
201 169
201 181
201 182
201 185
201 190
201 210
201 213
201 224
201 228
201 251
201 253
202 154
202 159
202 161
202 170
202 173
202 191
202 193
202 196
202 217
202 223
202 230
202 232
202 245
202 248
203 151
203 157
203 176
203 183
203 192
203 204
203 206
203 234
203 238
203 249
204 145
204 158
204 176
204 179
204 186
204 192
204 203
204 226
204 234
204 238
204 239
205 163
205 167
205 171
205 172
205 198
205 208
205 211
205 222
205 229
205 246
205 250
205 252
206 157
206 176
206 183
206 192
206 203
206 238
206 249
207 170
207 177
207 178
207 193
207 214
207 217
207 225
207 231
207 232
208 150
208 161
208 163
208 172
208 196
208 198
208 205
208 222
208 223
208 230
208 246
208 248
209 162
209 165
209 166
209 175
209 194
209 197
209 200
209 212
209 215
209 233
209 235
209 240
209 241
209 242
210 168
210 182
210 185
210 194
210 195
210 201
210 215
210 224
210 227
210 228
210 233
210 253
210 256
211 167
211 171
211 179
211 205
211 218
211 222
211 229
211 243
211 250
211 252
212 162
212 164
212 165
212 166
212 175
212 180
212 197
212 199
212 200
212 209
212 221
212 235
212 240
212 241
212 242
213 155
213 169
213 181
213 189
213 190
213 201
213 220
213 224
213 236
213 237
213 251
214 174
214 177
214 178
214 187
214 207
214 219
214 225
214 231
214 247
214 255
215 160
215 168
215 175
215 185
215 194
215 195
215 200
215 209
215 210
215 227
215 228
215 233
215 235
215 256
215 257
216 174
216 180
216 184
216 187
216 197
216 199
216 219
216 221
216 244
216 247
216 254
216 262
217 170
217 173
217 191
217 193
217 202
217 207
217 223
217 231
217 232
217 245
217 260
218 171
218 179
218 211
218 226
218 229
218 243
218 252
219 174
219 177
219 184
219 187
219 199
219 214
219 216
219 225
219 244
219 247
219 255
219 262
220 188
220 189
220 190
220 213
220 236
220 237
221 164
221 180
221 197
221 199
221 212
221 216
221 241
221 242
221 244
221 254
221 264
221 272
222 163
222 198
222 205
222 208
222 211
222 229
222 230
222 246
222 250
222 252
223 173
223 191
223 196
223 202
223 208
223 217
223 230
223 232
223 245
223 248
223 265
223 268
224 169
224 181
224 182
224 201
224 210
224 213
224 228
224 237
224 251
224 253
225 177
225 178
225 207
225 214
225 219
225 231
225 232
225 255
225 258
225 261
226 179
226 186
226 204
226 218
226 234
226 239
226 243
226 259
227 185
227 194
227 195
227 210
227 215
227 228
227 233
227 235
227 253
227 256
227 257
228 182
228 185
228 195
228 201
228 210
228 215
228 224
228 227
228 251
228 253
228 256
229 198
229 205
229 211
229 218
229 222
229 243
229 246
229 250
229 252
229 274
230 172
230 191
230 196
230 198
230 202
230 208
230 222
230 223
230 245
230 246
230 248
230 268
230 271
231 178
231 193
231 207
231 214
231 217
231 225
231 232
231 258
231 260
231 261
231 277
232 193
232 202
232 207
232 217
232 223
232 225
232 231
232 245
232 260
232 261
232 265
233 194
233 195
233 200
233 209
233 210
233 215
233 227
233 235
233 240
233 256
233 257
233 263
234 192
234 203
234 204
234 226
234 238
234 239
234 259
234 266
234 269
235 194
235 200
235 209
235 212
235 215
235 227
235 233
235 240
235 241
235 256
235 257
235 263
235 267
236 189
236 190
236 213
236 220
236 237
236 251
236 279
237 190
237 213
237 220
237 224
237 236
237 251
237 279
237 283
238 192
238 203
238 204
238 206
238 234
238 239
238 249
238 266
238 269
238 270
239 186
239 204
239 226
239 234
239 238
239 243
239 259
239 266
239 275
240 200
240 209
240 212
240 233
240 235
240 241
240 242
240 257
240 263
240 264
240 267
241 197
241 209
241 212
241 221
241 235
241 240
241 242
241 263
241 264
241 267
241 272
242 197
242 199
242 209
242 212
242 221
242 240
242 241
242 244
242 254
242 264
242 267
242 272
242 273
243 211
243 218
243 226
243 229
243 239
243 252
243 259
243 275
243 282
243 284
244 199
244 216
244 219
244 221
244 242
244 247
244 254
244 262
244 264
244 272
244 273
244 276
245 191
245 202
245 217
245 223
245 230
245 232
245 248
245 260
245 265
245 268
245 280
245 287
246 198
246 205
246 208
246 222
246 229
246 230
246 248
246 250
246 252
246 271
246 274
246 285
247 214
247 216
247 219
247 244
247 254
247 255
247 262
247 273
247 276
247 278
248 196
248 202
248 208
248 223
248 230
248 245
248 246
248 265
248 268
248 271
248 280
248 287
249 203
249 206
249 238
249 269
249 270
250 205
250 211
250 222
250 229
250 246
250 252
250 274
250 282
250 285
251 201
251 213
251 224
251 228
251 236
251 237
251 253
251 283
251 286
252 205
252 211
252 218
252 222
252 229
252 243
252 246
252 250
252 274
252 282
252 284
252 293
253 201
253 210
253 224
253 227
253 228
253 251
253 256
253 286
254 199
254 216
254 221
254 242
254 244
254 247
254 262
254 264
254 272
254 273
254 276
255 214
255 219
255 225
255 247
255 258
255 261
255 262
255 276
255 277
255 278
255 281
256 210
256 215
256 227
256 228
256 233
256 235
256 253
256 257
256 263
256 286
256 289
256 291
257 215
257 227
257 233
257 235
257 240
257 256
257 263
257 267
257 289
257 291
257 305
258 225
258 231
258 255
258 260
258 261
258 277
258 278
258 281
258 292
259 226
259 234
259 239
259 243
259 266
259 269
259 275
259 284
259 288
259 290
259 300
260 217
260 231
260 232
260 245
260 258
260 261
260 265
260 277
260 280
260 292
260 295
261 225
261 231
261 232
261 255
261 258
261 260
261 277
261 281
261 292
262 216
262 219
262 244
262 247
262 254
262 255
262 272
262 273
262 276
262 278
263 233
263 235
263 240
263 241
263 256
263 257
263 267
263 291
263 301
263 305
264 221
264 240
264 241
264 242
264 244
264 254
264 267
264 272
264 273
264 303
265 223
265 232
265 245
265 248
265 260
265 268
265 271
265 280
265 287
265 295
266 234
266 238
266 239
266 259
266 269
266 270
266 275
266 288
266 290
266 296
267 235
267 240
267 241
267 242
267 257
267 263
267 264
267 272
267 301
267 309
268 223
268 230
268 245
268 248
268 265
268 271
268 280
268 285
268 287
268 294
268 295
269 234
269 238
269 249
269 259
269 266
269 270
269 288
269 290
269 296
269 299
269 316
270 238
270 249
270 266
270 269
270 290
270 296
270 299
270 316
270 319
271 230
271 246
271 248
271 265
271 268
271 274
271 285
271 287
271 294
271 297
272 221
272 241
272 242
272 244
272 254
272 262
272 264
272 267
272 273
272 276
272 303
272 304
272 318
273 242
273 244
273 247
273 254
273 262
273 264
273 272
273 276
273 278
273 303
273 304
273 326
274 229
274 246
274 250
274 252
274 271
274 282
274 285
274 293
274 297
274 313
274 315
275 239
275 243
275 259
275 266
275 282
275 284
275 288
275 290
275 300
275 311
275 317
276 244
276 247
276 254
276 255
276 262
276 272
276 273
276 278
276 281
276 304
276 308
276 326
276 331
277 231
277 255
277 258
277 260
277 261
277 281
277 292
277 320
277 321
277 323
278 247
278 255
278 258
278 262
278 273
278 276
278 281
278 308
278 320
278 331
279 236
279 237
279 283
279 298
279 306
279 310
279 312
279 314
279 328
280 245
280 248
280 260
280 265
280 268
280 287
280 292
280 295
280 323
280 330
280 334
281 255
281 258
281 261
281 276
281 277
281 278
281 308
281 320
281 321
282 243
282 250
282 252
282 274
282 275
282 284
282 293
282 300
282 311
282 313
282 315
283 237
283 251
283 279
283 298
283 302
283 306
283 312
283 314
283 328
284 243
284 252
284 259
284 275
284 282
284 288
284 293
284 300
284 311
284 315
285 246
285 250
285 268
285 271
285 274
285 287
285 293
285 294
285 297
285 313
285 329
286 251
286 253
286 256
286 289
286 298
286 302
286 307
286 322
286 324
287 245
287 248
287 265
287 268
287 271
287 280
287 285
287 294
287 295
287 297
287 329
287 330
287 334
288 259
288 266
288 269
288 275
288 284
288 290
288 296
288 300
288 311
288 316
288 317
289 256
289 257
289 286
289 291
289 302
289 305
289 307
289 322
289 324
289 332
290 259
290 266
290 269
290 270
290 275
290 288
290 296
290 299
290 300
290 316
290 317
290 336
291 256
291 257
291 263
291 289
291 301
291 305
291 327
291 332
291 349
292 258
292 260
292 261
292 277
292 280
292 295
292 320
292 321
292 323
292 330
292 341
292 345
293 252
293 274
293 282
293 284
293 285
293 297
293 311
293 313
293 315
293 346
293 353
294 268
294 271
294 285
294 287
294 295
294 297
294 313
294 329
294 334
294 343
294 348
295 260
295 265
295 268
295 280
295 287
295 292
295 294
295 323
295 330
295 334
296 266
296 269
296 270
296 288
296 290
296 299
296 316
296 317
296 319
296 336
296 339
297 271
297 274
297 285
297 287
297 293
297 294
297 313
297 329
297 343
297 346
298 279
298 283
298 286
298 302
298 306
298 307
298 314
298 322
298 328
298 338
298 340
299 269
299 270
299 290
299 296
299 316
299 319
299 336
299 339
300 259
300 275
300 282
300 284
300 288
300 290
300 311
300 315
300 317
300 342
300 352
300 356
301 263
301 267
301 291
301 305
301 309
301 318
301 327
301 335
301 349
301 354
301 355
302 283
302 286
302 289
302 298
302 307
302 314
302 322
302 324
302 338
302 340
302 359
303 264
303 272
303 273
303 304
303 309
303 318
303 326
303 333
303 335
303 337
303 355
303 358
304 272
304 273
304 276
304 303
304 318
304 326
304 331
304 333
304 337
304 350
304 365
305 257
305 263
305 289
305 291
305 301
305 307
305 324
305 327
305 332
305 349
305 361
306 279
306 283
306 298
306 310
306 312
306 314
306 328
306 340
306 344
306 360
307 286
307 289
307 298
307 302
307 305
307 322
307 324
307 332
307 338
307 366
308 276
308 278
308 281
308 320
308 326
308 331
308 347
308 350
308 351
308 376
309 267
309 301
309 303
309 318
309 327
309 335
309 337
309 349
309 354
309 355
309 358
310 279
310 306
310 312
310 325
310 344
311 275
311 282
311 284
311 288
311 293
311 300
311 315
311 317
311 342
311 352
311 353
311 356
312 279
312 283
312 306
312 310
312 314
312 325
312 328
312 340
312 344
313 274
313 282
313 285
313 293
313 294
313 297
313 315
313 343
313 346
313 353
313 362
314 279
314 283
314 298
314 302
314 306
314 312
314 322
314 328
314 338
314 340
314 344
314 359
314 360
315 274
315 282
315 284
315 293
315 300
315 311
315 313
315 342
315 346
315 353
316 269
316 270
316 288
316 290
316 296
316 299
316 317
316 319
316 336
316 339
316 364
316 371
317 275
317 288
317 290
317 296
317 300
317 311
317 316
317 336
317 352
317 356
317 364
318 272
318 301
318 303
318 304
318 309
318 333
318 335
318 337
318 354
318 355
318 358
319 270
319 296
319 299
319 316
319 336
319 339
319 374
320 277
320 278
320 281
320 292
320 308
320 321
320 331
320 341
320 345
320 347
320 367
320 372
321 277
321 281
321 292
321 320
321 323
321 330
321 341
321 345
321 347
321 357
321 367
321 372
321 373
322 286
322 289
322 298
322 302
322 307
322 314
322 324
322 332
322 338
322 340
322 359
322 366
323 277
323 280
323 292
323 295
323 321
323 330
323 334
323 341
323 345
323 357
323 363
323 373
323 380
324 286
324 289
324 302
324 305
324 307
324 322
324 332
324 338
324 361
324 366
324 378
325 310
325 312
325 344
326 273
326 276
326 303
326 304
326 308
326 331
326 333
326 337
326 350
326 351
326 365
326 369
327 291
327 301
327 305
327 309
327 332
327 335
327 349
327 354
327 355
327 361
327 370
327 388
328 279
328 283
328 298
328 306
328 312
328 314
328 338
328 340
328 344
328 359
328 360
328 381
329 285
329 287
329 294
329 297
329 334
329 343
329 348
329 362
329 363
329 368
329 375
330 280
330 287
330 292
330 295
330 321
330 323
330 334
330 345
330 348
330 357
330 363
330 373
330 380
330 386
331 276
331 278
331 304
331 308
331 320
331 326
331 347
331 350
331 351
331 367
331 369
331 376
332 289
332 291
332 305
332 307
332 322
332 324
332 327
332 338
332 349
332 361
332 366
332 370
332 378
333 303
333 304
333 318
333 326
333 335
333 337
333 350
333 351
333 355
333 358
333 365
333 369
333 393
334 280
334 287
334 294
334 295
334 323
334 329
334 330
334 348
334 357
334 363
334 368
334 375
334 386
334 390
335 301
335 303
335 309
335 318
335 327
335 333
335 337
335 349
335 354
335 355
335 358
335 370
335 383
336 290
336 296
336 299
336 316
336 317
336 319
336 339
336 352
336 364
336 371
336 374
337 303
337 304
337 309
337 318
337 326
337 333
337 335
337 350
337 354
337 355
337 358
337 365
337 393
338 298
338 302
338 307
338 314
338 322
338 324
338 328
338 332
338 340
338 359
338 360
338 366
338 385
339 296
339 299
339 316
339 319
339 336
339 364
339 371
339 374
340 298
340 302
340 306
340 312
340 314
340 322
340 328
340 338
340 344
340 359
340 360
340 381
341 292
341 320
341 321
341 323
341 345
341 347
341 357
341 367
341 372
341 373
341 382
342 300
342 311
342 315
342 346
342 352
342 353
342 356
342 379
342 384
343 294
343 297
343 313
343 329
343 346
343 348
343 353
343 362
343 368
343 375
343 379
343 387
343 396
344 306
344 310
344 312
344 314
344 325
344 328
344 340
344 360
344 377
344 381
344 389
344 391
345 292
345 320
345 321
345 323
345 330
345 341
345 357
345 363
345 372
345 373
345 380
346 293
346 297
346 313
346 315
346 342
346 343
346 353
346 362
346 379
346 387
346 400
347 308
347 320
347 321
347 331
347 341
347 351
347 367
347 372
347 376
347 382
347 401
348 294
348 329
348 330
348 334
348 343
348 362
348 363
348 368
348 375
348 386
348 390
348 396
349 291
349 301
349 305
349 309
349 327
349 332
349 335
349 354
349 355
349 361
349 370
349 378
349 383
349 388
350 304
350 308
350 326
350 331
350 333
350 337
350 351
350 365
350 369
350 376
350 393
350 395
351 308
351 326
351 331
351 333
351 347
351 350
351 365
351 367
351 369
351 376
351 395
351 403
352 300
352 311
352 317
352 336
352 342
352 356
352 364
352 384
352 392
352 394
353 293
353 311
353 313
353 315
353 342
353 343
353 346
353 356
353 362
353 379
353 384
353 387
353 400
353 402
354 301
354 309
354 318
354 327
354 335
354 337
354 349
354 355
354 358
354 370
354 383
354 388
354 405
355 301
355 303
355 309
355 318
355 327
355 333
355 335
355 337
355 349
355 354
355 358
355 370
355 383
355 397
355 405
356 300
356 311
356 317
356 342
356 352
356 353
356 364
356 384
356 392
356 394
356 404
356 411
357 321
357 323
357 330
357 334
357 341
357 345
357 363
357 372
357 373
357 380
357 386
357 408
357 410
358 303
358 309
358 318
358 333
358 335
358 337
358 354
358 355
358 365
358 383
358 393
358 397
359 302
359 314
359 322
359 328
359 338
359 340
359 360
359 366
359 381
359 385
359 399
359 413
360 306
360 314
360 328
360 338
360 340
360 344
360 359
360 377
360 381
360 389
360 399
360 413
361 305
361 324
361 327
361 332
361 349
361 366
361 370
361 378
361 385
361 388
361 407
361 415
362 313
362 329
362 343
362 346
362 348
362 353
362 368
362 375
362 379
362 387
362 396
362 400
363 323
363 329
363 330
363 334
363 345
363 348
363 357
363 368
363 373
363 375
363 380
363 386
363 390
363 410
363 412
364 316
364 317
364 336
364 339
364 352
364 356
364 371
364 374
364 392
364 394
364 398
364 411
364 416
365 304
365 326
365 333
365 337
365 350
365 351
365 358
365 369
365 376
365 393
365 395
365 397
365 414
365 419
366 307
366 322
366 324
366 332
366 338
366 359
366 361
366 378
366 385
366 399
366 409
367 320
367 321
367 331
367 341
367 347
367 351
367 372
367 373
367 376
367 382
367 401
367 403
367 406
367 421
368 329
368 334
368 343
368 348
368 362
368 363
368 375
368 386
368 390
368 396
368 412
368 424
369 326
369 331
369 333
369 350
369 351
369 365
369 376
369 393
369 395
369 401
369 403
369 414
370 327
370 332
370 335
370 349
370 354
370 355
370 361
370 378
370 383
370 388
370 405
370 407
370 428
371 316
371 336
371 339
371 364
371 374
371 394
371 398
371 418
372 320
372 321
372 341
372 345
372 347
372 357
372 367
372 373
372 376
372 380
372 382
372 401
372 406
372 408
372 421
373 321
373 323
373 330
373 341
373 345
373 357
373 363
373 367
373 372
373 380
373 382
373 406
373 408
373 410
373 430
374 319
374 336
374 339
374 364
374 371
374 398
374 418
374 423
375 329
375 334
375 343
375 348
375 362
375 363
375 368
375 386
375 387
375 390
375 396
375 412
375 424
376 308
376 331
376 347
376 350
376 351
376 365
376 367
376 369
376 372
376 382
376 395
376 401
376 403
376 414
376 425
377 344
377 360
377 381
377 389
377 391
377 422
377 426
377 436
378 324
378 332
378 349
378 361
378 366
378 370
378 385
378 388
378 407
378 409
378 415
378 432
378 437
379 342
379 343
379 346
379 353
379 362
379 384
379 387
379 400
379 402
379 404
379 420
379 427
380 323
380 330
380 345
380 357
380 363
380 372
380 373
380 386
380 390
380 408
380 410
380 412
380 430
380 434
380 439
381 328
381 340
381 344
381 359
381 360
381 377
381 385
381 389
381 399
381 413
381 417
382 341
382 347
382 367
382 372
382 373
382 376
382 401
382 403
382 406
382 408
382 421
382 425
383 335
383 349
383 354
383 355
383 358
383 370
383 388
383 397
383 405
383 428
383 438
384 342
384 352
384 353
384 356
384 379
384 392
384 400
384 402
384 404
384 411
384 427
384 433
385 338
385 359
385 361
385 366
385 378
385 381
385 399
385 409
385 413
385 415
385 417
385 432
386 330
386 334
386 348
386 357
386 363
386 368
386 375
386 380
386 390
386 396
386 410
386 412
386 424
386 431
386 434
386 439
387 343
387 346
387 353
387 362
387 375
387 379
387 396
387 400
387 402
387 420
387 429
387 441
388 327
388 349
388 354
388 361
388 370
388 378
388 383
388 405
388 407
388 415
388 428
388 437
388 444
389 344
389 360
389 377
389 381
389 391
389 413
389 422
389 426
389 436
390 334
390 348
390 363
390 368
390 375
390 380
390 386
390 396
390 412
390 424
390 431
390 439
390 446
391 344
391 377
391 389
391 422
391 426
391 436
392 352
392 356
392 364
392 384
392 394
392 404
392 411
392 416
392 433
392 435
392 440
393 333
393 337
393 350
393 358
393 365
393 369
393 395
393 397
393 414
393 419
393 442
393 447
394 352
394 356
394 364
394 371
394 392
394 398
394 411
394 416
394 435
394 440
394 458
395 350
395 351
395 365
395 369
395 376
395 393
395 403
395 414
395 419
395 425
395 442
395 445
396 343
396 348
396 362
396 368
396 375
396 386
396 387
396 390
396 400
396 412
396 420
396 424
396 429
396 431
396 441
396 446
397 355
397 358
397 365
397 383
397 393
397 405
397 419
397 438
397 442
397 447
397 461
398 364
398 371
398 374
398 394
398 416
398 418
398 423
398 440
398 443
398 462
398 463
399 359
399 360
399 366
399 381
399 385
399 409
399 413
399 417
399 432
399 448
400 346
400 353
400 362
400 379
400 384
400 387
400 396
400 402
400 404
400 420
400 427
400 429
400 441
400 449
400 451
401 347
401 367
401 369
401 372
401 376
401 382
401 403
401 406
401 414
401 421
401 425
401 450
401 453
401 457
402 353
402 379
402 384
402 387
402 400
402 404
402 420
402 427
402 433
402 449
402 451
403 351
403 367
403 369
403 376
403 382
403 395
403 401
403 414
403 421
403 425
403 442
403 445
403 453
404 356
404 379
404 384
404 392
404 400
404 402
404 411
404 420
404 427
404 433
404 435
404 451
404 452
405 354
405 355
405 370
405 383
405 388
405 397
405 407
405 428
405 438
405 444
405 454
405 461
406 367
406 372
406 373
406 382
406 401
406 408
406 410
406 421
406 425
406 430
406 450
406 457
407 361
407 370
407 378
407 388
407 405
407 409
407 415
407 428
407 432
407 437
407 444
408 357
408 372
408 373
408 380
408 382
408 406
408 410
408 421
408 430
408 434
408 439
408 450
408 466
409 366
409 378
409 385
409 399
409 407
409 415
409 417
409 432
409 437
409 468
410 357
410 363
410 373
410 380
410 386
410 406
410 408
410 412
410 430
410 431
410 434
410 439
410 460
410 466
411 356
411 364
411 384
411 392
411 394
411 404
411 416
411 427
411 433
411 435
411 440
411 452
411 456
411 458
412 363
412 368
412 375
412 380
412 386
412 390
412 396
412 410
412 424
412 431
412 434
412 439
412 441
412 446
412 460
412 465
413 359
413 360
413 381
413 385
413 389
413 399
413 417
413 436
413 448
413 464
413 478
414 365
414 369
414 376
414 393
414 395
414 401
414 403
414 419
414 425
414 442
414 445
414 453
414 469
414 474
415 361
415 378
415 385
415 388
415 407
415 409
415 428
415 432
415 437
415 444
415 468
415 476
416 364
416 392
416 394
416 398
416 411
416 433
416 435
416 440
416 443
416 456
416 458
416 462
417 381
417 385
417 399
417 409
417 413
417 432
417 448
417 468
417 471
417 478
418 371
418 374
418 398
418 423
418 440
418 443
418 462
418 463
418 470
419 365
419 393
419 395
419 397
419 414
419 438
419 442
419 445
419 447
419 461
419 467
419 474
420 379
420 387
420 396
420 400
420 402
420 404
420 427
420 429
420 441
420 449
420 451
420 459
420 481
420 483
421 367
421 372
421 382
421 401
421 403
421 406
421 408
421 425
421 430
421 450
421 453
421 457
421 472
422 377
422 389
422 391
422 426
422 436
422 455
422 475
423 374
423 398
423 418
423 443
423 463
423 470
424 368
424 375
424 386
424 390
424 396
424 412
424 429
424 431
424 439
424 441
424 446
424 459
424 460
424 465
424 479
424 484
425 376
425 382
425 395
425 401
425 403
425 406
425 414
425 421
425 442
425 445
425 450
425 453
425 457
425 469
425 472
426 377
426 389
426 391
426 422
426 436
426 448
426 455
426 464
426 475
426 487
427 379
427 384
427 400
427 402
427 404
427 411
427 420
427 433
427 435
427 449
427 451
427 452
427 473
428 370
428 383
428 388
428 405
428 407
428 415
428 437
428 438
428 444
428 454
428 461
428 476
428 485
429 387
429 396
429 400
429 420
429 424
429 441
429 446
429 449
429 459
429 479
429 481
430 373
430 380
430 406
430 408
430 410
430 421
430 434
430 439
430 450
430 457
430 460
430 466
430 480
430 486
431 386
431 390
431 396
431 410
431 412
431 424
431 434
431 439
431 441
431 446
431 460
431 465
431 480
431 482
431 484
432 378
432 385
432 399
432 407
432 409
432 415
432 417
432 437
432 444
432 468
432 471
432 491
433 384
433 392
433 402
433 404
433 411
433 416
433 427
433 435
433 451
433 452
433 456
433 458
433 473
433 477
434 380
434 386
434 408
434 410
434 412
434 430
434 431
434 439
434 460
434 466
434 480
434 482
435 392
435 394
435 404
435 411
435 416
435 427
435 433
435 440
435 452
435 456
435 458
435 462
435 477
435 490
436 377
436 389
436 391
436 413
436 422
436 426
436 448
436 455
436 464
436 487
437 378
437 388
437 407
437 409
437 415
437 428
437 432
437 444
437 468
437 476
437 489
437 491
438 383
438 397
438 405
438 419
438 428
438 442
438 447
438 454
438 461
438 467
438 493
439 380
439 386
439 390
439 408
439 410
439 412
439 424
439 430
439 431
439 434
439 446
439 460
439 465
439 466
439 480
439 482
439 496
440 392
440 394
440 398
440 411
440 416
440 418
440 435
440 443
440 456
440 458
440 462
440 463
440 477
440 490
440 492
441 387
441 396
441 400
441 412
441 420
441 424
441 429
441 431
441 446
441 449
441 459
441 465
441 479
441 481
441 484
442 393
442 395
442 397
442 403
442 414
442 419
442 425
442 438
442 445
442 447
442 467
442 469
442 474
443 398
443 416
443 418
443 423
443 440
443 458
443 462
443 463
443 470
443 492
444 388
444 405
444 407
444 415
444 428
444 432
444 437
444 454
444 468
444 476
444 485
444 489
445 395
445 403
445 414
445 419
445 425
445 442
445 453
445 469
445 472
445 474
445 504
446 390
446 396
446 412
446 424
446 429
446 431
446 439
446 441
446 459
446 460
446 465
446 479
446 482
446 484
446 498
446 505
447 393
447 397
447 419
447 438
447 442
447 461
447 467
447 474
447 493
447 499
447 501
448 399
448 413
448 417
448 426
448 436
448 455
448 464
448 471
448 478
448 487
448 497
449 400
449 402
449 420
449 427
449 429
449 441
449 451
449 459
449 473
449 479
449 481
449 483
449 500
450 401
450 406
450 408
450 421
450 425
450 430
450 453
450 457
450 466
450 486
450 488
451 400
451 402
451 404
451 420
451 427
451 433
451 449
451 452
451 473
451 481
451 483
451 494
451 500
452 404
452 411
452 427
452 433
452 435
452 451
452 456
452 473
452 477
452 483
452 494
452 495
452 510
453 401
453 403
453 414
453 421
453 425
453 445
453 450
453 457
453 469
453 472
453 488
453 508
453 509
454 405
454 428
454 438
454 444
454 461
454 476
454 485
454 489
454 493
455 422
455 426
455 436
455 448
455 464
455 475
455 478
455 487
455 497
456 411
456 416
456 433
456 435
456 440
456 452
456 458
456 462
456 477
456 490
456 494
456 495
456 511
457 401
457 406
457 421
457 425
457 430
457 450
457 453
457 466
457 472
457 486
457 488
457 509
458 394
458 411
458 416
458 433
458 435
458 440
458 443
458 456
458 462
458 463
458 477
458 490
458 492
458 495
459 420
459 424
459 429
459 441
459 446
459 449
459 465
459 479
459 481
459 483
459 484
459 505
459 507
460 410
460 412
460 424
460 430
460 431
460 434
460 439
460 446
460 465
460 466
460 480
460 482
460 484
460 496
460 498
460 503
461 397
461 405
461 419
461 428
461 438
461 447
461 454
461 467
461 485
461 493
461 501
461 515
462 398
462 416
462 418
462 435
462 440
462 443
462 456
462 458
462 463
462 470
462 477
462 490
462 492
463 398
463 418
463 423
463 440
463 443
463 458
463 462
463 470
463 492
463 502
464 413
464 426
464 436
464 448
464 455
464 471
464 478
464 487
464 497
464 506
465 412
465 424
465 431
465 439
465 441
465 446
465 459
465 460
465 479
465 480
465 482
465 484
465 496
465 498
465 505
466 408
466 410
466 430
466 434
466 439
466 450
466 457
466 460
466 480
466 486
466 488
466 496
466 503
466 513
466 519
467 419
467 438
467 442
467 447
467 461
467 474
467 493
467 499
467 501
467 515
468 409
468 415
468 417
468 432
468 437
468 444
468 471
468 476
468 489
468 491
468 512
469 414
469 425
469 442
469 445
469 453
469 472
469 474
469 499
469 504
469 508
469 528
470 418
470 423
470 443
470 462
470 463
470 492
470 502
470 523
471 417
471 432
471 448
471 464
471 468
471 478
471 491
471 497
471 506
471 512
472 421
472 425
472 445
472 453
472 457
472 469
472 474
472 488
472 504
472 508
472 509
473 427
473 433
473 449
473 451
473 452
473 481
473 483
473 494
473 500
473 510
474 414
474 419
474 442
474 445
474 447
474 467
474 469
474 472
474 499
474 501
474 504
474 527
474 534
475 422
475 426
475 455
475 487
475 514
475 532
476 415
476 428
476 437
476 444
476 454
476 468
476 485
476 489
476 491
476 520
476 522
477 433
477 435
477 440
477 452
477 456
477 458
477 462
477 490
477 492
477 494
477 495
477 510
477 511
477 517
477 518
478 413
478 417
478 448
478 455
478 464
478 471
478 487
478 497
478 506
478 512
479 424
479 429
479 441
479 446
479 449
479 459
479 465
479 481
479 483
479 484
479 498
479 505
479 507
479 525
480 430
480 431
480 434
480 439
480 460
480 465
480 466
480 482
480 486
480 496
480 498
480 503
480 519
480 521
480 530
481 420
481 429
481 441
481 449
481 451
481 459
481 473
481 479
481 483
481 484
481 500
481 505
481 507
481 525
481 529
482 431
482 434
482 439
482 446
482 460
482 465
482 480
482 484
482 496
482 498
482 503
482 505
482 521
482 530
482 533
483 420
483 449
483 451
483 452
483 459
483 473
483 479
483 481
483 494
483 500
483 507
483 510
483 529
484 424
484 431
484 441
484 446
484 459
484 460
484 465
484 479
484 481
484 482
484 496
484 498
484 505
484 507
484 525
484 530
484 533
485 428
485 444
485 454
485 461
485 476
485 489
485 493
485 516
485 520
485 526
486 430
486 450
486 457
486 466
486 480
486 488
486 503
486 509
486 513
486 519
486 521
486 538
487 426
487 436
487 448
487 455
487 464
487 475
487 478
487 497
487 514
487 531
487 532
487 537
488 450
488 453
488 457
488 466
488 472
488 486
488 508
488 509
488 513
488 519
488 536
488 538
489 437
489 444
489 454
489 468
489 476
489 485
489 491
489 516
489 520
489 522
490 435
490 440
490 456
490 458
490 462
490 477
490 492
490 494
490 495
490 511
490 517
490 518
490 524
491 432
491 437
491 468
491 471
491 476
491 489
491 512
491 520
491 522
492 440
492 443
492 458
492 462
492 463
492 470
492 477
492 490
492 495
492 502
492 517
492 518
492 523
492 524
493 438
493 447
493 454
493 461
493 467
493 485
493 501
493 515
493 516
493 526
493 527
494 451
494 452
494 456
494 473
494 477
494 483
494 490
494 495
494 500
494 510
494 511
494 517
494 539
494 542
495 452
495 456
495 458
495 477
495 490
495 492
495 494
495 510
495 511
495 517
495 518
495 542
495 551
496 439
496 460
496 465
496 466
496 480
496 482
496 484
496 498
496 503
496 505
496 519
496 521
496 530
496 533
496 544
497 448
497 455
497 464
497 471
497 478
497 487
497 506
497 512
497 514
497 531
497 537
498 446
498 460
498 465
498 479
498 480
498 482
498 484
498 496
498 503
498 505
498 525
498 530
498 533
498 544
498 554
499 447
499 467
499 469
499 474
499 501
499 504
499 508
499 515
499 527
499 528
499 534
499 547
500 449
500 451
500 473
500 481
500 483
500 494
500 507
500 510
500 529
500 539
500 545
501 447
501 461
501 467
501 474
501 493
501 499
501 504
501 515
501 526
501 527
501 534
501 547
502 463
502 470
502 492
502 523
502 524
502 556
503 460
503 466
503 480
503 482
503 486
503 496
503 498
503 513
503 519
503 521
503 530
503 540
503 544
503 552
504 445
504 469
504 472
504 474
504 499
504 501
504 508
504 509
504 527
504 528
504 534
504 535
504 547
504 549
505 446
505 459
505 465
505 479
505 481
505 482
505 484
505 496
505 498
505 507
505 525
505 530
505 533
505 543
505 554
506 464
506 471
506 478
506 497
506 512
506 537
506 541
506 546
506 563
507 459
507 479
507 481
507 483
507 484
507 500
507 505
507 525
507 529
507 543
507 545
507 566
508 453
508 469
508 472
508 488
508 499
508 504
508 509
508 528
508 534
508 535
508 536
508 538
508 549
508 558
509 453
509 457
509 472
509 486
509 488
509 504
509 508
509 513
509 528
509 535
509 536
509 538
509 549
509 558
509 560
510 452
510 473
510 477
510 483
510 494
510 495
510 500
510 511
510 517
510 529
510 539
510 542
510 559
510 561
510 562
511 456
511 477
511 490
511 494
511 495
511 510
511 517
511 518
511 539
511 542
511 551
511 559
511 562
512 468
512 471
512 478
512 491
512 497
512 506
512 522
512 541
512 546
512 563
512 571
513 466
513 486
513 488
513 503
513 509
513 519
513 521
513 536
513 538
513 540
513 552
513 558
513 560
514 475
514 487
514 497
514 531
514 532
514 537
514 550
514 567
515 461
515 467
515 493
515 499
515 501
515 516
515 526
515 527
515 534
515 547
515 548
515 555
515 564
516 485
516 489
516 493
516 515
516 520
516 526
516 548
516 555
516 565
517 477
517 490
517 492
517 494
517 495
517 510
517 511
517 518
517 524
517 542
517 551
517 553
517 562
517 572
518 477
518 490
518 492
518 495
518 511
518 517
518 523
518 524
518 542
518 551
518 553
518 556
518 572
519 466
519 480
519 486
519 488
519 496
519 503
519 513
519 521
519 538
519 540
519 544
519 552
519 560
519 568
520 476
520 485
520 489
520 491
520 516
520 522
520 548
520 557
520 565
521 480
521 482
521 486
521 496
521 503
521 513
521 519
521 530
521 540
521 544
521 552
521 568
521 569
522 476
522 489
522 491
522 512
522 520
522 541
522 546
522 557
522 565
522 571
523 470
523 492
523 502
523 518
523 524
523 556
523 570
524 490
524 492
524 502
524 517
524 518
524 523
524 551
524 553
524 556
524 570
525 479
525 481
525 484
525 498
525 505
525 507
525 529
525 533
525 543
525 545
525 554
525 566
525 574
525 582
526 485
526 493
526 501
526 515
526 516
526 527
526 548
526 555
526 564
526 576
527 474
527 493
527 499
527 501
527 504
527 515
527 526
527 528
527 534
527 547
527 555
527 564
528 469
528 499
528 504
528 508
528 509
528 527
528 534
528 535
528 536
528 547
528 549
528 575
529 481
529 483
529 500
529 507
529 510
529 525
529 539
529 543
529 545
529 559
529 561
529 578
530 480
530 482
530 484
530 496
530 498
530 503
530 505
530 521
530 533
530 540
530 544
530 554
530 568
530 569
530 573
531 487
531 497
531 514
531 532
531 537
531 550
531 567
531 577
531 581
532 475
532 487
532 514
532 531
532 550
532 577
532 580
533 482
533 484
533 496
533 498
533 505
533 525
533 530
533 543
533 544
533 554
533 566
533 569
533 573
533 574
534 474
534 499
534 501
534 504
534 508
534 515
534 527
534 528
534 535
534 547
534 549
534 564
534 575
534 589
535 504
535 508
535 509
535 528
535 534
535 536
535 538
535 549
535 558
535 575
535 579
536 488
536 508
536 509
536 513
536 528
536 535
536 538
536 549
536 552
536 558
536 560
536 579
536 585
537 487
537 497
537 506
537 514
537 531
537 541
537 563
537 567
537 577
537 581
538 486
538 488
538 508
538 509
538 513
538 519
538 535
538 536
538 540
538 552
538 558
538 560
538 585
538 596
539 494
539 500
539 510
539 511
539 529
539 542
539 545
539 559
539 561
539 562
539 578
539 588
539 593
540 503
540 513
540 519
540 521
540 530
540 538
540 544
540 552
540 560
540 568
540 569
540 583
540 596
541 506
541 512
541 522
541 537
541 546
541 563
541 571
541 590
541 591
541 599
542 494
542 495
542 510
542 511
542 517
542 518
542 539
542 551
542 553
542 559
542 561
542 562
542 572
542 592
542 593
542 595
543 505
543 507
543 525
543 529
543 533
543 545
543 554
543 566
543 573
543 574
543 582
543 606
544 496
544 498
544 503
544 519
544 521
544 530
544 533
544 540
544 552
544 554
544 568
544 569
544 573
544 583
544 600
545 500
545 507
545 525
545 529
545 539
545 543
545 561
545 566
545 578
545 582
545 588
546 506
546 512
546 522
546 541
546 557
546 563
546 571
546 590
546 591
547 499
547 501
547 504
547 515
547 527
547 528
547 534
547 549
547 564
547 575
547 586
547 589
548 515
548 516
548 520
548 526
548 555
548 564
548 565
548 576
548 594
549 504
549 508
549 509
549 528
549 534
549 535
549 536
549 547
549 558
549 575
549 579
549 589
549 607
550 514
550 531
550 532
550 577
550 580
550 597
550 601
551 495
551 511
551 517
551 518
551 524
551 542
551 553
551 556
551 559
551 562
551 572
551 587
551 592
551 595
552 503
552 513
552 519
552 521
552 536
552 538
552 540
552 544
552 558
552 560
552 568
552 583
552 585
552 596
553 517
553 518
553 524
553 542
553 551
553 556
553 562
553 570
553 572
553 584
553 587
553 595
554 498
554 505
554 525
554 530
554 533
554 543
554 544
554 566
554 568
554 569
554 573
554 574
554 603
555 515
555 516
555 526
555 527
555 548
555 564
555 576
555 586
555 594
555 605
556 502
556 518
556 523
556 524
556 551
556 553
556 570
556 572
556 584
556 587
556 598
557 520
557 522
557 546
557 565
557 571
557 590
557 594
557 602
557 614
558 508
558 509
558 513
558 535
558 536
558 538
558 549
558 552
558 560
558 579
558 585
558 596
558 604
559 510
559 511
559 529
559 539
559 542
559 551
559 561
559 562
559 572
559 578
559 588
559 592
559 593
559 610
559 617
560 509
560 513
560 519
560 536
560 538
560 540
560 552
560 558
560 579
560 583
560 585
560 596
560 604
561 510
561 529
561 539
561 542
561 545
561 559
561 562
561 578
561 588
561 592
561 593
561 610
562 510
562 511
562 517
562 539
562 542
562 551
562 553
562 559
562 561
562 572
562 592
562 593
562 595
562 620
563 506
563 512
563 537
563 541
563 546
563 567
563 571
563 581
563 590
563 591
563 599
564 515
564 526
564 527
564 534
564 547
564 548
564 555
564 576
564 586
564 589
564 605
564 625
565 516
565 520
565 522
565 548
565 557
565 576
565 590
565 594
565 602
565 612
566 507
566 525
566 533
566 543
566 545
566 554
566 573
566 574
566 578
566 582
566 606
566 609
566 611
567 514
567 531
567 537
567 563
567 577
567 581
567 597
567 599
567 608
567 618
567 622
568 519
568 521
568 530
568 540
568 544
568 552
568 554
568 569
568 573
568 583
568 596
568 600
568 603
568 613
568 616
569 521
569 530
569 533
569 540
569 544
569 554
569 568
569 573
569 574
569 583
569 600
569 603
569 616
569 624
570 523
570 524
570 553
570 556
570 584
570 587
570 598
570 615
570 627
571 512
571 522
571 541
571 546
571 557
571 563
571 590
571 591
571 599
571 614
572 517
572 518
572 542
572 551
572 553
572 556
572 559
572 562
572 587
572 592
572 595
572 615
572 620
572 621
573 530
573 533
573 543
573 544
573 554
573 566
573 568
573 569
573 574
573 582
573 600
573 603
573 606
573 624
573 628
574 525
574 533
574 543
574 554
574 566
574 569
574 573
574 582
574 603
574 606
574 609
574 628
574 633
575 528
575 534
575 535
575 547
575 549
575 579
575 589
575 607
575 619
575 629
575 636
576 526
576 548
576 555
576 564
576 565
576 586
576 594
576 605
576 612
576 623
577 531
577 532
577 537
577 550
577 567
577 580
577 581
577 597
577 601
577 608
577 618
577 622
577 626
578 529
578 539
578 545
578 559
578 561
578 566
578 582
578 588
578 593
578 609
578 610
578 611
578 632
578 635
578 639
579 535
579 536
579 549
579 558
579 560
579 575
579 585
579 604
579 607
579 619
579 629
580 532
580 550
580 577
580 597
580 601
580 608
580 626
581 531
581 537
581 563
581 567
581 577
581 591
581 597
581 599
581 608
581 618
581 622
581 630
582 525
582 543
582 545
582 566
582 573
582 574
582 578
582 606
582 609
582 611
582 628
582 632
582 633
583 540
583 544
583 552
583 560
583 568
583 569
583 585
583 596
583 600
583 613
583 616
583 642
584 553
584 556
584 570
584 587
584 598
584 615
584 627
584 647
585 536
585 538
585 552
585 558
585 560
585 579
585 583
585 596
585 604
585 613
585 629
585 638
586 547
586 555
586 564
586 576
586 589
586 605
586 623
586 625
586 631
586 640
586 645
587 551
587 553
587 556
587 570
587 572
587 584
587 595
587 598
587 615
587 621
587 627
587 652
588 539
588 545
588 559
588 561
588 578
588 592
588 593
588 610
588 611
588 617
588 635
588 639
588 646
589 534
589 547
589 549
589 564
589 575
589 586
589 607
589 619
589 625
589 631
589 636
590 541
590 546
590 557
590 563
590 565
590 571
590 591
590 599
590 602
590 614
590 637
590 643
591 541
591 546
591 563
591 571
591 581
591 590
591 599
591 614
591 618
591 630
591 643
591 648
592 542
592 551
592 559
592 561
592 562
592 572
592 588
592 593
592 595
592 610
592 617
592 620
592 621
592 650
593 539
593 542
593 559
593 561
593 562
593 578
593 588
593 592
593 595
593 610
593 617
593 620
593 635
593 646
593 650
594 548
594 555
594 557
594 565
594 576
594 602
594 605
594 612
594 623
594 634
595 542
595 551
595 553
595 562
595 572
595 587
595 592
595 593
595 615
595 617
595 620
595 621
595 654
596 538
596 540
596 552
596 558
596 560
596 568
596 583
596 585
596 604
596 613
596 638
596 642
597 550
597 567
597 577
597 580
597 581
597 601
597 608
597 622
597 626
598 556
598 570
598 584
598 587
598 615
598 627
598 647
599 541
599 563
599 567
599 571
599 581
599 590
599 591
599 618
599 630
599 648
599 649
600 544
600 568
600 569
600 573
600 583
600 603
600 613
600 616
600 624
600 653
601 550
601 577
601 580
601 597
601 608
601 626
602 557
602 565
602 590
602 594
602 612
602 614
602 634
602 637
602 643
603 554
603 568
603 569
603 573
603 574
603 600
603 606
603 616
603 624
603 628
603 633
603 656
604 558
604 560
604 579
604 585
604 596
604 607
604 613
604 629
604 638
604 642
604 644
605 555
605 564
605 576
605 586
605 594
605 612
605 623
605 625
605 631
605 634
605 640
605 645
606 543
606 566
606 573
606 574
606 582
606 603
606 609
606 611
606 624
606 628
606 632
606 633
606 656
607 549
607 575
607 579
607 589
607 604
607 619
607 629
607 631
607 636
607 641
607 644
608 567
608 577
608 580
608 581
608 597
608 601
608 618
608 622
608 626
608 651
609 566
609 574
609 578
609 582
609 606
609 611
609 628
609 632
609 633
609 639
610 559
610 561
610 578
610 588
610 592
610 593
610 611
610 617
610 620
610 635
610 639
610 646
610 650
611 566
611 578
611 582
611 588
611 606
611 609
611 610
611 632
611 633
611 635
611 639
611 646
612 565
612 576
612 594
612 602
612 605
612 614
612 623
612 634
612 637
613 568
613 583
613 585
613 596
613 600
613 604
613 616
613 638
613 642
613 653
614 557
614 571
614 590
614 591
614 602
614 612
614 634
614 637
614 643
614 648
615 570
615 572
615 584
615 587
615 595
615 598
615 621
615 627
615 647
615 652
615 654
615 655
616 568
616 569
616 583
616 600
616 603
616 613
616 624
616 628
616 642
616 653
616 656
617 559
617 588
617 592
617 593
617 595
617 610
617 620
617 621
617 635
617 646
617 650
617 654
618 567
618 577
618 581
618 591
618 599
618 608
618 622
618 630
618 648
618 649
618 651
619 575
619 579
619 589
619 607
619 629
619 631
619 636
619 641
619 644
620 562
620 572
620 592
620 593
620 595
620 610
620 617
620 621
620 646
620 650
620 654
620 655
621 572
621 587
621 592
621 595
621 615
621 617
621 620
621 650
621 652
621 654
621 655
622 567
622 577
622 581
622 597
622 608
622 618
622 626
622 630
622 649
622 651
623 576
623 586
623 594
623 605
623 612
623 625
623 634
623 640
623 645
624 569
624 573
624 600
624 603
624 606
624 616
624 628
624 633
624 653
624 656
625 564
625 586
625 589
625 605
625 623
625 631
625 636
625 640
625 645
626 577
626 580
626 597
626 601
626 608
626 622
626 651
627 570
627 584
627 587
627 598
627 615
627 647
627 652
627 655
628 573
628 574
628 582
628 603
628 606
628 609
628 616
628 624
628 632
628 633
628 656
629 575
629 579
629 585
629 604
629 607
629 619
629 636
629 638
629 641
629 644
630 581
630 591
630 599
630 618
630 622
630 643
630 648
630 649
630 651
631 586
631 589
631 605
631 607
631 619
631 625
631 636
631 640
631 641
631 645
632 578
632 582
632 606
632 609
632 611
632 628
632 633
632 635
632 639
633 574
633 582
633 603
633 606
633 609
633 611
633 624
633 628
633 632
633 639
633 656
634 594
634 602
634 605
634 612
634 614
634 623
634 637
635 578
635 588
635 593
635 610
635 611
635 617
635 632
635 639
635 646
635 650
636 575
636 589
636 607
636 619
636 625
636 629
636 631
636 641
636 645
637 590
637 602
637 612
637 614
637 634
637 643
638 585
638 596
638 604
638 613
638 629
638 641
638 642
638 644
639 578
639 588
639 609
639 610
639 611
639 632
639 633
639 635
639 646
640 586
640 605
640 623
640 625
640 631
640 645
641 607
641 619
641 629
641 631
641 636
641 638
641 644
642 583
642 596
642 604
642 613
642 616
642 638
642 653
643 590
643 591
643 602
643 614
643 630
643 637
643 648
644 604
644 607
644 619
644 629
644 638
644 641
645 586
645 605
645 623
645 625
645 631
645 636
645 640
646 588
646 593
646 610
646 611
646 617
646 620
646 635
646 639
646 650
647 584
647 598
647 615
647 627
647 652
647 655
648 591
648 599
648 614
648 618
648 630
648 643
648 649
649 599
649 618
649 622
649 630
649 648
649 651
650 592
650 593
650 610
650 617
650 620
650 621
650 635
650 646
650 654
651 608
651 618
651 622
651 626
651 630
651 649
652 587
652 615
652 621
652 627
652 647
652 654
652 655
653 600
653 613
653 616
653 624
653 642
653 656
654 595
654 615
654 617
654 620
654 621
654 650
654 652
654 655
655 615
655 620
655 621
655 627
655 647
655 652
655 654
656 603
656 606
656 616
656 624
656 628
656 633
656 653
