1 2
1 4
1 10
1 14
1 16
1 34
1 38
1 39
1 47
1 51
1 61
1 67
1 70
1 88
1 93
2 1
2 9
2 10
2 14
2 23
2 30
2 34
2 38
2 39
2 55
2 61
2 66
2 70
2 95
2 101
3 7
3 19
3 24
3 25
3 33
3 36
3 40
3 48
3 56
3 62
3 73
3 74
3 78
3 81
3 89
3 98
4 1
4 10
4 14
4 16
4 18
4 34
4 39
4 47
4 50
4 51
4 57
4 61
4 67
4 75
4 93
4 94
4 100
5 9
5 13
5 17
5 30
5 32
5 37
5 42
5 46
5 49
5 55
5 58
5 63
5 72
5 77
5 92
6 7
6 8
6 21
6 24
6 27
6 29
6 35
6 40
6 52
6 54
6 60
6 64
6 76
6 83
6 91
6 105
7 3
7 6
7 8
7 21
7 24
7 29
7 36
7 40
7 52
7 56
7 64
7 73
7 78
7 81
7 91
8 6
8 7
8 21
8 27
8 29
8 35
8 40
8 52
8 54
8 60
8 64
8 76
8 83
8 97
9 2
9 5
9 17
9 23
9 30
9 32
9 37
9 42
9 55
9 58
9 63
9 66
9 72
9 77
9 92
9 102
10 1
10 2
10 4
10 14
10 16
10 23
10 30
10 34
10 38
10 39
10 47
10 51
10 61
10 66
10 67
10 70
10 88
10 93
10 101
11 12
11 20
11 22
11 26
11 28
11 31
11 41
11 44
11 45
11 53
11 59
11 65
11 68
11 69
11 71
11 82
11 87
11 90
11 103
11 107
12 11
12 20
12 22
12 26
12 31
12 41
12 44
12 45
12 53
12 65
12 68
12 69
12 71
12 87
12 90
12 103
12 107
13 5
13 17
13 19
13 25
13 32
13 33
13 37
13 46
13 48
13 49
13 62
13 63
13 72
13 79
13 80
13 89
13 99
14 1
14 2
14 4
14 10
14 23
14 30
14 34
14 38
14 39
14 51
14 61
14 66
14 67
14 70
14 88
14 95
14 101
15 16
15 18
15 20
15 28
15 43
15 44
15 47
15 50
15 57
15 59
15 75
15 84
15 85
15 96
15 112
16 1
16 4
16 10
16 15
16 18
16 34
16 39
16 43
16 47
16 50
16 51
16 57
16 61
16 67
16 75
16 93
16 94
16 100
17 5
17 9
17 13
17 19
17 25
17 32
17 33
17 37
17 42
17 46
17 48
17 49
17 58
17 62
17 63
17 72
17 77
17 79
17 80
17 106
18 4
18 15
18 16
18 20
18 28
18 34
18 43
18 47
18 50
18 51
18 57
18 59
18 75
18 85
18 94
19 3
19 13
19 17
19 24
19 25
19 33
19 36
19 48
19 49
19 56
19 62
19 73
19 74
19 79
19 81
19 89
19 98
19 99
19 117
20 11
20 12
20 15
20 18
20 28
20 31
20 41
20 43
20 44
20 50
20 59
20 68
20 69
20 71
20 82
20 84
20 96
20 103
20 109
21 6
21 7
21 8
21 24
21 27
21 29
21 35
21 40
21 52
21 54
21 60
21 64
21 76
21 83
21 97
21 105
21 115
22 11
22 12
22 26
22 31
22 41
22 45
22 53
22 65
22 68
22 69
22 86
22 87
22 90
22 107
22 119
23 2
23 9
23 10
23 14
23 30
23 38
23 39
23 42
23 55
23 58
23 61
23 66
23 70
23 95
23 101
23 102
23 104
24 3
24 6
24 7
24 19
24 21
24 29
24 36
24 40
24 52
24 56
24 64
24 73
24 74
24 78
24 81
24 91
24 110
24 118
25 3
25 13
25 17
25 19
25 32
25 33
25 36
25 37
25 46
25 48
25 49
25 62
25 72
25 74
25 79
25 80
25 89
25 98
25 99
25 113
26 11
26 12
26 22
26 31
26 41
26 44
26 45
26 53
26 65
26 68
26 69
26 71
26 86
26 87
26 90
26 107
27 6
27 8
27 21
27 35
27 52
27 54
27 60
27 76
27 83
27 97
28 11
28 15
28 18
28 20
28 31
28 43
28 44
28 50
28 57
28 59
28 68
28 71
28 82
28 84
28 85
28 96
28 109
28 112
29 6
29 7
29 8
29 21
29 24
29 35
29 40
29 52
29 54
29 56
29 64
29 76
29 78
29 81
29 83
29 91
29 105
30 2
30 5
30 9
30 10
30 14
30 23
30 32
30 38
30 42
30 55
30 58
30 66
30 70
30 77
30 92
30 95
30 101
30 102
30 104
31 11
31 12
31 20
31 22
31 26
31 28
31 41
31 43
31 44
31 45
31 53
31 59
31 68
31 69
31 71
31 82
31 84
31 87
31 103
31 107
31 109
31 114
32 5
32 9
32 13
32 17
32 25
32 30
32 37
32 42
32 46
32 49
32 55
32 58
32 63
32 72
32 77
32 80
32 92
32 106
32 116
33 3
33 13
33 17
33 19
33 25
33 36
33 46
33 48
33 49
33 56
33 62
33 73
33 74
33 79
33 80
33 81
33 89
33 98
33 99
33 108
33 117
34 1
34 2
34 4
34 10
34 14
34 16
34 18
34 38
34 39
34 47
34 51
34 57
34 61
34 67
34 70
34 75
34 88
34 93
34 94
34 100
34 101
34 111
34 122
35 6
35 8
35 21
35 27
35 29
35 52
35 54
35 60
35 64
35 76
35 83
35 97
35 115
35 127
36 3
36 7
36 19
36 24
36 25
36 33
36 40
36 48
36 56
36 62
36 73
36 74
36 78
36 79
36 81
36 89
36 91
36 98
36 99
36 108
36 110
36 117
36 118
37 5
37 9
37 13
37 17
37 25
37 32
37 42
37 46
37 48
37 49
37 55
37 58
37 63
37 72
37 77
37 79
37 80
37 92
37 106
37 113
37 116
38 1
38 2
38 10
38 14
38 23
38 30
38 34
38 39
38 55
38 61
38 66
38 67
38 70
38 88
38 93
38 95
38 101
38 104
38 111
38 125
38 132
39 1
39 2
39 4
39 10
39 14
39 16
39 23
39 34
39 38
39 47
39 51
39 61
39 66
39 67
39 70
39 88
39 93
39 95
39 100
39 101
39 111
39 132
39 134
40 3
40 6
40 7
40 8
40 21
40 24
40 29
40 36
40 52
40 54
40 56
40 64
40 73
40 78
40 81
40 83
40 91
40 105
40 110
40 118
40 124
40 128
41 11
41 12
41 20
41 22
41 26
41 31
41 44
41 45
41 53
41 59
41 65
41 68
41 69
41 71
41 82
41 84
41 86
41 87
41 90
41 103
41 107
41 114
41 131
42 5
42 9
42 17
42 23
42 30
42 32
42 37
42 46
42 55
42 58
42 63
42 66
42 72
42 77
42 92
42 95
42 102
42 104
42 106
42 116
42 123
42 129
43 15
43 16
43 18
43 20
43 28
43 31
43 44
43 47
43 50
43 57
43 59
43 71
43 75
43 82
43 84
43 85
43 94
43 96
43 109
43 112
43 120
43 126
44 11
44 12
44 15
44 20
44 26
44 28
44 31
44 41
44 43
44 45
44 59
44 68
44 69
44 71
44 82
44 84
44 87
44 96
44 103
44 107
44 109
44 114
44 126
44 131
45 11
45 12
45 22
45 26
45 31
45 41
45 44
45 53
45 65
45 68
45 69
45 71
45 86
45 87
45 90
45 103
45 107
45 119
46 5
46 13
46 17
46 25
46 32
46 33
46 37
46 42
46 48
46 49
46 58
46 62
46 63
46 72
46 77
46 79
46 80
46 89
46 99
46 106
46 113
46 116
47 1
47 4
47 10
47 15
47 16
47 18
47 34
47 39
47 43
47 50
47 51
47 57
47 61
47 67
47 75
47 85
47 88
47 93
47 94
47 100
47 120
47 121
47 122
48 3
48 13
48 17
48 19
48 25
48 33
48 36
48 37
48 46
48 49
48 62
48 72
48 73
48 74
48 79
48 80
48 89
48 98
48 99
48 113
48 117
48 133
49 5
49 13
49 17
49 19
49 25
49 32
49 33
49 37
49 46
49 48
49 62
49 63
49 72
49 74
49 77
49 79
49 80
49 89
49 99
49 106
49 113
49 117
49 133
50 4
50 15
50 16
50 18
50 20
50 28
50 43
50 47
50 51
50 57
50 59
50 75
50 82
50 84
50 85
50 94
50 96
50 100
50 109
50 112
50 120
50 121
51 1
51 4
51 10
51 14
51 16
51 18
51 34
51 39
51 47
51 50
51 57
51 61
51 67
51 75
51 85
51 88
51 93
51 94
51 100
51 111
51 121
51 122
52 6
52 7
52 8
52 21
52 24
52 27
52 29
52 35
52 40
52 54
52 60
52 64
52 76
52 78
52 83
52 91
52 97
52 105
52 115
52 127
52 128
52 130
52 136
53 11
53 12
53 22
53 26
53 31
53 41
53 45
53 65
53 68
53 69
53 86
53 87
53 90
53 103
53 107
53 119
53 139
54 6
54 8
54 21
54 27
54 29
54 35
54 40
54 52
54 60
54 64
54 76
54 83
54 91
54 97
54 105
54 115
54 127
54 128
54 130
54 138
55 2
55 5
55 9
55 23
55 30
55 32
55 37
55 38
55 42
55 58
55 63
55 66
55 70
55 72
55 77
55 92
55 95
55 102
55 104
55 116
55 123
55 125
55 129
56 3
56 7
56 19
56 24
56 29
56 33
56 36
56 40
56 62
56 64
56 73
56 74
56 78
56 81
56 89
56 91
56 98
56 105
56 108
56 110
56 118
56 124
56 144
57 4
57 15
57 16
57 18
57 28
57 34
57 43
57 47
57 50
57 51
57 59
57 67
57 75
57 84
57 85
57 93
57 94
57 96
57 100
57 112
57 120
57 121
57 148
58 5
58 9
58 17
58 23
58 30
58 32
58 37
58 42
58 46
58 55
58 63
58 66
58 72
58 77
58 92
58 95
58 102
58 104
58 106
58 116
58 123
58 129
58 142
58 147
59 11
59 15
59 18
59 20
59 28
59 31
59 41
59 43
59 44
59 50
59 57
59 68
59 71
59 82
59 84
59 85
59 96
59 103
59 109
59 112
59 114
59 120
59 126
59 140
59 141
60 6
60 8
60 21
60 27
60 35
60 52
60 54
60 64
60 76
60 83
60 97
60 105
60 115
60 127
60 130
60 138
61 1
61 2
61 4
61 10
61 14
61 16
61 23
61 34
61 38
61 39
61 47
61 51
61 66
61 67
61 70
61 88
61 93
61 95
61 100
61 101
61 111
61 122
61 132
61 134
61 143
62 3
62 13
62 17
62 19
62 25
62 33
62 36
62 46
62 48
62 49
62 56
62 73
62 74
62 79
62 80
62 81
62 89
62 98
62 99
62 108
62 113
62 117
62 118
62 133
62 135
62 137
63 5
63 9
63 13
63 17
63 32
63 37
63 42
63 46
63 49
63 55
63 58
63 72
63 77
63 80
63 92
63 102
63 106
63 113
63 116
63 123
63 142
63 147
63 152
64 6
64 7
64 8
64 21
64 24
64 29
64 35
64 40
64 52
64 54
64 56
64 60
64 76
64 78
64 81
64 83
64 91
64 97
64 105
64 110
64 115
64 118
64 124
64 128
64 130
64 136
65 11
65 12
65 22
65 26
65 41
65 45
65 53
65 68
65 69
65 86
65 87
65 90
65 107
65 119
65 139
66 2
66 9
66 10
66 14
66 23
66 30
66 38
66 39
66 42
66 55
66 58
66 61
66 70
66 88
66 92
66 95
66 101
66 102
66 104
66 111
66 125
66 129
66 132
67 1
67 4
67 10
67 14
67 16
67 34
67 38
67 39
67 47
67 51
67 57
67 61
67 70
67 75
67 88
67 93
67 94
67 100
67 101
67 111
67 121
67 122
67 132
67 134
67 143
68 11
68 12
68 20
68 22
68 26
68 28
68 31
68 41
68 44
68 45
68 53
68 59
68 65
68 69
68 71
68 82
68 84
68 87
68 90
68 96
68 103
68 107
68 109
68 114
68 131
68 149
68 151
69 11
69 12
69 20
69 22
69 26
69 31
69 41
69 44
69 45
69 53
69 65
69 68
69 71
69 82
69 86
69 87
69 90
69 103
69 107
69 114
69 119
69 131
69 139
69 149
69 150
70 1
70 2
70 10
70 14
70 23
70 30
70 34
70 38
70 39
70 55
70 61
70 66
70 67
70 88
70 93
70 95
70 101
70 102
70 104
70 111
70 125
70 132
70 134
71 11
71 12
71 20
71 26
71 28
71 31
71 41
71 43
71 44
71 45
71 59
71 68
71 69
71 82
71 84
71 87
71 90
71 96
71 103
71 107
71 109
71 114
71 126
71 131
71 141
71 149
71 151
72 5
72 9
72 13
72 17
72 25
72 32
72 37
72 42
72 46
72 48
72 49
72 55
72 58
72 63
72 77
72 79
72 80
72 92
72 99
72 102
72 106
72 113
72 116
72 123
72 142
72 146
72 152
73 3
73 7
73 19
73 24
73 33
73 36
73 40
73 48
73 56
73 62
73 74
73 78
73 79
73 81
73 89
73 91
73 98
73 99
73 108
73 110
73 117
73 118
73 124
73 135
73 137
73 144
73 145
74 3
74 19
74 24
74 25
74 33
74 36
74 48
74 49
74 56
74 62
74 73
74 78
74 79
74 81
74 89
74 98
74 99
74 108
74 110
74 117
74 118
74 133
74 135
74 137
74 144
74 145
75 4
75 15
75 16
75 18
75 34
75 43
75 47
75 50
75 51
75 57
75 67
75 85
75 93
75 94
75 96
75 100
75 112
75 120
75 121
75 122
75 148
75 153
76 6
76 8
76 21
76 27
76 29
76 35
76 52
76 54
76 60
76 64
76 83
76 91
76 97
76 105
76 115
76 127
76 128
76 130
76 136
76 138
76 154
76 161
76 163
77 5
77 9
77 17
77 30
77 32
77 37
77 42
77 46
77 49
77 55
77 58
77 63
77 72
77 80
77 92
77 102
77 104
77 106
77 113
77 116
77 123
77 129
77 142
77 147
77 152
77 155
78 3
78 7
78 24
78 29
78 36
78 40
78 52
78 56
78 64
78 73
78 74
78 81
78 83
78 91
78 98
78 105
78 108
78 110
78 118
78 124
78 128
78 135
78 144
78 145
78 159
78 162
79 13
79 17
79 19
79 25
79 33
79 36
79 37
79 46
79 48
79 49
79 62
79 72
79 73
79 74
79 80
79 89
79 98
79 99
79 106
79 108
79 113
79 117
79 133
79 135
79 137
79 146
79 160
80 13
80 17
80 25
80 32
80 33
80 37
80 46
80 48
80 49
80 62
80 63
80 72
80 77
80 79
80 89
80 99
80 106
80 113
80 116
80 117
80 133
80 146
80 152
80 160
81 3
81 7
81 19
81 24
81 29
81 33
81 36
81 40
81 56
81 62
81 64
81 73
81 74
81 78
81 89
81 91
81 98
81 105
81 108
81 110
81 117
81 118
81 124
81 128
81 135
81 137
81 144
81 145
81 162
82 11
82 20
82 28
82 31
82 41
82 43
82 44
82 50
82 59
82 68
82 69
82 71
82 84
82 85
82 87
82 96
82 103
82 107
82 109
82 112
82 114
82 126
82 131
82 140
82 141
82 149
82 151
82 168
83 6
83 8
83 21
83 27
83 29
83 35
83 40
83 52
83 54
83 60
83 64
83 76
83 78
83 91
83 97
83 105
83 115
83 124
83 127
83 128
83 130
83 136
83 138
83 154
83 159
83 161
83 163
84 15
84 20
84 28
84 31
84 41
84 43
84 44
84 50
84 57
84 59
84 68
84 71
84 82
84 85
84 96
84 103
84 109
84 112
84 114
84 120
84 126
84 131
84 140
84 141
84 151
84 168
84 176
85 15
85 18
85 28
85 43
85 47
85 50
85 51
85 57
85 59
85 75
85 82
85 84
85 94
85 96
85 100
85 109
85 112
85 120
85 121
85 126
85 140
85 141
85 148
85 153
85 172
85 173
86 22
86 26
86 41
86 45
86 53
86 65
86 69
86 87
86 90
86 107
86 119
86 139
86 150
86 164
87 11
87 12
87 22
87 26
87 31
87 41
87 44
87 45
87 53
87 65
87 68
87 69
87 71
87 82
87 86
87 90
87 103
87 107
87 114
87 119
87 131
87 139
87 149
87 150
87 151
87 165
88 1
88 10
88 14
88 34
88 38
88 39
88 47
88 51
88 61
88 66
88 67
88 70
88 93
88 94
88 95
88 100
88 101
88 111
88 122
88 125
88 132
88 134
88 143
88 158
88 167
88 174
89 3
89 13
89 19
89 25
89 33
89 36
89 46
89 48
89 49
89 56
89 62
89 73
89 74
89 79
89 80
89 81
89 98
89 99
89 108
89 113
89 117
89 118
89 133
89 135
89 137
89 145
89 146
89 160
89 166
89 169
90 11
90 12
90 22
90 26
90 41
90 45
90 53
90 65
90 68
90 69
90 71
90 86
90 87
90 103
90 107
90 114
90 119
90 131
90 139
90 149
90 150
90 164
91 6
91 7
91 24
91 29
91 36
91 40
91 52
91 54
91 56
91 64
91 73
91 76
91 78
91 81
91 83
91 105
91 108
91 110
91 115
91 118
91 124
91 128
91 130
91 136
91 144
91 145
91 159
91 161
91 162
92 5
92 9
92 30
92 32
92 37
92 42
92 55
92 58
92 63
92 66
92 72
92 77
92 95
92 102
92 104
92 106
92 116
92 123
92 125
92 129
92 142
92 147
92 152
92 155
92 156
92 170
92 171
93 1
93 4
93 10
93 16
93 34
93 38
93 39
93 47
93 51
93 57
93 61
93 67
93 70
93 75
93 88
93 94
93 100
93 101
93 111
93 120
93 121
93 122
93 132
93 134
93 143
93 148
93 158
93 174
94 4
94 16
94 18
94 34
94 43
94 47
94 50
94 51
94 57
94 67
94 75
94 85
94 88
94 93
94 96
94 100
94 112
94 120
94 121
94 122
94 134
94 143
94 148
94 153
94 158
94 172
94 177
95 2
95 14
95 23
95 30
95 38
95 39
95 42
95 55
95 58
95 61
95 66
95 70
95 88
95 92
95 101
95 102
95 104
95 111
95 123
95 125
95 129
95 132
95 134
95 147
95 155
95 156
95 157
95 167
95 175
96 15
96 20
96 28
96 43
96 44
96 50
96 57
96 59
96 68
96 71
96 75
96 82
96 84
96 85
96 94
96 103
96 109
96 112
96 114
96 120
96 121
96 126
96 131
96 140
96 141
96 151
96 153
96 168
96 173
96 176
97 8
97 21
97 27
97 35
97 52
97 54
97 60
97 64
97 76
97 83
97 105
97 115
97 127
97 128
97 130
97 136
97 138
97 154
97 161
97 163
97 182
97 183
98 3
98 19
98 25
98 33
98 36
98 48
98 56
98 62
98 73
98 74
98 78
98 79
98 81
98 89
98 99
98 108
98 110
98 117
98 118
98 133
98 135
98 137
98 144
98 145
98 160
98 166
98 169
99 13
99 19
99 25
99 33
99 36
99 46
99 48
99 49
99 62
99 72
99 73
99 74
99 79
99 80
99 89
99 98
99 106
99 108
99 113
99 117
99 133
99 135
99 137
99 145
99 146
99 160
99 166
99 169
99 187
100 4
100 16
100 34
100 39
100 47
100 50
100 51
100 57
100 61
100 67
100 75
100 85
100 88
100 93
100 94
100 111
100 112
100 120
100 121
100 122
100 134
100 143
100 148
100 153
100 158
100 172
100 177
101 2
101 10
101 14
101 23
101 30
101 34
101 38
101 39
101 61
101 66
101 67
101 70
101 88
101 93
101 95
101 102
101 104
101 111
101 122
101 125
101 129
101 132
101 134
101 143
101 156
101 157
101 167
101 174
101 184
102 9
102 23
102 30
102 42
102 55
102 58
102 63
102 66
102 70
102 72
102 77
102 92
102 95
102 101
102 104
102 106
102 116
102 123
102 125
102 129
102 142
102 147
102 155
102 156
102 157
102 170
102 171
102 175
103 11
103 12
103 20
103 31
103 41
103 44
103 45
103 53
103 59
103 68
103 69
103 71
103 82
103 84
103 87
103 90
103 96
103 107
103 109
103 114
103 126
103 131
103 139
103 141
103 149
103 150
103 151
103 165
103 168
104 23
104 30
104 38
104 42
104 55
104 58
104 66
104 70
104 77
104 92
104 95
104 101
104 102
104 111
104 116
104 123
104 125
104 129
104 132
104 142
104 147
104 155
104 156
104 157
104 171
104 175
104 184
105 6
105 21
105 29
105 40
105 52
105 54
105 56
105 60
105 64
105 76
105 78
105 81
105 83
105 91
105 97
105 110
105 115
105 118
105 124
105 127
105 128
105 130
105 136
105 138
105 154
105 159
105 161
105 162
105 163
105 180
105 190
106 17
106 32
106 37
106 42
106 46
106 49
106 58
106 63
106 72
106 77
106 79
106 80
106 92
106 99
106 102
106 113
106 116
106 123
106 133
106 142
106 146
106 147
106 152
106 160
106 170
106 171
106 179
107 11
107 12
107 22
107 26
107 31
107 41
107 44
107 45
107 53
107 65
107 68
107 69
107 71
107 82
107 86
107 87
107 90
107 103
107 109
107 114
107 119
107 131
107 139
107 149
107 150
107 151
107 164
107 165
107 178
108 33
108 36
108 56
108 62
108 73
108 74
108 78
108 79
108 81
108 89
108 91
108 98
108 99
108 110
108 117
108 118
108 124
108 133
108 135
108 137
108 144
108 145
108 162
108 166
108 169
108 181
108 192
109 20
109 28
109 31
109 43
109 44
109 50
109 59
109 68
109 71
109 82
109 84
109 85
109 96
109 103
109 107
109 112
109 114
109 120
109 126
109 131
109 140
109 141
109 149
109 151
109 153
109 165
109 168
109 173
109 176
109 189
110 24
110 36
110 40
110 56
110 64
110 73
110 74
110 78
110 81
110 91
110 98
110 105
110 108
110 117
110 118
110 124
110 128
110 130
110 135
110 136
110 144
110 145
110 159
110 161
110 162
110 166
110 180
110 181
111 34
111 38
111 39
111 51
111 61
111 66
111 67
111 70
111 88
111 93
111 95
111 100
111 101
111 104
111 122
111 125
111 132
111 134
111 143
111 157
111 158
111 167
111 174
111 186
112 15
112 28
112 43
112 50
112 57
112 59
112 75
112 82
112 84
112 85
112 94
112 96
112 100
112 109
112 114
112 120
112 121
112 126
112 140
112 141
112 148
112 153
112 168
112 172
112 173
112 176
112 191
112 194
113 25
113 37
113 46
113 48
113 49
113 62
113 63
113 72
113 77
113 79
113 80
113 89
113 99
113 106
113 116
113 117
113 133
113 137
113 142
113 146
113 152
113 160
113 170
113 179
113 187
113 193
114 31
114 41
114 44
114 59
114 68
114 69
114 71
114 82
114 84
114 87
114 90
114 96
114 103
114 107
114 109
114 112
114 126
114 131
114 140
114 141
114 149
114 150
114 151
114 165
114 168
114 176
114 189
115 21
115 35
115 52
115 54
115 60
115 64
115 76
115 83
115 91
115 97
115 105
115 124
115 127
115 128
115 130
115 136
115 138
115 154
115 159
115 161
115 163
115 182
115 183
115 190
115 197
116 32
116 37
116 42
116 46
116 55
116 58
116 63
116 72
116 77
116 80
116 92
116 102
116 104
116 106
116 113
116 123
116 129
116 142
116 146
116 147
116 152
116 155
116 170
116 171
116 179
116 188
117 19
117 33
117 36
117 48
117 49
117 62
117 73
117 74
117 79
117 80
117 81
117 89
117 98
117 99
117 108
117 110
117 113
117 118
117 133
117 135
117 137
117 144
117 145
117 146
117 160
117 166
117 169
117 187
117 192
117 198
118 24
118 36
118 40
118 56
118 62
118 64
118 73
118 74
118 78
118 81
118 89
118 91
118 98
118 105
118 108
118 110
118 117
118 124
118 128
118 135
118 137
118 144
118 145
118 159
118 162
118 166
118 169
118 180
118 181
118 192
118 195
119 22
119 45
119 53
119 65
119 69
119 86
119 87
119 90
119 107
119 131
119 139
119 149
119 150
119 164
119 178
119 185
119 199
120 43
120 47
120 50
120 57
120 59
120 75
120 84
120 85
120 93
120 94
120 96
120 100
120 109
120 112
120 121
120 122
120 126
120 140
120 141
120 148
120 153
120 158
120 172
120 173
120 176
120 177
120 191
121 47
121 50
121 51
121 57
121 67
121 75
121 85
121 93
121 94
121 96
121 100
121 112
121 120
121 122
121 134
121 140
121 143
121 148
121 153
121 158
121 172
121 173
121 177
121 186
121 191
121 205
121 206
122 34
122 47
122 51
122 61
122 67
122 75
122 88
122 93
122 94
122 100
122 101
122 111
122 120
122 121
122 132
122 134
122 143
122 148
122 153
122 158
122 167
122 172
122 174
122 177
122 186
122 205
123 42
123 55
123 58
123 63
123 72
123 77
123 92
123 95
123 102
123 104
123 106
123 116
123 125
123 129
123 142
123 147
123 152
123 155
123 156
123 157
123 170
123 171
123 175
123 179
123 188
123 208
124 40
124 56
124 64
124 73
124 78
124 81
124 83
124 91
124 105
124 108
124 110
124 115
124 118
124 128
124 130
124 136
124 138
124 144
124 145
124 159
124 161
124 162
124 163
124 180
124 181
124 190
124 201
125 38
125 55
125 66
125 70
125 88
125 92
125 95
125 101
125 102
125 104
125 111
125 123
125 129
125 132
125 134
125 147
125 155
125 156
125 157
125 167
125 171
125 174
125 175
125 184
125 188
126 43
126 44
126 59
126 71
126 82
126 84
126 85
126 96
126 103
126 109
126 112
126 114
126 120
126 131
126 140
126 141
126 148
126 151
126 153
126 165
126 168
126 173
126 176
126 189
126 194
126 200
126 214
127 35
127 52
127 54
127 60
127 76
127 83
127 97
127 105
127 115
127 128
127 130
127 136
127 138
127 154
127 161
127 163
127 182
127 183
127 197
127 211
127 212
128 40
128 52
128 54
128 64
128 76
128 78
128 81
128 83
128 91
128 97
128 105
128 110
128 115
128 118
128 124
128 127
128 130
128 136
128 138
128 144
128 159
128 161
128 162
128 163
128 180
128 181
128 183
128 190
128 197
128 201
129 42
129 55
129 58
129 66
129 77
129 92
129 95
129 101
129 102
129 104
129 116
129 123
129 125
129 132
129 142
129 147
129 155
129 156
129 157
129 170
129 171
129 175
129 184
129 188
129 208
130 52
130 54
130 60
130 64
130 76
130 83
130 91
130 97
130 105
130 110
130 115
130 124
130 127
130 128
130 136
130 138
130 154
130 159
130 161
130 162
130 163
130 182
130 183
130 190
130 197
131 41
131 44
131 68
131 69
131 71
131 82
131 84
131 87
131 90
131 96
131 103
131 107
131 109
131 114
131 119
131 126
131 139
131 141
131 149
131 150
131 151
131 165
131 168
131 176
131 178
131 189
131 196
131 200
132 38
132 39
132 61
132 66
132 67
132 70
132 88
132 93
132 95
132 101
132 104
132 111
132 122
132 125
132 129
132 134
132 143
132 156
132 157
132 158
132 167
132 174
132 175
132 184
132 202
133 48
133 49
133 62
133 74
133 79
133 80
133 89
133 98
133 99
133 106
133 108
133 113
133 117
133 135
133 137
133 145
133 146
133 152
133 160
133 166
133 169
133 187
133 192
133 193
133 198
133 203
133 217
134 39
134 61
134 67
134 70
134 88
134 93
134 94
134 95
134 100
134 101
134 111
134 121
134 122
134 125
134 132
134 143
134 157
134 158
134 167
134 174
134 177
134 184
134 186
134 202
134 215
135 62
135 73
135 74
135 78
135 79
135 81
135 89
135 98
135 99
135 108
135 110
135 117
135 118
135 133
135 137
135 144
135 145
135 160
135 162
135 166
135 169
135 181
135 187
135 192
135 195
135 198
136 52
136 64
136 76
136 83
136 91
136 97
136 105
136 110
136 115
136 124
136 127
136 128
136 130
136 138
136 154
136 159
136 161
136 162
136 163
136 180
136 181
136 182
136 183
136 190
136 197
136 201
136 212
136 220
137 62
137 73
137 74
137 79
137 81
137 89
137 98
137 99
137 108
137 113
137 117
137 118
137 133
137 135
137 144
137 145
137 146
137 160
137 166
137 169
137 187
137 192
137 193
137 195
137 198
137 217
137 226
138 54
138 60
138 76
138 83
138 97
138 105
138 115
138 124
138 127
138 128
138 130
138 136
138 154
138 159
138 161
138 163
138 182
138 183
138 190
138 197
138 211
138 212
138 222
139 53
139 65
139 69
139 86
139 87
139 90
139 103
139 107
139 119
139 131
139 149
139 150
139 151
139 164
139 165
139 178
139 185
139 196
139 199
139 210
140 59
140 82
140 84
140 85
140 96
140 109
140 112
140 114
140 120
140 121
140 126
140 141
140 148
140 151
140 153
140 168
140 172
140 173
140 176
140 189
140 191
140 194
140 200
140 207
140 214
141 59
141 71
141 82
141 84
141 85
141 96
141 103
141 109
141 112
141 114
141 120
141 126
141 131
141 140
141 149
141 151
141 153
141 165
141 168
141 173
141 176
141 189
141 194
141 200
141 207
141 214
141 221
142 58
142 63
142 72
142 77
142 92
142 102
142 104
142 106
142 113
142 116
142 123
142 129
142 146
142 147
142 152
142 155
142 156
142 170
142 171
142 175
142 179
142 188
142 204
142 208
142 209
143 61
143 67
143 88
143 93
143 94
143 100
143 101
143 111
143 121
143 122
143 132
143 134
143 148
143 157
143 158
143 167
143 172
143 174
143 177
143 186
143 202
143 205
143 215
143 219
144 56
144 73
144 74
144 78
144 81
144 91
144 98
144 108
144 110
144 117
144 118
144 124
144 128
144 135
144 137
144 145
144 159
144 162
144 166
144 169
144 180
144 181
144 190
144 192
144 195
144 198
144 201
144 213
145 73
145 74
145 78
145 81
145 89
145 91
145 98
145 99
145 108
145 110
145 117
145 118
145 124
145 133
145 135
145 137
145 144
145 159
145 160
145 162
145 166
145 169
145 180
145 181
145 187
145 192
145 195
145 198
145 213
145 225
145 229
146 72
146 79
146 80
146 89
146 99
146 106
146 113
146 116
146 117
146 133
146 137
146 142
146 152
146 160
146 169
146 170
146 179
146 187
146 193
146 203
146 204
146 217
147 58
147 63
147 77
147 92
147 95
147 102
147 104
147 106
147 116
147 123
147 125
147 129
147 142
147 152
147 155
147 156
147 157
147 170
147 171
147 175
147 179
147 188
147 204
147 208
147 209
147 216
148 57
148 75
148 85
148 93
148 94
148 100
148 112
148 120
148 121
148 122
148 126
148 140
148 143
148 153
148 158
148 172
148 173
148 177
148 186
148 191
148 194
148 205
148 206
148 207
148 227
148 228
149 68
149 69
149 71
149 82
149 87
149 90
149 103
149 107
149 109
149 114
149 119
149 131
149 139
149 141
149 150
149 151
149 164
149 165
149 168
149 178
149 185
149 189
149 196
149 199
149 200
149 221
149 223
149 224
150 69
150 86
150 87
150 90
150 103
150 107
150 114
150 119
150 131
150 139
150 149
150 151
150 164
150 165
150 178
150 185
150 189
150 196
150 199
150 210
150 223
150 224
151 68
151 71
151 82
151 84
151 87
151 96
151 103
151 107
151 109
151 114
151 126
151 131
151 139
151 140
151 141
151 149
151 150
151 165
151 168
151 173
151 176
151 178
151 189
151 194
151 196
151 200
151 214
151 221
151 224
152 63
152 72
152 77
152 80
152 92
152 106
152 113
152 116
152 123
152 133
152 142
152 146
152 147
152 155
152 160
152 170
152 171
152 179
152 188
152 193
152 203
152 204
152 208
152 209
152 230
153 75
153 85
153 94
153 96
153 100
153 109
153 112
153 120
153 121
153 122
153 126
153 140
153 141
153 148
153 158
153 168
153 172
153 173
153 176
153 177
153 191
153 194
153 205
153 206
153 207
153 214
153 228
154 76
154 83
154 97
154 105
154 115
154 127
154 130
154 136
154 138
154 161
154 163
154 182
154 183
154 190
154 197
154 211
154 212
154 222
154 234
155 77
155 92
155 95
155 102
155 104
155 116
155 123
155 125
155 129
155 142
155 147
155 152
155 156
155 157
155 170
155 171
155 175
155 179
155 184
155 188
155 208
155 209
155 216
155 218
156 92
156 95
156 101
156 102
156 104
156 123
156 125
156 129
156 132
156 142
156 147
156 155
156 157
156 167
156 170
156 171
156 175
156 184
156 188
156 202
156 208
156 216
156 218
157 95
157 101
157 102
157 104
157 111
157 123
157 125
157 129
157 132
157 134
157 143
157 147
157 155
157 156
157 167
157 171
157 174
157 175
157 184
157 188
157 202
157 208
157 216
157 218
158 88
158 93
158 94
158 100
158 111
158 120
158 121
158 122
158 132
158 134
158 143
158 148
158 153
158 167
158 172
158 174
158 177
158 186
158 191
158 202
158 205
158 206
158 215
158 219
158 227
158 241
159 78
159 83
159 91
159 105
159 110
159 115
159 118
159 124
159 128
159 130
159 136
159 138
159 144
159 145
159 161
159 162
159 163
159 180
159 181
159 183
159 190
159 195
159 197
159 201
159 213
159 220
159 231
159 232
160 79
160 80
160 89
160 98
160 99
160 106
160 113
160 117
160 133
160 135
160 137
160 145
160 146
160 152
160 166
160 169
160 179
160 187
160 192
160 193
160 198
160 203
160 204
160 217
160 226
160 233
161 76
161 83
161 91
161 97
161 105
161 110
161 115
161 124
161 127
161 128
161 130
161 136
161 138
161 154
161 159
161 162
161 163
161 180
161 181
161 182
161 183
161 190
161 197
161 201
161 211
161 212
161 220
161 222
161 231
161 232
162 78
162 81
162 91
162 105
162 108
162 110
162 118
162 124
162 128
162 130
162 135
162 136
162 144
162 145
162 159
162 161
162 163
162 166
162 180
162 181
162 190
162 192
162 195
162 201
162 213
162 220
162 229
162 232
163 76
163 83
163 97
163 105
163 115
163 124
163 127
163 128
163 130
163 136
163 138
163 154
163 159
163 161
163 162
163 180
163 182
163 183
163 190
163 197
163 201
163 211
163 212
163 220
163 222
163 231
163 234
164 86
164 90
164 107
164 119
164 139
164 149
164 150
164 165
164 178
164 185
164 196
164 199
164 210
164 223
164 238
164 239
165 87
165 103
165 107
165 109
165 114
165 126
165 131
165 139
165 141
165 149
165 150
165 151
165 164
165 168
165 176
165 178
165 185
165 189
165 196
165 199
165 200
165 214
165 221
165 223
165 224
165 244
165 248
166 89
166 98
166 99
166 108
166 110
166 117
166 118
166 133
166 135
166 137
166 144
166 145
166 160
166 162
166 169
166 180
166 181
166 187
166 192
166 193
166 195
166 198
166 213
166 217
166 225
166 226
166 229
166 243
167 88
167 95
167 101
167 111
167 122
167 125
167 132
167 134
167 143
167 156
167 157
167 158
167 174
167 175
167 184
167 186
167 202
167 215
167 218
167 237
167 246
168 82
168 84
168 96
168 103
168 109
168 112
168 114
168 126
168 131
168 140
168 141
168 149
168 151
168 153
168 165
168 173
168 176
168 189
168 194
168 196
168 200
168 207
168 214
168 221
168 224
168 235
168 236
168 244
169 89
169 98
169 99
169 108
169 117
169 118
169 133
169 135
169 137
169 144
169 145
169 146
169 160
169 166
169 181
169 187
169 192
169 193
169 195
169 198
169 203
169 217
169 225
169 226
169 229
169 233
169 243
170 92
170 102
170 106
170 113
170 116
170 123
170 129
170 142
170 146
170 147
170 152
170 155
170 156
170 171
170 175
170 179
170 188
170 203
170 204
170 208
170 209
170 216
170 230
170 240
170 242
170 255
171 92
171 102
171 104
171 106
171 116
171 123
171 125
171 129
171 142
171 147
171 152
171 155
171 156
171 157
171 170
171 175
171 179
171 184
171 188
171 204
171 208
171 209
171 216
171 218
171 230
171 240
171 250
172 85
172 94
172 100
172 112
172 120
172 121
172 122
172 140
172 143
172 148
172 153
172 158
172 173
172 176
172 177
172 186
172 191
172 194
172 205
172 206
172 207
172 214
172 219
172 227
172 228
173 85
173 96
173 109
173 112
173 120
173 121
173 126
173 140
173 141
173 148
173 151
173 153
173 168
173 172
173 176
173 189
173 191
173 194
173 200
173 206
173 207
173 214
173 228
173 235
173 236
174 88
174 93
174 101
174 111
174 122
174 125
174 132
174 134
174 143
174 157
174 158
174 167
174 177
174 184
174 186
174 202
174 205
174 215
174 218
174 219
174 237
174 241
174 246
175 95
175 102
175 104
175 123
175 125
175 129
175 132
175 142
175 147
175 155
175 156
175 157
175 167
175 170
175 171
175 184
175 188
175 202
175 208
175 209
175 216
175 218
175 240
175 245
175 249
175 250
176 84
176 96
176 109
176 112
176 114
176 120
176 126
176 131
176 140
176 141
176 151
176 153
176 165
176 168
176 172
176 173
176 189
176 191
176 194
176 196
176 200
176 207
176 214
176 221
176 228
176 235
176 236
176 253
177 94
177 100
177 120
177 121
177 122
177 134
177 143
177 148
177 153
177 158
177 172
177 174
177 186
177 191
177 205
177 206
177 207
177 215
177 219
177 227
177 228
177 237
177 241
177 258
178 107
178 119
178 131
178 139
178 149
178 150
178 151
178 164
178 165
178 185
178 189
178 196
178 199
178 210
178 221
178 223
178 224
178 238
178 239
178 244
178 248
178 259
179 106
179 113
179 116
179 123
179 142
179 146
179 147
179 152
179 155
179 160
179 170
179 171
179 187
179 188
179 193
179 203
179 204
179 208
179 209
179 230
179 233
179 240
179 242
179 247
179 255
180 105
180 110
180 118
180 124
180 128
180 136
180 144
180 145
180 159
180 161
180 162
180 163
180 166
180 181
180 190
180 192
180 195
180 197
180 201
180 213
180 220
180 225
180 229
180 231
180 232
180 251
180 252
181 108
181 110
181 118
181 124
181 128
181 135
181 136
181 144
181 145
181 159
181 161
181 162
181 166
181 169
181 180
181 190
181 192
181 195
181 198
181 201
181 213
181 220
181 225
181 229
181 232
181 251
181 252
182 97
182 115
182 127
182 130
182 136
182 138
182 154
182 161
182 163
182 183
182 190
182 197
182 211
182 212
182 222
182 231
182 234
183 97
183 115
183 127
183 128
183 130
183 136
183 138
183 154
183 159
183 161
183 163
183 182
183 190
183 197
183 201
183 211
183 212
183 220
183 222
183 231
183 234
184 101
184 104
184 125
184 129
184 132
184 134
184 155
184 156
184 157
184 167
184 171
184 174
184 175
184 188
184 202
184 208
184 215
184 216
184 218
184 245
184 246
184 249
185 119
185 139
185 149
185 150
185 164
185 165
185 178
185 196
185 199
185 210
185 223
185 224
185 238
185 239
185 248
185 259
185 262
186 111
186 121
186 122
186 134
186 143
186 148
186 158
186 167
186 172
186 174
186 177
186 191
186 202
186 205
186 206
186 215
186 219
186 227
186 237
186 241
186 258
186 266
187 99
187 113
187 117
187 133
187 135
187 137
187 145
187 146
187 160
187 166
187 169
187 179
187 192
187 193
187 195
187 198
187 203
187 204
187 217
187 225
187 226
187 229
187 233
187 243
187 247
187 254
187 256
187 265
188 116
188 123
188 125
188 129
188 142
188 147
188 152
188 155
188 156
188 157
188 170
188 171
188 175
188 179
188 184
188 204
188 208
188 209
188 216
188 218
188 230
188 240
188 245
188 249
188 250
188 255
189 109
189 114
189 126
189 131
189 140
189 141
189 149
189 150
189 151
189 165
189 168
189 173
189 176
189 178
189 194
189 196
189 199
189 200
189 214
189 221
189 223
189 224
189 235
189 236
189 244
189 248
189 253
190 105
190 115
190 124
190 128
190 130
190 136
190 138
190 144
190 154
190 159
190 161
190 162
190 163
190 180
190 181
190 182
190 183
190 197
190 201
190 211
190 212
190 213
190 220
190 222
190 231
190 232
190 252
190 261
190 263
191 112
191 120
191 121
191 140
191 148
191 153
191 158
191 172
191 173
191 176
191 177
191 186
191 194
191 205
191 206
191 207
191 214
191 219
191 227
191 228
191 235
191 241
191 257
191 258
191 260
192 108
192 117
192 118
192 133
192 135
192 137
192 144
192 145
192 160
192 162
192 166
192 169
192 180
192 181
192 187
192 193
192 195
192 198
192 201
192 213
192 217
192 225
192 226
192 229
192 243
192 251
192 254
192 256
193 113
193 133
193 137
193 146
193 152
193 160
193 166
193 169
193 179
193 187
193 192
193 198
193 203
193 204
193 217
193 225
193 226
193 230
193 233
193 242
193 243
193 247
193 254
193 265
194 112
194 126
194 140
194 141
194 148
194 151
194 153
194 168
194 172
194 173
194 176
194 189
194 191
194 200
194 206
194 207
194 214
194 221
194 228
194 235
194 236
194 253
194 257
194 260
194 269
195 118
195 135
195 137
195 144
195 145
195 159
195 162
195 166
195 169
195 180
195 181
195 187
195 192
195 198
195 201
195 213
195 217
195 225
195 226
195 229
195 232
195 243
195 251
195 252
195 256
195 272
196 131
196 139
196 149
196 150
196 151
196 164
196 165
196 168
196 176
196 178
196 185
196 189
196 199
196 200
196 210
196 214
196 221
196 223
196 224
196 236
196 238
196 244
196 248
196 253
196 259
197 115
197 127
197 128
197 130
197 136
197 138
197 154
197 159
197 161
197 163
197 180
197 182
197 183
197 190
197 201
197 211
197 212
197 220
197 222
197 231
197 232
197 234
197 261
197 263
197 267
197 270
198 117
198 133
198 135
198 137
198 144
198 145
198 160
198 166
198 169
198 181
198 187
198 192
198 193
198 195
198 203
198 213
198 217
198 225
198 226
198 229
198 233
198 243
198 254
198 256
198 265
198 282
199 119
199 139
199 149
199 150
199 164
199 165
199 178
199 185
199 189
199 196
199 210
199 221
199 223
199 224
199 238
199 239
199 244
199 248
199 259
199 262
200 126
200 131
200 140
200 141
200 149
200 151
200 165
200 168
200 173
200 176
200 189
200 194
200 196
200 207
200 214
200 221
200 223
200 224
200 235
200 236
200 244
200 248
200 253
200 269
200 274
200 275
201 124
201 128
201 136
201 144
201 159
201 161
201 162
201 163
201 180
201 181
201 183
201 190
201 192
201 195
201 197
201 213
201 220
201 222
201 229
201 231
201 232
201 251
201 252
201 261
201 263
202 132
202 134
202 143
202 156
202 157
202 158
202 167
202 174
202 175
202 184
202 186
202 215
202 218
202 219
202 237
202 241
202 245
202 246
202 273
202 281
203 133
203 146
203 152
203 160
203 169
203 170
203 179
203 187
203 193
203 198
203 204
203 209
203 217
203 226
203 230
203 233
203 242
203 243
203 247
203 254
203 264
203 265
203 268
203 271
204 142
204 146
204 147
204 152
204 160
204 170
204 171
204 179
204 187
204 188
204 193
204 203
204 208
204 209
204 216
204 217
204 230
204 233
204 240
204 242
204 247
204 255
204 264
204 265
204 268
204 271
205 121
205 122
205 143
205 148
205 153
205 158
205 172
205 174
205 177
205 186
205 191
205 206
205 207
205 215
205 219
205 227
205 228
205 237
205 241
205 257
205 258
205 260
205 266
205 278
206 121
206 148
206 153
206 158
206 172
206 173
206 177
206 186
206 191
206 194
206 205
206 207
206 214
206 219
206 227
206 228
206 235
206 241
206 257
206 258
206 260
206 266
206 278
206 283
207 140
207 141
207 148
207 153
207 168
207 172
207 173
207 176
207 177
207 191
207 194
207 200
207 205
207 206
207 214
207 227
207 228
207 235
207 236
207 257
207 258
207 260
207 269
207 279
207 283
208 123
208 129
208 142
208 147
208 152
208 155
208 156
208 157
208 170
208 171
208 175
208 179
208 184
208 188
208 204
208 209
208 216
208 218
208 230
208 240
208 242
208 245
208 249
208 250
208 255
208 264
208 276
208 280
209 142
209 147
209 152
209 155
209 170
209 171
209 175
209 179
209 188
209 203
209 204
209 208
209 216
209 230
209 240
209 242
209 247
209 249
209 250
209 255
209 264
209 268
209 276
210 139
210 150
210 164
210 178
210 185
210 196
210 199
210 223
210 224
210 238
210 239
210 259
210 262
210 289
211 127
211 138
211 154
211 161
211 163
211 182
211 183
211 190
211 197
211 212
211 220
211 222
211 231
211 234
211 267
211 270
212 127
212 136
212 138
212 154
212 161
212 163
212 182
212 183
212 190
212 197
212 211
212 220
212 222
212 231
212 234
212 263
212 267
212 270
213 144
213 145
213 159
213 162
213 166
213 180
213 181
213 190
213 192
213 195
213 198
213 201
213 220
213 225
213 226
213 229
213 231
213 232
213 251
213 252
213 256
213 261
213 272
213 290
213 292
214 126
214 140
214 141
214 151
214 153
214 165
214 168
214 172
214 173
214 176
214 189
214 191
214 194
214 196
214 200
214 206
214 207
214 221
214 224
214 228
214 235
214 236
214 244
214 253
214 257
214 260
214 269
214 274
214 275
214 279
215 134
215 143
215 158
215 167
215 174
215 177
215 184
215 186
215 202
215 205
215 218
215 219
215 227
215 237
215 241
215 245
215 246
215 258
215 266
215 281
215 293
215 294
216 147
216 155
216 156
216 157
216 170
216 171
216 175
216 184
216 188
216 204
216 208
216 209
216 218
216 230
216 240
216 245
216 249
216 250
216 255
216 273
216 276
216 277
216 280
217 133
217 137
217 146
217 160
217 166
217 169
217 187
217 192
217 193
217 195
217 198
217 203
217 204
217 225
217 226
217 229
217 233
217 242
217 243
217 247
217 254
217 256
217 265
217 271
217 282
217 284
218 155
218 156
218 157
218 167
218 171
218 174
218 175
218 184
218 188
218 202
218 208
218 215
218 216
218 237
218 240
218 245
218 246
218 249
218 250
218 273
218 277
218 280
218 293
219 143
219 158
219 172
219 174
219 177
219 186
219 191
219 202
219 205
219 206
219 215
219 227
219 228
219 237
219 241
219 246
219 257
219 258
219 266
219 278
219 281
219 294
220 136
220 159
220 161
220 162
220 163
220 180
220 181
220 183
220 190
220 197
220 201
220 211
220 212
220 213
220 222
220 231
220 232
220 234
220 251
220 252
220 261
220 263
220 270
220 286
220 290
220 291
221 141
221 149
221 151
221 165
221 168
221 176
221 178
221 189
221 194
221 196
221 199
221 200
221 214
221 223
221 224
221 235
221 236
221 238
221 244
221 248
221 253
221 259
221 269
221 274
221 275
221 285
221 287
221 299
222 138
222 154
222 161
222 163
222 182
222 183
222 190
222 197
222 201
222 211
222 212
222 220
222 231
222 232
222 234
222 261
222 263
222 267
222 270
222 286
222 291
222 295
222 298
223 149
223 150
223 164
223 165
223 178
223 185
223 189
223 196
223 199
223 200
223 210
223 221
223 224
223 238
223 239
223 244
223 248
223 253
223 259
223 262
223 275
223 285
223 287
223 288
223 289
224 149
224 150
224 151
224 165
224 168
224 178
224 185
224 189
224 196
224 199
224 200
224 210
224 214
224 221
224 223
224 236
224 238
224 239
224 244
224 248
224 253
224 259
224 262
224 274
224 275
224 285
224 287
224 288
224 299
225 145
225 166
225 169
225 180
225 181
225 187
225 192
225 193
225 195
225 198
225 213
225 217
225 226
225 229
225 232
225 233
225 243
225 251
225 252
225 254
225 256
225 272
225 282
225 284
225 292
225 300
226 137
226 160
226 166
226 169
226 187
226 192
226 193
226 195
226 198
226 203
226 213
226 217
226 225
226 229
226 233
226 243
226 247
226 251
226 254
226 256
226 265
226 272
226 282
226 284
226 300
227 148
227 158
227 172
227 177
227 186
227 191
227 205
227 206
227 207
227 215
227 219
227 228
227 235
227 237
227 241
227 257
227 258
227 260
227 266
227 278
227 279
227 283
227 294
227 305
227 307
228 148
228 153
228 172
228 173
228 176
228 177
228 191
228 194
228 205
228 206
228 207
228 214
228 219
228 227
228 235
228 236
228 241
228 257
228 258
228 260
228 269
228 278
228 279
228 283
228 305
229 145
229 162
229 166
229 169
229 180
229 181
229 187
229 192
229 195
229 198
229 201
229 213
229 217
229 225
229 226
229 232
229 243
229 251
229 252
229 254
229 256
229 261
229 272
229 282
229 290
229 292
229 300
229 313
230 152
230 170
230 171
230 179
230 188
230 193
230 203
230 204
230 208
230 209
230 216
230 233
230 240
230 242
230 247
230 249
230 250
230 255
230 264
230 265
230 268
230 271
230 276
230 301
230 302
230 312
231 159
231 161
231 163
231 180
231 182
231 183
231 190
231 197
231 201
231 211
231 212
231 213
231 220
231 222
231 232
231 234
231 252
231 261
231 263
231 267
231 270
231 286
231 290
231 291
231 295
231 298
232 159
232 161
232 162
232 180
232 181
232 190
232 195
232 197
232 201
232 213
232 220
232 222
232 225
232 229
232 231
232 251
232 252
232 261
232 263
232 270
232 272
232 286
232 290
232 291
232 292
233 160
233 169
233 179
233 187
233 193
233 198
233 203
233 204
233 217
233 225
233 226
233 230
233 242
233 243
233 247
233 254
233 256
233 264
233 265
233 268
233 271
233 282
233 284
233 301
233 308
234 154
234 163
234 182
234 183
234 197
234 211
234 212
234 220
234 222
234 231
234 263
234 267
234 270
234 286
234 295
234 298
235 168
235 173
235 176
235 189
235 191
235 194
235 200
235 206
235 207
235 214
235 221
235 227
235 228
235 236
235 244
235 253
235 257
235 260
235 269
235 274
235 275
235 278
235 279
235 283
235 296
235 297
235 315
236 168
236 173
236 176
236 189
236 194
236 196
236 200
236 207
236 214
236 221
236 224
236 228
236 235
236 244
236 248
236 253
236 257
236 260
236 269
236 274
236 275
236 279
236 285
236 296
236 297
236 299
237 167
237 174
237 177
237 186
237 202
237 205
237 215
237 218
237 219
237 227
237 241
237 245
237 246
237 258
237 266
237 273
237 281
237 293
237 294
237 317
238 164
238 178
238 185
238 196
238 199
238 210
238 221
238 223
238 224
238 239
238 244
238 248
238 259
238 262
238 285
238 287
238 288
238 289
238 304
238 310
239 164
239 178
239 185
239 199
239 210
239 223
239 224
239 238
239 248
239 259
239 262
239 287
239 288
239 289
239 304
239 310
240 170
240 171
240 175
240 179
240 188
240 204
240 208
240 209
240 216
240 218
240 230
240 242
240 245
240 247
240 249
240 250
240 255
240 264
240 268
240 276
240 277
240 280
240 302
240 306
240 309
240 312
241 158
241 174
241 177
241 186
241 191
241 202
241 205
241 206
241 215
241 219
241 227
241 228
241 237
241 246
241 257
241 258
241 266
241 278
241 281
241 293
241 294
241 307
242 170
242 179
242 193
242 203
242 204
242 208
242 209
242 217
242 230
242 233
242 240
242 243
242 247
242 250
242 254
242 255
242 264
242 265
242 268
242 271
242 276
242 284
242 301
242 302
242 308
242 312
243 166
243 169
243 187
243 192
243 193
243 195
243 198
243 203
243 217
243 225
243 226
243 229
243 233
243 242
243 247
243 251
243 254
243 256
243 265
243 271
243 272
243 282
243 284
243 300
243 308
243 314
243 318
244 165
244 168
244 178
244 189
244 196
244 199
244 200
244 214
244 221
244 223
244 224
244 235
244 236
244 238
244 248
244 253
244 259
244 262
244 269
244 274
244 275
244 285
244 287
244 288
244 297
244 299
244 311
245 175
245 184
245 188
245 202
245 208
245 215
245 216
245 218
245 237
245 240
245 246
245 249
245 250
245 273
245 276
245 277
245 280
245 281
245 293
245 303
245 306
246 167
246 174
246 184
246 202
246 215
246 218
246 219
246 237
246 241
246 245
246 249
246 266
246 273
246 277
246 281
246 293
246 294
246 303
246 317
247 179
247 187
247 193
247 203
247 204
247 209
247 217
247 226
247 230
247 233
247 240
247 242
247 243
247 254
247 255
247 264
247 265
247 268
247 271
247 282
247 284
247 301
247 302
247 308
247 312
248 165
248 178
248 185
248 189
248 196
248 199
248 200
248 221
248 223
248 224
248 236
248 238
248 239
248 244
248 253
248 259
248 262
248 274
248 275
248 285
248 287
248 288
248 289
248 299
248 310
248 311
248 330
249 175
249 184
249 188
249 208
249 209
249 216
249 218
249 230
249 240
249 245
249 246
249 250
249 255
249 264
249 273
249 276
249 277
249 280
249 293
249 302
249 303
249 306
249 309
250 171
250 175
250 188
250 208
250 209
250 216
250 218
250 230
250 240
250 242
250 245
250 249
250 255
250 264
250 268
250 273
250 276
250 277
250 280
250 302
250 303
250 306
250 309
251 180
251 181
251 192
251 195
251 201
251 213
251 220
251 225
251 226
251 229
251 232
251 243
251 252
251 256
251 261
251 263
251 272
251 282
251 290
251 291
251 292
251 300
251 313
251 320
251 322
251 323
252 180
252 181
252 190
252 195
252 201
252 213
252 220
252 225
252 229
252 231
252 232
252 251
252 256
252 261
252 263
252 272
252 286
252 290
252 291
252 292
252 313
252 316
252 320
252 322
253 176
253 189
253 194
253 196
253 200
253 214
253 221
253 223
253 224
253 235
253 236
253 244
253 248
253 259
253 260
253 269
253 274
253 275
253 279
253 285
253 287
253 296
253 297
253 299
253 311
253 325
253 329
254 187
254 192
254 193
254 198
254 203
254 217
254 225
254 226
254 229
254 233
254 242
254 243
254 247
254 256
254 265
254 268
254 271
254 282
254 284
254 300
254 301
254 308
254 314
254 318
255 170
255 179
255 188
255 204
255 208
255 209
255 216
255 230
255 240
255 242
255 247
255 249
255 250
255 264
255 265
255 268
255 271
255 276
255 277
255 280
255 301
255 302
255 306
255 309
255 312
255 334
256 187
256 192
256 195
256 198
256 213
256 217
256 225
256 226
256 229
256 233
256 243
256 251
256 252
256 254
256 265
256 272
256 282
256 284
256 292
256 300
256 313
256 314
256 318
256 323
257 191
257 194
257 205
257 206
257 207
257 214
257 219
257 227
257 228
257 235
257 236
257 241
257 258
257 260
257 266
257 269
257 278
257 279
257 283
257 296
257 305
257 307
257 315
257 333
258 177
258 186
258 191
258 205
258 206
258 207
258 215
258 219
258 227
258 228
258 237
258 241
258 257
258 260
258 266
258 278
258 279
258 281
258 283
258 294
258 305
258 307
258 315
258 324
258 328
258 333
259 178
259 185
259 196
259 199
259 210
259 221
259 223
259 224
259 238
259 239
259 244
259 248
259 253
259 262
259 275
259 285
259 287
259 288
259 289
259 299
259 304
259 310
259 311
259 326
259 330
259 335
260 191
260 194
260 205
260 206
260 207
260 214
260 227
260 228
260 235
260 236
260 253
260 257
260 258
260 269
260 274
260 278
260 279
260 283
260 296
260 297
260 305
260 307
260 315
260 327
260 338
261 190
261 197
261 201
261 213
261 220
261 222
261 229
261 231
261 232
261 251
261 252
261 263
261 270
261 272
261 286
261 290
261 291
261 292
261 298
261 316
261 319
261 320
261 321
261 322
262 185
262 199
262 210
262 223
262 224
262 238
262 239
262 244
262 248
262 259
262 285
262 287
262 288
262 289
262 304
262 310
262 311
262 326
262 335
263 190
263 197
263 201
263 212
263 220
263 222
263 231
263 232
263 234
263 251
263 252
263 261
263 267
263 270
263 286
263 290
263 291
263 292
263 295
263 298
263 316
263 319
263 321
263 322
263 340
264 203
264 204
264 208
264 209
264 230
264 233
264 240
264 242
264 247
264 249
264 250
264 255
264 265
264 268
264 271
264 276
264 280
264 301
264 302
264 308
264 309
264 312
264 334
265 187
265 193
265 198
265 203
265 204
265 217
265 226
265 230
265 233
265 242
265 243
265 247
265 254
265 255
265 256
265 264
265 268
265 271
265 282
265 284
265 300
265 301
265 308
265 312
265 314
265 318
266 186
266 205
266 206
266 215
266 219
266 227
266 237
266 241
266 246
266 257
266 258
266 278
266 281
266 283
266 293
266 294
266 305
266 307
266 317
266 324
266 328
267 197
267 211
267 212
267 222
267 231
267 234
267 263
267 270
267 286
267 295
267 298
267 319
267 321
267 331
267 339
268 203
268 204
268 209
268 230
268 233
268 240
268 242
268 247
268 250
268 254
268 255
268 264
268 265
268 271
268 276
268 284
268 301
268 302
268 308
268 309
268 312
268 334
268 345
268 349
269 194
269 200
269 207
269 214
269 221
269 228
269 235
269 236
269 244
269 253
269 257
269 260
269 274
269 275
269 278
269 279
269 283
269 285
269 296
269 297
269 299
269 315
269 325
269 327
269 336
269 338
270 197
270 211
270 212
270 220
270 222
270 231
270 232
270 234
270 261
270 263
270 267
270 286
270 290
270 291
270 295
270 298
270 316
270 319
270 321
270 331
270 339
270 340
271 203
271 204
271 217
271 230
271 233
271 242
271 243
271 247
271 254
271 255
271 264
271 265
271 268
271 282
271 284
271 301
271 302
271 308
271 312
271 314
271 345
271 346
271 349
272 195
272 213
272 225
272 226
272 229
272 232
272 243
272 251
272 252
272 256
272 261
272 282
272 290
272 291
272 292
272 300
272 313
272 314
272 316
272 318
272 320
272 322
272 323
272 343
272 347
272 348
273 202
273 216
273 218
273 237
273 245
273 246
273 249
273 250
273 276
273 277
273 280
273 281
273 293
273 303
273 306
273 309
273 317
273 332
273 337
273 342
274 200
274 214
274 221
274 224
274 235
274 236
274 244
274 248
274 253
274 260
274 269
274 275
274 279
274 283
274 285
274 287
274 296
274 297
274 299
274 311
274 315
274 325
274 327
274 329
274 330
274 336
274 353
275 200
275 214
275 221
275 223
275 224
275 235
275 236
275 244
275 248
275 253
275 259
275 269
275 274
275 279
275 285
275 287
275 288
275 296
275 297
275 299
275 310
275 311
275 325
275 327
275 329
275 330
275 335
275 336
275 355
276 208
276 209
276 216
276 230
276 240
276 242
276 245
276 249
276 250
276 255
276 264
276 268
276 273
276 277
276 280
276 302
276 303
276 306
276 309
276 312
276 332
276 334
276 337
276 354
277 216
277 218
277 240
277 245
277 246
277 249
277 250
277 255
277 273
277 276
277 280
277 281
277 293
277 302
277 303
277 306
277 309
277 332
277 337
277 342
278 205
278 206
278 219
278 227
278 228
278 235
278 241
278 257
278 258
278 260
278 266
278 269
278 279
278 281
278 283
278 294
278 296
278 305
278 307
278 315
278 324
278 328
278 333
278 338
278 357
279 207
279 214
279 227
279 228
279 235
279 236
279 253
279 257
279 258
279 260
279 269
279 274
279 275
279 278
279 283
279 296
279 297
279 305
279 307
279 315
279 325
279 327
279 333
279 338
280 208
280 216
280 218
280 240
280 245
280 249
280 250
280 255
280 264
280 273
280 276
280 277
280 293
280 302
280 303
280 306
280 309
280 312
280 332
280 334
280 337
280 342
280 354
281 202
281 215
281 219
281 237
281 241
281 245
281 246
281 258
281 266
281 273
281 277
281 278
281 293
281 294
281 303
281 307
281 317
281 324
281 328
281 341
282 198
282 217
282 225
282 226
282 229
282 233
282 243
282 247
282 251
282 254
282 256
282 265
282 271
282 272
282 284
282 300
282 301
282 308
282 313
282 314
282 318
282 323
282 346
282 348
283 206
283 207
283 227
283 228
283 235
283 257
283 258
283 260
283 266
283 269
283 274
283 278
283 279
283 294
283 296
283 297
283 305
283 307
283 315
283 327
283 328
283 333
283 338
284 217
284 225
284 226
284 233
284 242
284 243
284 247
284 254
284 256
284 265
284 268
284 271
284 282
284 300
284 301
284 308
284 312
284 313
284 314
284 318
284 323
284 345
284 346
285 221
285 223
285 224
285 236
285 238
285 244
285 248
285 253
285 259
285 262
285 269
285 274
285 275
285 287
285 288
285 289
285 296
285 297
285 299
285 310
285 311
285 325
285 326
285 329
285 330
285 335
285 336
285 352
285 355
286 220
286 222
286 231
286 232
286 234
286 252
286 261
286 263
286 267
286 270
286 290
286 291
286 292
286 295
286 298
286 316
286 319
286 320
286 321
286 322
286 331
286 339
286 340
286 350
286 363
287 221
287 223
287 224
287 238
287 239
287 244
287 248
287 253
287 259
287 262
287 274
287 275
287 285
287 288
287 289
287 297
287 299
287 304
287 310
287 311
287 325
287 326
287 329
287 330
287 335
287 336
287 344
287 352
287 355
288 223
288 224
288 238
288 239
288 244
288 248
288 259
288 262
288 275
288 285
288 287
288 289
288 299
288 304
288 310
288 311
288 326
288 329
288 330
288 335
288 344
288 352
289 210
289 223
289 238
289 239
289 248
289 259
289 262
289 285
289 287
289 288
289 304
289 310
289 311
289 326
289 330
289 335
289 344
289 352
290 213
290 220
290 229
290 231
290 232
290 251
290 252
290 261
290 263
290 270
290 272
290 286
290 291
290 292
290 298
290 313
290 316
290 319
290 320
290 322
290 323
290 340
290 343
290 347
290 350
290 356
291 220
291 222
291 231
291 232
291 251
291 252
291 261
291 263
291 270
291 272
291 286
291 290
291 292
291 295
291 298
291 313
291 316
291 319
291 320
291 321
291 322
291 339
291 340
291 347
291 350
291 363
292 213
292 225
292 229
292 232
292 251
292 252
292 256
292 261
292 263
292 272
292 286
292 290
292 291
292 300
292 313
292 316
292 318
292 319
292 320
292 322
292 323
292 343
292 347
292 348
292 350
292 356
293 215
293 218
293 237
293 241
293 245
293 246
293 249
293 266
293 273
293 277
293 280
293 281
293 294
293 303
293 306
293 317
293 324
293 328
293 337
293 341
293 342
294 215
294 219
294 227
294 237
294 241
294 246
294 258
294 266
294 278
294 281
294 283
294 293
294 305
294 307
294 317
294 324
294 328
294 333
294 341
294 357
294 359
294 372
295 222
295 231
295 234
295 263
295 267
295 270
295 286
295 291
295 298
295 316
295 319
295 321
295 331
295 339
295 340
295 364
295 366
296 235
296 236
296 253
296 257
296 260
296 269
296 274
296 275
296 278
296 279
296 283
296 285
296 297
296 299
296 305
296 315
296 325
296 327
296 329
296 333
296 336
296 338
296 353
296 360
296 361
297 235
297 236
297 244
297 253
297 260
297 269
297 274
297 275
297 279
297 283
297 285
297 287
297 296
297 299
297 311
297 315
297 325
297 327
297 329
297 330
297 336
297 338
297 353
297 360
297 361
298 222
298 231
298 234
298 261
298 263
298 267
298 270
298 286
298 290
298 291
298 295
298 316
298 319
298 321
298 322
298 331
298 339
298 340
298 350
298 363
298 364
298 366
299 221
299 224
299 236
299 244
299 248
299 253
299 259
299 269
299 274
299 275
299 285
299 287
299 288
299 296
299 297
299 310
299 311
299 325
299 327
299 329
299 330
299 335
299 336
299 353
299 355
299 360
299 370
299 376
300 225
300 226
300 229
300 243
300 251
300 254
300 256
300 265
300 272
300 282
300 284
300 292
300 308
300 313
300 314
300 318
300 320
300 323
300 343
300 346
300 347
300 348
300 356
300 365
300 367
301 230
301 233
301 242
301 247
301 254
301 255
301 264
301 265
301 268
301 271
301 282
301 284
301 302
301 308
301 312
301 314
301 318
301 334
301 345
301 346
301 349
301 351
301 365
301 368
301 374
302 230
302 240
302 242
302 247
302 249
302 250
302 255
302 264
302 268
302 271
302 276
302 277
302 280
302 301
302 306
302 308
302 309
302 312
302 332
302 334
302 345
302 349
302 351
302 354
302 358
302 374
303 245
303 246
303 249
303 250
303 273
303 276
303 277
303 280
303 281
303 293
303 306
303 309
303 317
303 324
303 332
303 337
303 341
303 342
303 354
303 362
303 378
304 238
304 239
304 259
304 262
304 287
304 288
304 289
304 310
304 311
304 326
304 330
304 335
304 344
304 352
304 371
305 227
305 228
305 257
305 258
305 260
305 266
305 278
305 279
305 283
305 294
305 296
305 307
305 315
305 324
305 327
305 328
305 333
305 338
305 357
305 359
305 361
305 375
305 379
306 240
306 245
306 249
306 250
306 255
306 273
306 276
306 277
306 280
306 293
306 302
306 303
306 309
306 332
306 334
306 337
306 342
306 354
306 358
306 362
306 378
307 227
307 241
307 257
307 258
307 260
307 266
307 278
307 279
307 281
307 283
307 294
307 305
307 315
307 317
307 324
307 328
307 333
307 338
307 341
307 357
307 359
307 379
307 383
308 233
308 242
308 243
308 247
308 254
308 264
308 265
308 268
308 271
308 282
308 284
308 300
308 301
308 302
308 312
308 314
308 318
308 345
308 346
308 349
308 351
308 365
308 368
309 240
309 249
309 250
309 255
309 264
309 268
309 273
309 276
309 277
309 280
309 302
309 303
309 306
309 312
309 332
309 334
309 337
309 342
309 349
309 351
309 354
309 358
309 362
310 238
310 239
310 248
310 259
310 262
310 275
310 285
310 287
310 288
310 289
310 299
310 304
310 311
310 326
310 329
310 330
310 335
310 336
310 344
310 352
310 355
310 370
310 371
310 376
310 380
311 244
311 248
311 253
311 259
311 262
311 274
311 275
311 285
311 287
311 288
311 289
311 297
311 299
311 304
311 310
311 325
311 326
311 329
311 330
311 335
311 336
311 344
311 352
311 355
311 360
311 370
311 376
311 380
312 230
312 240
312 242
312 247
312 255
312 264
312 265
312 268
312 271
312 276
312 280
312 284
312 301
312 302
312 308
312 309
312 332
312 334
312 345
312 346
312 349
312 351
312 354
312 358
312 368
312 374
313 229
313 251
313 252
313 256
313 272
313 282
313 284
313 290
313 291
313 292
313 300
313 314
313 316
313 318
313 320
313 322
313 323
313 343
313 347
313 348
313 356
313 367
313 373
313 381
313 382
314 243
314 254
314 256
314 265
314 271
314 272
314 282
314 284
314 300
314 301
314 308
314 313
314 318
314 323
314 343
314 345
314 346
314 348
314 365
314 367
314 368
315 235
315 257
315 258
315 260
315 269
315 274
315 278
315 279
315 283
315 296
315 297
315 305
315 307
315 325
315 327
315 333
315 336
315 338
315 353
315 357
315 361
315 375
315 379
315 384
316 252
316 261
316 263
316 270
316 272
316 286
316 290
316 291
316 292
316 295
316 298
316 313
316 319
316 320
316 321
316 322
316 331
316 339
316 340
316 343
316 347
316 350
316 356
316 363
316 364
316 369
316 373
316 377
317 237
317 246
317 266
317 273
317 281
317 293
317 294
317 303
317 307
317 324
317 328
317 337
317 341
317 342
317 359
317 362
317 372
317 378
318 243
318 254
318 256
318 265
318 272
318 282
318 284
318 292
318 300
318 301
318 308
318 313
318 314
318 320
318 323
318 343
318 345
318 346
318 347
318 348
318 356
318 365
318 367
318 381
318 382
319 261
319 263
319 267
319 270
319 286
319 290
319 291
319 292
319 295
319 298
319 316
319 320
319 321
319 322
319 331
319 339
319 340
319 347
319 350
319 363
319 364
319 366
319 369
319 377
319 387
319 397
320 251
320 252
320 261
320 272
320 286
320 290
320 291
320 292
320 300
320 313
320 316
320 318
320 319
320 322
320 323
320 340
320 343
320 347
320 348
320 350
320 356
320 363
320 369
320 373
320 381
320 382
320 394
320 396
321 261
321 263
321 267
321 270
321 286
321 291
321 295
321 298
321 316
321 319
321 322
321 331
321 339
321 340
321 350
321 363
321 364
321 366
321 377
321 387
321 397
322 251
322 252
322 261
322 263
322 272
322 286
322 290
322 291
322 292
322 298
322 313
322 316
322 319
322 320
322 321
322 323
322 339
322 340
322 343
322 347
322 348
322 350
322 356
322 363
322 369
322 373
322 377
323 251
323 256
323 272
323 282
323 284
323 290
323 292
323 300
323 313
323 314
323 318
323 320
323 322
323 343
323 346
323 347
323 348
323 356
323 365
323 367
323 373
323 381
323 382
324 258
324 266
324 278
324 281
324 293
324 294
324 303
324 305
324 307
324 317
324 328
324 333
324 341
324 342
324 357
324 359
324 372
324 383
324 399
325 253
325 269
325 274
325 275
325 279
325 285
325 287
325 296
325 297
325 299
325 311
325 315
325 327
325 329
325 330
325 336
325 338
325 353
325 355
325 360
325 361
325 376
325 384
325 385
326 259
326 262
326 285
326 287
326 288
326 289
326 304
326 310
326 311
326 329
326 330
326 335
326 344
326 352
326 355
326 370
326 371
326 380
326 393
327 260
327 269
327 274
327 275
327 279
327 283
327 296
327 297
327 299
327 305
327 315
327 325
327 329
327 333
327 336
327 338
327 353
327 355
327 360
327 361
327 375
327 384
327 385
328 258
328 266
328 278
328 281
328 283
328 293
328 294
328 305
328 307
328 317
328 324
328 333
328 341
328 357
328 359
328 372
328 379
328 383
328 392
328 399
328 404
329 253
329 274
329 275
329 285
329 287
329 288
329 296
329 297
329 299
329 310
329 311
329 325
329 326
329 327
329 330
329 335
329 336
329 352
329 353
329 355
329 360
329 370
329 376
329 380
329 385
329 398
329 403
330 248
330 259
330 274
330 275
330 285
330 287
330 288
330 289
330 297
330 299
330 304
330 310
330 311
330 325
330 326
330 329
330 335
330 336
330 344
330 352
330 353
330 355
330 360
330 370
330 371
330 376
330 380
330 398
331 267
331 270
331 286
331 295
331 298
331 316
331 319
331 321
331 339
331 340
331 350
331 363
331 364
331 366
331 377
331 387
331 405
332 273
332 276
332 277
332 280
332 302
332 303
332 306
332 309
332 312
332 334
332 337
332 342
332 349
332 351
332 354
332 358
332 362
332 378
332 386
332 389
332 395
333 257
333 258
333 278
333 279
333 283
333 294
333 296
333 305
333 307
333 315
333 324
333 327
333 328
333 338
333 357
333 359
333 361
333 375
333 379
333 383
333 392
333 406
334 255
334 264
334 268
334 276
334 280
334 301
334 302
334 306
334 309
334 312
334 332
334 337
334 345
334 349
334 351
334 354
334 358
334 368
334 374
334 386
334 389
334 391
335 259
335 262
335 275
335 285
335 287
335 288
335 289
335 299
335 304
335 310
335 311
335 326
335 329
335 330
335 336
335 344
335 352
335 355
335 360
335 370
335 371
335 376
335 380
335 393
335 398
336 269
336 274
336 275
336 285
336 287
336 296
336 297
336 299
336 310
336 311
336 315
336 325
336 327
336 329
336 330
336 335
336 338
336 353
336 355
336 360
336 361
336 370
336 376
336 384
336 385
336 403
337 273
337 276
337 277
337 280
337 293
337 303
337 306
337 309
337 317
337 332
337 334
337 341
337 342
337 354
337 358
337 362
337 378
337 386
337 389
337 395
337 407
338 260
338 269
338 278
338 279
338 283
338 296
338 297
338 305
338 307
338 315
338 325
338 327
338 333
338 336
338 353
338 357
338 360
338 361
338 375
338 379
338 384
338 385
338 392
338 401
338 406
339 267
339 270
339 286
339 291
339 295
339 298
339 316
339 319
339 321
339 322
339 331
339 340
339 350
339 363
339 364
339 366
339 369
339 377
339 387
339 397
339 402
339 405
339 411
340 263
340 270
340 286
340 290
340 291
340 295
340 298
340 316
340 319
340 320
340 321
340 322
340 331
340 339
340 347
340 350
340 356
340 363
340 364
340 366
340 369
340 373
340 377
340 387
340 397
340 400
340 402
340 411
341 281
341 293
341 294
341 303
341 307
341 317
341 324
341 328
341 337
341 342
341 357
341 359
341 362
341 372
341 378
341 383
341 399
341 404
342 273
342 277
342 280
342 293
342 303
342 306
342 309
342 317
342 324
342 332
342 337
342 341
342 354
342 358
342 362
342 372
342 378
342 389
342 395
342 407
343 272
343 290
343 292
343 300
343 313
343 314
343 316
343 318
343 320
343 322
343 323
343 347
343 348
343 350
343 356
343 365
343 367
343 369
343 373
343 381
343 382
343 394
343 396
343 400
343 408
343 410
344 287
344 288
344 289
344 304
344 310
344 311
344 326
344 330
344 335
344 352
344 355
344 370
344 371
344 376
344 380
344 393
344 398
344 414
344 415
345 268
345 271
345 284
345 301
345 302
345 308
345 312
345 314
345 318
345 334
345 346
345 349
345 351
345 365
345 367
345 368
345 374
345 388
345 390
345 391
345 416
346 271
346 282
346 284
346 300
346 301
346 308
346 312
346 314
346 318
346 323
346 345
346 348
346 349
346 351
346 365
346 367
346 368
346 374
346 382
346 388
346 390
346 391
347 272
347 290
347 291
347 292
347 300
347 313
347 316
347 318
347 319
347 320
347 322
347 323
347 340
347 343
347 348
347 350
347 356
347 363
347 367
347 369
347 373
347 377
347 381
347 382
347 394
347 396
347 400
347 402
347 410
347 424
348 272
348 282
348 292
348 300
348 313
348 314
348 318
348 320
348 322
348 323
348 343
348 346
348 347
348 356
348 365
348 367
348 373
348 381
348 382
348 394
348 396
348 408
348 410
349 268
349 271
349 301
349 302
349 308
349 309
349 312
349 332
349 334
349 345
349 346
349 351
349 354
349 358
349 365
349 368
349 374
349 386
349 388
349 390
349 391
349 416
349 419
349 422
350 286
350 290
350 291
350 292
350 298
350 316
350 319
350 320
350 321
350 322
350 331
350 339
350 340
350 343
350 347
350 356
350 363
350 364
350 366
350 369
350 373
350 377
350 387
350 394
350 396
350 397
350 400
350 402
351 301
351 302
351 308
351 309
351 312
351 332
351 334
351 345
351 346
351 349
351 354
351 358
351 368
351 374
351 386
351 388
351 389
351 391
351 413
351 416
351 419
351 422
352 285
352 287
352 288
352 289
352 304
352 310
352 311
352 326
352 329
352 330
352 335
352 344
352 355
352 360
352 370
352 371
352 376
352 380
352 393
352 398
352 414
352 415
352 421
353 274
353 296
353 297
353 299
353 315
353 325
353 327
353 329
353 330
353 336
353 338
353 355
353 360
353 361
353 375
353 376
353 384
353 385
353 401
353 403
353 412
353 420
354 276
354 280
354 302
354 303
354 306
354 309
354 312
354 332
354 334
354 337
354 342
354 349
354 351
354 358
354 362
354 374
354 378
354 386
354 389
354 391
354 395
354 413
355 275
355 285
355 287
355 299
355 310
355 311
355 325
355 326
355 327
355 329
355 330
355 335
355 336
355 344
355 352
355 353
355 360
355 370
355 371
355 376
355 380
355 385
355 393
355 398
355 403
355 414
355 417
355 421
356 290
356 292
356 300
356 313
356 316
356 318
356 320
356 322
356 323
356 340
356 343
356 347
356 348
356 350
356 363
356 367
356 369
356 373
356 377
356 381
356 382
356 394
356 396
356 400
356 410
356 424
357 278
357 294
357 305
357 307
357 315
357 324
357 328
357 333
357 338
357 341
357 359
357 361
357 372
357 375
357 379
357 383
357 392
357 399
357 401
357 404
357 406
357 409
357 426
357 427
357 430
358 302
358 306
358 309
358 312
358 332
358 334
358 337
358 342
358 349
358 351
358 354
358 362
358 374
358 378
358 386
358 389
358 391
358 395
358 413
358 422
359 294
359 305
359 307
359 317
359 324
359 328
359 333
359 341
359 357
359 372
359 375
359 379
359 383
359 392
359 399
359 404
359 409
359 430
360 296
360 297
360 299
360 311
360 325
360 327
360 329
360 330
360 335
360 336
360 338
360 352
360 353
360 355
360 361
360 370
360 376
360 380
360 384
360 385
360 398
360 403
360 412
360 417
360 425
361 296
361 297
361 305
361 315
361 325
361 327
361 333
361 336
361 338
361 353
361 357
361 360
361 375
361 379
361 383
361 384
361 385
361 392
361 401
361 403
361 406
361 412
361 420
361 427
362 303
362 306
362 309
362 317
362 332
362 337
362 341
362 342
362 354
362 358
362 372
362 378
362 386
362 389
362 395
362 407
362 413
362 423
363 286
363 291
363 298
363 316
363 319
363 320
363 321
363 322
363 331
363 339
363 340
363 347
363 350
363 356
363 364
363 366
363 369
363 373
363 377
363 387
363 394
363 396
363 397
363 400
363 402
363 411
363 428
363 429
364 295
364 298
364 316
364 319
364 321
364 331
364 339
364 340
364 350
364 363
364 366
364 369
364 377
364 387
364 397
364 402
364 405
364 411
364 428
364 434
365 300
365 301
365 308
365 314
365 318
365 323
365 343
365 345
365 346
365 348
365 349
365 367
365 368
365 374
365 381
365 382
365 388
365 390
365 408
365 410
365 416
365 418
366 295
366 298
366 319
366 321
366 331
366 339
366 340
366 350
366 363
366 364
366 377
366 387
366 397
366 402
366 405
366 411
366 434
366 437
367 300
367 313
367 314
367 318
367 323
367 343
367 345
367 346
367 347
367 348
367 356
367 365
367 368
367 373
367 381
367 382
367 390
367 394
367 396
367 408
367 410
367 418
368 301
368 308
368 312
368 314
368 334
368 345
368 346
368 349
368 351
368 365
368 367
368 374
368 386
368 388
368 390
368 391
368 416
368 419
368 422
369 316
369 319
369 320
369 322
369 339
369 340
369 343
369 347
369 350
369 356
369 363
369 364
369 373
369 377
369 381
369 387
369 394
369 396
369 397
369 400
369 402
369 424
369 428
369 429
370 299
370 310
370 311
370 326
370 329
370 330
370 335
370 336
370 344
370 352
370 355
370 360
370 371
370 376
370 380
370 385
370 393
370 398
370 403
370 414
370 415
370 417
370 421
370 425
370 442
371 304
371 310
371 326
371 330
371 335
371 344
371 352
371 355
371 370
371 376
371 380
371 393
371 398
371 414
371 415
371 421
371 431
372 294
372 317
372 324
372 328
372 341
372 342
372 357
372 359
372 362
372 378
372 379
372 383
372 392
372 399
372 404
372 407
372 409
372 430
372 432
372 440
373 313
373 316
373 320
373 322
373 323
373 340
373 343
373 347
373 348
373 350
373 356
373 363
373 367
373 369
373 377
373 381
373 382
373 394
373 396
373 400
373 402
373 410
373 424
373 428
373 429
373 436
373 449
374 301
374 302
374 312
374 334
374 345
374 346
374 349
374 351
374 354
374 358
374 365
374 368
374 386
374 388
374 390
374 391
374 413
374 416
374 419
374 422
374 435
375 305
375 315
375 327
375 333
375 338
375 353
375 357
375 359
375 361
375 379
375 383
375 384
375 385
375 392
375 401
375 404
375 406
375 409
375 412
375 420
375 426
375 427
375 439
376 299
376 310
376 311
376 325
376 329
376 330
376 335
376 336
376 344
376 352
376 353
376 355
376 360
376 370
376 371
376 380
376 384
376 385
376 393
376 398
376 403
376 412
376 414
376 417
376 421
376 425
376 448
377 316
377 319
377 321
377 322
377 331
377 339
377 340
377 347
377 350
377 356
377 363
377 364
377 366
377 369
377 373
377 387
377 396
377 397
377 400
377 402
377 405
377 411
377 428
377 429
377 434
377 444
378 303
378 306
378 317
378 332
378 337
378 341
378 342
378 354
378 358
378 362
378 372
378 389
378 395
378 399
378 407
378 423
378 432
378 438
379 305
379 307
379 315
379 328
379 333
379 338
379 357
379 359
379 361
379 372
379 375
379 383
379 384
379 392
379 399
379 401
379 404
379 406
379 409
379 420
379 426
379 427
379 430
379 447
379 452
380 310
380 311
380 326
380 329
380 330
380 335
380 344
380 352
380 355
380 360
380 370
380 371
380 376
380 393
380 398
380 403
380 414
380 415
380 417
380 421
380 431
380 442
381 313
381 318
381 320
381 323
381 343
381 347
381 348
381 356
381 365
381 367
381 369
381 373
381 382
381 394
381 396
381 400
381 408
381 410
381 418
381 424
381 436
381 449
381 450
382 313
382 318
382 320
382 323
382 343
382 346
382 347
382 348
382 356
382 365
382 367
382 373
382 381
382 390
382 394
382 396
382 400
382 408
382 410
382 418
382 424
382 436
382 445
382 450
383 307
383 324
383 328
383 333
383 341
383 357
383 359
383 361
383 372
383 375
383 379
383 392
383 399
383 401
383 404
383 406
383 409
383 426
383 427
383 430
383 432
383 440
383 447
384 315
384 325
384 327
384 336
384 338
384 353
384 360
384 361
384 375
384 376
384 379
384 385
384 392
384 401
384 403
384 406
384 412
384 420
384 425
384 427
384 433
384 439
384 453
385 325
385 327
385 329
385 336
385 338
385 353
385 355
385 360
385 361
385 370
385 375
385 376
385 384
385 401
385 403
385 406
385 412
385 417
385 420
385 425
385 427
385 433
385 439
385 448
385 453
386 332
386 334
386 337
386 349
386 351
386 354
386 358
386 362
386 368
386 374
386 388
386 389
386 391
386 395
386 413
386 416
386 419
386 422
386 423
386 435
386 441
386 443
387 319
387 321
387 331
387 339
387 340
387 350
387 363
387 364
387 366
387 369
387 377
387 397
387 400
387 402
387 405
387 411
387 428
387 429
387 434
387 437
387 444
387 456
388 345
388 346
388 349
388 351
388 365
388 368
388 374
388 386
388 390
388 391
388 408
388 416
388 418
388 419
388 422
388 435
388 451
388 454
389 332
389 334
389 337
389 342
389 351
389 354
389 358
389 362
389 378
389 386
389 391
389 395
389 407
389 413
389 422
389 423
389 435
389 438
389 441
389 443
389 455
390 345
390 346
390 349
390 365
390 367
390 368
390 374
390 382
390 388
390 391
390 408
390 410
390 416
390 418
390 419
390 422
390 445
390 451
390 454
391 334
391 345
391 346
391 349
391 351
391 354
391 358
391 368
391 374
391 386
391 388
391 389
391 390
391 413
391 416
391 419
391 422
391 435
391 443
391 451
391 461
391 462
392 328
392 333
392 338
392 357
392 359
392 361
392 372
392 375
392 379
392 383
392 384
392 399
392 401
392 404
392 406
392 409
392 420
392 426
392 427
392 430
392 439
392 440
392 447
392 452
392 465
393 326
393 335
393 344
393 352
393 355
393 370
393 371
393 376
393 380
393 398
393 414
393 415
393 417
393 421
393 431
393 442
393 459
394 320
394 343
394 347
394 348
394 350
394 356
394 363
394 367
394 369
394 373
394 381
394 382
394 396
394 400
394 402
394 408
394 410
394 418
394 424
394 428
394 429
394 436
394 446
394 449
394 450
394 458
395 332
395 337
395 342
395 354
395 358
395 362
395 378
395 386
395 389
395 407
395 413
395 423
395 438
395 441
395 443
395 455
396 320
396 343
396 347
396 348
396 350
396 356
396 363
396 367
396 369
396 373
396 377
396 381
396 382
396 394
396 397
396 400
396 402
396 408
396 410
396 424
396 428
396 429
396 436
396 446
396 449
396 458
397 319
397 321
397 339
397 340
397 350
397 363
397 364
397 366
397 369
397 377
397 387
397 396
397 400
397 402
397 405
397 411
397 428
397 429
397 434
397 437
397 444
397 446
397 456
397 457
398 329
398 330
398 335
398 344
398 352
398 355
398 360
398 370
398 371
398 376
398 380
398 393
398 403
398 414
398 415
398 417
398 421
398 425
398 431
398 442
398 448
398 463
399 324
399 328
399 341
399 357
399 359
399 372
399 378
399 379
399 383
399 392
399 404
399 407
399 409
399 426
399 430
399 432
399 438
399 440
400 340
400 343
400 347
400 350
400 356
400 363
400 369
400 373
400 377
400 381
400 382
400 387
400 394
400 396
400 397
400 402
400 410
400 411
400 424
400 428
400 429
400 436
400 444
400 446
400 449
400 457
400 458
400 467
401 338
401 353
401 357
401 361
401 375
401 379
401 383
401 384
401 385
401 392
401 403
401 406
401 409
401 412
401 420
401 425
401 426
401 427
401 433
401 439
401 447
401 452
401 453
401 460
401 474
402 339
402 340
402 347
402 350
402 363
402 364
402 366
402 369
402 373
402 377
402 387
402 394
402 396
402 397
402 400
402 405
402 411
402 424
402 428
402 429
402 434
402 437
402 444
402 446
402 449
402 456
402 457
402 467
403 329
403 336
403 353
403 355
403 360
403 361
403 370
403 376
403 380
403 384
403 385
403 398
403 401
403 412
403 417
403 420
403 421
403 425
403 433
403 439
403 448
403 453
403 463
403 469
403 473
404 328
404 341
404 357
404 359
404 372
404 375
404 379
404 383
404 392
404 399
404 406
404 409
404 426
404 427
404 430
404 432
404 440
404 447
404 466
404 472
405 331
405 339
405 364
405 366
405 377
405 387
405 397
405 402
405 411
405 428
405 434
405 437
405 444
405 456
405 471
406 333
406 338
406 357
406 361
406 375
406 379
406 383
406 384
406 385
406 392
406 401
406 404
406 409
406 412
406 420
406 426
406 427
406 430
406 433
406 439
406 440
406 447
406 452
406 460
406 465
406 466
406 474
407 337
407 342
407 362
407 372
407 378
407 389
407 395
407 399
407 423
407 432
407 438
407 441
407 455
407 464
408 343
408 348
408 365
408 367
408 381
408 382
408 388
408 390
408 394
408 396
408 410
408 418
408 424
408 436
408 445
408 450
408 454
408 458
408 468
408 476
409 357
409 359
409 372
409 375
409 379
409 383
409 392
409 399
409 401
409 404
409 406
409 426
409 427
409 430
409 432
409 440
409 447
409 452
409 465
409 466
409 472
410 343
410 347
410 348
410 356
410 365
410 367
410 373
410 381
410 382
410 390
410 394
410 396
410 400
410 408
410 418
410 424
410 429
410 436
410 445
410 446
410 449
410 450
410 458
410 476
410 484
411 339
411 340
411 363
411 364
411 366
411 377
411 387
411 397
411 400
411 402
411 405
411 428
411 429
411 434
411 437
411 444
411 456
411 457
411 471
411 479
412 353
412 360
412 361
412 375
412 376
412 384
412 385
412 401
412 403
412 406
412 417
412 420
412 425
412 427
412 433
412 439
412 448
412 452
412 453
412 460
412 469
412 473
413 351
413 354
413 358
413 362
413 374
413 386
413 389
413 391
413 395
413 416
413 419
413 422
413 423
413 435
413 441
413 443
413 451
413 455
413 461
413 462
413 477
414 344
414 352
414 355
414 370
414 371
414 376
414 380
414 393
414 398
414 415
414 417
414 421
414 425
414 431
414 442
414 448
414 459
414 463
414 475
414 488
415 344
415 352
415 370
415 371
415 380
415 393
415 398
415 414
415 417
415 421
415 431
415 442
415 459
415 475
415 488
416 345
416 349
416 351
416 365
416 368
416 374
416 386
416 388
416 390
416 391
416 413
416 418
416 419
416 422
416 435
416 443
416 445
416 451
416 454
416 461
416 462
416 470
416 480
416 485
417 355
417 360
417 370
417 376
417 380
417 385
417 393
417 398
417 403
417 412
417 414
417 415
417 421
417 425
417 433
417 442
417 448
417 453
417 463
417 469
417 473
417 475
418 365
418 367
418 381
418 382
418 388
418 390
418 394
418 408
418 410
418 416
418 436
418 445
418 450
418 454
418 468
418 476
418 482
419 349
419 351
419 368
419 374
419 386
419 388
419 390
419 391
419 413
419 416
419 422
419 435
419 443
419 451
419 454
419 461
419 462
419 470
419 480
419 485
420 353
420 361
420 375
420 379
420 384
420 385
420 392
420 401
420 403
420 406
420 412
420 425
420 426
420 427
420 433
420 439
420 447
420 452
420 453
420 460
420 465
420 473
420 474
420 493
421 352
421 355
421 370
421 371
421 376
421 380
421 393
421 398
421 403
421 414
421 415
421 417
421 425
421 431
421 442
421 448
421 453
421 459
421 463
421 469
421 475
422 349
422 351
422 358
422 368
422 374
422 386
422 388
422 389
422 390
422 391
422 413
422 416
422 419
422 435
422 441
422 443
422 451
422 454
422 461
422 462
422 470
422 480
422 485
422 487
423 362
423 378
423 386
423 389
423 395
423 407
423 413
423 432
423 435
423 438
423 441
423 443
423 455
423 464
423 477
423 490
424 347
424 356
424 369
424 373
424 381
424 382
424 394
424 396
424 400
424 402
424 408
424 410
424 428
424 429
424 436
424 444
424 446
424 449
424 450
424 457
424 458
424 467
424 483
424 484
425 360
425 370
425 376
425 384
425 385
425 398
425 401
425 403
425 412
425 414
425 417
425 420
425 421
425 433
425 439
425 442
425 448
425 453
425 460
425 463
425 469
425 473
425 486
425 498
426 357
426 375
426 379
426 383
426 392
426 399
426 401
426 404
426 406
426 409
426 420
426 427
426 430
426 432
426 439
426 440
426 447
426 452
426 460
426 465
426 466
426 472
426 474
426 496
427 357
427 361
427 375
427 379
427 383
427 384
427 385
427 392
427 401
427 404
427 406
427 409
427 412
427 420
427 426
427 430
427 433
427 439
427 440
427 447
427 452
427 460
427 465
427 466
427 474
427 493
427 496
427 500
428 363
428 364
428 369
428 373
428 377
428 387
428 394
428 396
428 397
428 400
428 402
428 405
428 411
428 424
428 429
428 434
428 437
428 444
428 446
428 449
428 456
428 457
428 458
428 467
428 479
428 481
428 483
428 499
429 363
429 369
429 373
429 377
429 387
429 394
429 396
429 397
429 400
429 402
429 410
429 411
429 424
429 428
429 434
429 436
429 444
429 446
429 449
429 457
429 458
429 467
429 481
429 483
429 499
430 357
430 359
430 372
430 379
430 383
430 392
430 399
430 404
430 406
430 409
430 426
430 427
430 432
430 440
430 447
430 452
430 465
430 466
430 472
430 474
430 478
430 494
430 496
431 371
431 380
431 393
431 398
431 414
431 415
431 421
431 442
431 459
431 475
431 488
432 372
432 378
432 383
432 399
432 404
432 407
432 409
432 423
432 426
432 430
432 438
432 440
432 455
432 464
432 466
432 472
432 478
432 491
432 494
432 508
433 384
433 385
433 401
433 403
433 406
433 412
433 417
433 420
433 425
433 427
433 439
433 448
433 452
433 453
433 460
433 463
433 469
433 473
433 474
433 486
433 493
434 364
434 366
434 377
434 387
434 397
434 402
434 405
434 411
434 428
434 429
434 437
434 444
434 456
434 457
434 467
434 471
434 479
434 481
434 492
434 497
435 374
435 386
435 388
435 389
435 391
435 413
435 416
435 419
435 422
435 423
435 441
435 443
435 451
435 461
435 462
435 470
435 477
435 485
435 487
435 489
435 503
435 504
436 373
436 381
436 382
436 394
436 396
436 400
436 408
436 410
436 418
436 424
436 429
436 445
436 446
436 449
436 450
436 458
436 468
436 476
436 483
436 484
436 501
436 511
437 366
437 387
437 397
437 402
437 405
437 411
437 428
437 434
437 444
437 456
437 457
437 471
437 479
437 481
437 492
437 497
438 378
438 389
438 395
438 399
438 407
438 423
438 432
438 440
438 441
438 455
438 464
438 477
438 478
438 490
438 491
438 509
439 375
439 384
439 385
439 392
439 401
439 403
439 406
439 412
439 420
439 425
439 426
439 427
439 433
439 447
439 448
439 452
439 453
439 460
439 465
439 469
439 473
439 474
439 486
439 493
439 500
440 372
440 383
440 392
440 399
440 404
440 406
440 409
440 426
440 427
440 430
440 432
440 438
440 447
440 452
440 464
440 465
440 466
440 472
440 478
440 494
440 496
440 508
441 386
441 389
441 395
441 407
441 413
441 422
441 423
441 435
441 438
441 443
441 455
441 462
441 464
441 477
441 487
441 489
441 490
441 502
442 370
442 380
442 393
442 398
442 414
442 415
442 417
442 421
442 425
442 431
442 448
442 459
442 463
442 469
442 475
442 488
442 498
442 505
442 506
442 513
443 386
443 389
443 391
443 395
443 413
443 416
443 419
443 422
443 423
443 435
443 441
443 451
443 455
443 461
443 462
443 470
443 477
443 485
443 487
443 489
443 490
443 502
443 504
444 377
444 387
444 397
444 400
444 402
444 405
444 411
444 424
444 428
444 429
444 434
444 437
444 446
444 449
444 456
444 457
444 467
444 471
444 479
444 481
444 492
444 497
444 499
444 515
444 522
445 382
445 390
445 408
445 410
445 416
445 418
445 436
445 450
445 451
445 454
445 458
445 468
445 470
445 476
445 480
445 482
445 484
445 495
445 501
445 507
445 512
445 519
446 394
446 396
446 397
446 400
446 402
446 410
446 424
446 428
446 429
446 436
446 444
446 449
446 450
446 457
446 458
446 467
446 481
446 483
446 484
446 499
446 514
447 379
447 383
447 392
447 401
447 404
447 406
447 409
447 420
447 426
447 427
447 430
447 439
447 440
447 452
447 460
447 465
447 466
447 472
447 474
447 478
447 493
447 494
447 496
447 500
447 510
447 516
447 527
448 376
448 385
448 398
448 403
448 412
448 414
448 417
448 421
448 425
448 433
448 439
448 442
448 453
448 460
448 463
448 469
448 473
448 475
448 486
448 498
448 505
448 506
448 518
449 373
449 381
449 394
449 396
449 400
449 402
449 410
449 424
449 428
449 429
449 436
449 444
449 446
449 450
449 457
449 458
449 467
449 476
449 481
449 483
449 484
449 499
449 501
449 511
449 514
450 381
450 382
450 394
450 408
450 410
450 418
450 424
450 436
450 445
450 446
450 449
450 454
450 458
450 468
450 476
450 482
450 483
450 484
450 495
450 501
450 511
450 512
450 519
451 388
451 390
451 391
451 413
451 416
451 419
451 422
451 435
451 443
451 445
451 454
451 461
451 462
451 468
451 470
451 480
451 482
451 485
451 487
451 495
451 503
451 504
451 507
451 525
452 379
452 392
452 401
452 406
452 409
452 412
452 420
452 426
452 427
452 430
452 433
452 439
452 440
452 447
452 453
452 460
452 465
452 466
452 472
452 474
452 493
452 494
452 496
452 500
452 510
452 527
452 528
453 384
453 385
453 401
453 403
453 412
453 417
453 420
453 421
453 425
453 433
453 439
453 448
453 452
453 460
453 463
453 469
453 473
453 474
453 486
453 493
453 498
453 517
453 518
453 524
454 388
454 390
454 408
454 416
454 418
454 419
454 422
454 445
454 450
454 451
454 461
454 468
454 470
454 476
454 480
454 482
454 485
454 495
454 503
454 507
454 512
455 389
455 395
455 407
455 413
455 423
455 432
455 438
455 441
455 443
455 462
455 464
455 477
455 489
455 490
455 491
455 502
455 509
455 521
455 530
456 387
456 397
456 402
456 405
456 411
456 428
456 434
456 437
456 444
456 457
456 467
456 471
456 479
456 481
456 492
456 497
456 515
456 520
456 522
457 397
457 400
457 402
457 411
457 424
457 428
457 429
457 434
457 437
457 444
457 446
457 449
457 456
457 458
457 467
457 471
457 479
457 481
457 483
457 497
457 499
457 514
457 515
457 522
457 533
458 394
458 396
458 400
458 408
458 410
458 424
458 428
458 429
458 436
458 445
458 446
458 449
458 450
458 457
458 467
458 468
458 476
458 481
458 483
458 484
458 499
458 501
458 511
458 514
458 526
459 393
459 414
459 415
459 421
459 431
459 442
459 463
459 475
459 488
459 505
459 506
459 513
459 531
460 401
460 406
460 412
460 420
460 425
460 426
460 427
460 433
460 439
460 447
460 448
460 452
460 453
460 465
460 469
460 473
460 474
460 486
460 493
460 496
460 500
460 517
460 524
460 528
460 532
461 391
461 413
461 416
461 419
461 422
461 435
461 443
461 451
461 454
461 462
461 470
461 480
461 482
461 485
461 487
461 489
461 503
461 504
461 507
461 525
461 535
462 391
462 413
462 416
462 419
462 422
462 435
462 441
462 443
462 451
462 455
462 461
462 470
462 477
462 480
462 485
462 487
462 489
462 502
462 503
462 504
462 525
462 529
462 536
462 538
463 398
463 403
463 414
463 417
463 421
463 425
463 433
463 442
463 448
463 453
463 459
463 469
463 473
463 475
463 486
463 488
463 498
463 505
463 506
463 518
463 524
463 531
463 537
464 407
464 423
464 432
464 438
464 440
464 441
464 455
464 472
464 477
464 478
464 490
464 491
464 502
464 508
464 509
464 521
464 523
465 392
465 406
465 409
465 420
465 426
465 427
465 430
465 439
465 440
465 447
465 452
465 460
465 466
465 472
465 474
465 478
465 493
465 494
465 496
465 500
465 508
465 510
465 516
465 527
465 528
466 404
466 406
466 409
466 426
466 427
466 430
466 432
466 440
466 447
466 452
466 465
466 472
466 474
466 478
466 493
466 494
466 496
466 500
466 508
466 510
466 516
466 527
466 539
466 547
467 400
467 402
467 424
467 428
467 429
467 434
467 444
467 446
467 449
467 456
467 457
467 458
467 479
467 481
467 483
467 484
467 497
467 499
467 514
467 515
467 522
467 533
468 408
468 418
468 436
468 445
468 450
468 451
468 454
468 458
468 470
468 476
468 480
468 482
468 484
468 495
468 501
468 503
468 507
468 511
468 512
468 519
468 534
468 545
469 403
469 412
469 417
469 421
469 425
469 433
469 439
469 442
469 448
469 453
469 460
469 463
469 473
469 475
469 486
469 493
469 498
469 505
469 506
469 517
469 518
469 524
469 532
469 542
470 416
470 419
470 422
470 435
470 443
470 445
470 451
470 454
470 461
470 462
470 468
470 480
470 482
470 485
470 487
470 495
470 503
470 504
470 507
470 525
470 535
470 546
471 405
471 411
471 434
471 437
471 444
471 456
471 457
471 479
471 481
471 492
471 497
471 515
471 520
471 522
471 541
472 404
472 409
472 426
472 430
472 432
472 440
472 447
472 452
472 464
472 465
472 466
472 474
472 478
472 491
472 494
472 496
472 508
472 510
472 516
472 523
472 527
472 539
472 547
473 403
473 412
473 417
473 420
473 425
473 433
473 439
473 448
473 453
473 460
473 463
473 469
473 474
473 486
473 493
473 498
473 500
473 506
473 517
473 518
473 524
473 532
473 542
473 548
474 401
474 406
474 420
474 426
474 427
474 430
474 433
474 439
474 447
474 452
474 453
474 460
474 465
474 466
474 472
474 473
474 493
474 494
474 496
474 500
474 510
474 516
474 517
474 527
474 528
474 532
475 414
475 415
475 417
475 421
475 431
475 442
475 448
475 459
475 463
475 469
475 488
475 498
475 505
475 506
475 513
475 518
475 531
475 537
475 550
476 408
476 410
476 418
476 436
476 445
476 449
476 450
476 454
476 458
476 468
476 480
476 482
476 483
476 484
476 495
476 501
476 507
476 511
476 512
476 514
476 519
476 526
476 534
476 545
477 413
477 423
477 435
477 438
477 441
477 443
477 455
477 462
477 464
477 487
477 489
477 490
477 491
477 502
477 504
477 509
477 521
477 523
477 529
477 530
477 536
477 549
478 430
478 432
478 438
478 440
478 447
478 464
478 465
478 466
478 472
478 490
478 491
478 494
478 496
478 508
478 509
478 510
478 516
478 523
478 539
479 411
479 428
479 434
479 437
479 444
479 456
479 457
479 467
479 471
479 481
479 492
479 497
479 499
479 515
479 520
479 522
479 533
479 540
479 541
479 551
480 416
480 419
480 422
480 445
480 451
480 454
480 461
480 462
480 468
480 470
480 476
480 482
480 485
480 487
480 495
480 503
480 504
480 507
480 512
480 525
480 535
480 546
480 557
481 428
481 429
481 434
481 437
481 444
481 446
481 449
481 456
481 457
481 458
481 467
481 471
481 479
481 483
481 492
481 497
481 499
481 514
481 515
481 520
481 522
481 533
481 540
481 541
481 551
482 418
482 445
482 450
482 451
482 454
482 461
482 468
482 470
482 476
482 480
482 485
482 495
482 501
482 503
482 507
482 512
482 519
482 525
482 534
482 535
482 545
482 557
483 424
483 428
483 429
483 436
483 446
483 449
483 450
483 457
483 458
483 467
483 476
483 481
483 484
483 499
483 501
483 511
483 514
483 522
483 526
483 533
483 534
483 544
483 559
484 410
484 424
484 436
484 445
484 446
484 449
484 450
484 458
484 467
484 468
484 476
484 483
484 495
484 499
484 501
484 511
484 512
484 514
484 519
484 526
484 534
484 544
484 561
485 416
485 419
485 422
485 435
485 443
485 451
485 454
485 461
485 462
485 470
485 480
485 482
485 487
485 489
485 503
485 504
485 507
485 525
485 529
485 535
485 536
485 538
485 546
486 425
486 433
486 439
486 448
486 453
486 460
486 463
486 469
486 473
486 493
486 498
486 500
486 506
486 517
486 518
486 524
486 532
486 542
486 548
486 558
487 422
487 435
487 441
487 443
487 451
487 461
487 462
487 470
487 477
487 480
487 485
487 489
487 502
487 503
487 504
487 521
487 525
487 529
487 530
487 535
487 536
487 538
487 546
488 414
488 415
488 431
488 442
488 459
488 463
488 475
488 498
488 505
488 506
488 513
488 531
488 537
488 543
488 550
489 435
489 441
489 443
489 455
489 461
489 462
489 477
489 485
489 487
489 490
489 502
489 503
489 504
489 509
489 521
489 525
489 529
489 530
489 536
489 538
489 549
489 560
490 423
490 438
490 441
490 443
490 455
490 464
490 477
490 478
490 489
490 491
490 502
490 509
490 521
490 523
490 529
490 530
490 549
490 554
490 560
491 432
491 438
491 455
491 464
491 472
491 477
491 478
491 490
491 494
491 502
491 508
491 509
491 516
491 521
491 523
491 530
491 539
491 549
491 554
491 563
492 434
492 437
492 444
492 456
492 471
492 479
492 481
492 497
492 515
492 520
492 522
492 540
492 541
493 420
493 427
493 433
493 439
493 447
493 452
493 453
493 460
493 465
493 466
493 469
493 473
493 474
493 486
493 496
493 500
493 510
493 517
493 518
493 524
493 527
493 528
493 532
493 548
493 552
493 553
493 558
494 430
494 432
494 440
494 447
494 452
494 465
494 466
494 472
494 474
494 478
494 491
494 496
494 500
494 508
494 510
494 516
494 523
494 527
494 539
494 547
494 555
494 568
495 445
495 450
495 451
495 454
495 468
495 470
495 476
495 480
495 482
495 484
495 501
495 503
495 507
495 511
495 512
495 519
495 525
495 534
495 535
495 545
495 557
496 426
496 427
496 430
496 440
496 447
496 452
496 460
496 465
496 466
496 472
496 474
496 478
496 493
496 494
496 500
496 508
496 510
496 516
496 517
496 527
496 528
496 539
496 547
496 552
496 553
496 555
497 434
497 437
497 444
497 456
497 457
497 467
497 471
497 479
497 481
497 492
497 499
497 515
497 520
497 522
497 533
497 540
497 541
497 551
497 571
498 425
498 442
498 448
498 453
498 463
498 469
498 473
498 475
498 486
498 488
498 505
498 506
498 513
498 517
498 518
498 524
498 531
498 532
498 537
498 542
498 548
498 550
498 556
499 428
499 429
499 444
499 446
499 449
499 457
499 458
499 467
499 479
499 481
499 483
499 484
499 497
499 511
499 514
499 515
499 520
499 522
499 526
499 533
499 540
499 544
499 551
499 559
499 566
500 427
500 439
500 447
500 452
500 460
500 465
500 466
500 473
500 474
500 486
500 493
500 494
500 496
500 510
500 516
500 517
500 524
500 527
500 528
500 532
500 552
500 553
500 555
500 558
501 436
501 445
501 449
501 450
501 458
501 468
501 476
501 482
501 483
501 484
501 495
501 507
501 511
501 512
501 514
501 519
501 526
501 534
501 544
501 545
501 561
501 562
502 441
502 443
502 455
502 462
502 464
502 477
502 487
502 489
502 490
502 491
502 504
502 509
502 521
502 523
502 529
502 530
502 536
502 538
502 549
502 560
502 564
502 570
503 435
503 451
503 454
503 461
503 462
503 468
503 470
503 480
503 482
503 485
503 487
503 489
503 495
503 504
503 507
503 512
503 525
503 535
503 536
503 538
503 546
503 557
503 567
503 569
504 435
504 443
504 451
504 461
504 462
504 470
504 477
504 480
504 485
504 487
504 489
504 502
504 503
504 525
504 529
504 530
504 535
504 536
504 538
504 546
504 564
504 569
505 442
505 448
505 459
505 463
505 469
505 475
505 488
505 498
505 506
505 513
505 518
505 531
505 537
505 542
505 543
505 550
505 556
506 442
506 448
506 459
506 463
506 469
506 473
506 475
506 486
506 488
506 498
506 505
506 513
506 518
506 524
506 531
506 537
506 542
506 543
506 548
506 550
506 556
506 578
507 445
507 451
507 454
507 461
507 468
507 470
507 476
507 480
507 482
507 485
507 495
507 501
507 503
507 512
507 519
507 525
507 534
507 535
507 545
507 546
507 557
507 567
507 573
507 577
507 579
508 432
508 440
508 464
508 465
508 466
508 472
508 478
508 491
508 494
508 496
508 509
508 510
508 516
508 523
508 527
508 539
508 547
508 554
508 555
508 568
509 438
509 455
509 464
509 477
509 478
509 489
509 490
509 491
509 502
509 508
509 521
509 523
509 529
509 530
509 539
509 549
509 554
509 560
509 563
509 570
509 576
510 447
510 452
510 465
510 466
510 472
510 474
510 478
510 493
510 494
510 496
510 500
510 508
510 516
510 527
510 528
510 539
510 547
510 552
510 553
510 555
510 568
510 574
510 580
511 436
511 449
511 450
511 458
511 468
511 476
511 483
511 484
511 495
511 499
511 501
511 512
511 514
511 519
511 526
511 533
511 534
511 544
511 545
511 559
511 561
511 562
511 565
512 445
512 450
512 454
512 468
512 476
512 480
512 482
512 484
512 495
512 501
512 503
512 507
512 511
512 519
512 526
512 534
512 535
512 545
512 557
512 561
512 562
512 573
512 579
513 442
513 459
513 475
513 488
513 498
513 505
513 506
513 531
513 537
513 543
513 550
513 556
513 586
514 446
514 449
514 457
514 458
514 467
514 476
514 481
514 483
514 484
514 499
514 501
514 511
514 519
514 522
514 526
514 533
514 534
514 544
514 551
514 559
514 561
514 562
514 565
514 566
514 581
515 444
515 456
515 457
515 467
515 471
515 479
515 481
515 492
515 497
515 499
515 520
515 522
515 533
515 540
515 541
515 551
515 559
515 566
515 571
515 589
516 447
516 465
516 466
516 472
516 474
516 478
516 491
516 494
516 496
516 500
516 508
516 510
516 523
516 527
516 528
516 539
516 547
516 552
516 554
516 555
516 568
516 574
516 580
517 453
517 460
517 469
517 473
517 474
517 486
517 493
517 496
517 498
517 500
517 518
517 524
517 527
517 528
517 532
517 542
517 548
517 552
517 553
517 558
517 572
517 575
517 583
518 448
518 453
518 463
518 469
518 473
518 475
518 486
518 493
518 498
518 505
518 506
518 517
518 524
518 531
518 532
518 537
518 542
518 548
518 556
518 558
518 572
518 575
518 578
518 583
518 584
519 445
519 450
519 468
519 476
519 482
519 484
519 495
519 501
519 507
519 511
519 512
519 514
519 526
519 534
519 544
519 545
519 557
519 561
519 562
519 565
519 573
519 579
519 592
520 456
520 471
520 479
520 481
520 492
520 497
520 499
520 515
520 522
520 533
520 540
520 541
520 551
520 566
520 571
520 593
521 455
521 464
521 477
521 487
521 489
521 490
521 491
521 502
521 509
521 523
521 529
521 530
521 536
521 549
521 554
521 560
521 563
521 564
521 570
521 576
522 444
522 456
522 457
522 467
522 471
522 479
522 481
522 483
522 492
522 497
522 499
522 514
522 515
522 520
522 533
522 540
522 541
522 544
522 551
522 559
522 566
522 571
522 581
522 589
522 591
523 464
523 472
523 477
523 478
523 490
523 491
523 494
523 502
523 508
523 509
523 516
523 521
523 530
523 539
523 547
523 549
523 554
523 560
523 563
523 568
523 576
524 453
524 460
524 463
524 469
524 473
524 486
524 493
524 498
524 500
524 506
524 517
524 518
524 528
524 532
524 537
524 542
524 548
524 553
524 556
524 558
524 572
524 575
524 583
524 584
525 451
525 461
525 462
525 470
525 480
525 482
525 485
525 487
525 489
525 495
525 503
525 504
525 507
525 529
525 535
525 536
525 538
525 546
525 557
525 564
525 567
525 569
525 577
525 594
526 458
526 476
526 483
526 484
526 499
526 501
526 511
526 512
526 514
526 519
526 533
526 534
526 544
526 545
526 559
526 561
526 562
526 565
526 573
526 581
526 588
526 595
527 447
527 452
527 465
527 466
527 472
527 474
527 493
527 494
527 496
527 500
527 508
527 510
527 516
527 517
527 528
527 532
527 539
527 547
527 552
527 553
527 555
527 558
527 568
527 574
527 580
527 582
527 587
528 452
528 460
528 465
528 474
528 493
528 496
528 500
528 510
528 516
528 517
528 524
528 527
528 532
528 547
528 548
528 552
528 553
528 555
528 558
528 574
528 575
528 580
528 582
528 587
529 462
529 477
529 485
529 487
529 489
529 490
529 502
529 504
529 509
529 521
529 525
529 530
529 536
529 538
529 546
529 549
529 560
529 564
529 569
529 570
529 576
529 585
530 455
530 477
530 487
530 489
530 490
530 491
530 502
530 504
530 509
530 521
530 523
530 529
530 536
530 538
530 549
530 554
530 560
530 563
530 564
530 570
530 576
530 585
531 459
531 463
531 475
531 488
531 498
531 505
531 506
531 513
531 518
531 537
531 542
531 543
531 550
531 556
531 578
531 584
531 586
531 590
532 460
532 469
532 473
532 474
532 486
532 493
532 498
532 500
532 517
532 518
532 524
532 527
532 528
532 542
532 548
532 552
532 553
532 556
532 558
532 572
532 575
532 583
532 587
533 457
533 467
533 479
533 481
533 483
533 497
533 499
533 511
533 514
533 515
533 520
533 522
533 526
533 540
533 541
533 544
533 551
533 559
533 565
533 566
533 571
533 581
533 589
533 591
534 468
534 476
534 482
534 483
534 484
534 495
534 501
534 507
534 511
534 512
534 514
534 519
534 526
534 544
534 545
534 557
534 561
534 562
534 565
534 573
534 579
534 588
534 592
535 461
535 470
535 480
535 482
535 485
535 487
535 495
535 503
535 504
535 507
535 512
535 525
535 536
535 538
535 545
535 546
535 557
535 567
535 569
535 573
535 577
535 579
535 594
536 462
536 477
536 485
536 487
536 489
536 502
536 503
536 504
536 521
536 525
536 529
536 530
536 535
536 538
536 546
536 549
536 560
536 564
536 567
536 569
536 570
536 585
536 596
537 463
537 475
537 488
537 498
537 505
537 506
537 513
537 518
537 524
537 531
537 542
537 543
537 548
537 550
537 556
537 572
537 578
537 584
537 586
537 590
538 462
538 485
538 487
538 489
538 502
538 503
538 504
538 525
538 529
538 530
538 535
538 536
538 546
538 557
538 560
538 564
538 567
538 569
538 570
538 577
538 585
538 594
538 596
539 466
539 472
539 478
539 491
539 494
539 496
539 508
539 509
539 510
539 516
539 523
539 527
539 547
539 552
539 554
539 555
539 563
539 568
539 574
539 580
539 600
539 603
540 479
540 481
540 492
540 497
540 499
540 515
540 520
540 522
540 533
540 541
540 551
540 559
540 566
540 571
540 581
540 589
540 591
540 593
541 471
541 479
541 481
541 492
541 497
541 515
541 520
541 522
541 533
541 540
541 551
541 559
541 566
541 571
541 589
541 593
542 469
542 473
542 486
542 498
542 505
542 506
542 517
542 518
542 524
542 531
542 532
542 537
542 548
542 550
542 556
542 558
542 572
542 575
542 578
542 583
542 584
542 604
543 488
543 505
543 506
543 513
543 531
543 537
543 550
543 556
543 586
543 590
544 483
544 484
544 499
544 501
544 511
544 514
544 519
544 522
544 526
544 533
544 534
544 545
544 551
544 559
544 561
544 562
544 565
544 566
544 581
544 588
544 591
544 592
544 595
545 468
545 476
545 482
545 495
545 501
545 507
545 511
545 512
545 519
545 526
545 534
545 535
545 544
545 557
545 561
545 562
545 565
545 573
545 577
545 579
545 588
545 592
545 599
545 606
546 470
546 480
546 485
546 487
546 503
546 504
546 507
546 525
546 529
546 535
546 536
546 538
546 557
546 564
546 567
546 569
546 577
546 579
546 585
546 594
546 596
547 466
547 472
547 494
547 496
547 508
547 510
547 516
547 523
547 527
547 528
547 539
547 552
547 553
547 554
547 555
547 568
547 574
547 580
547 582
547 600
547 603
548 473
548 486
548 493
548 498
548 506
548 517
548 518
548 524
548 528
548 532
548 537
548 542
548 553
548 556
548 558
548 572
548 575
548 578
548 583
548 584
548 587
548 604
548 605
548 607
549 477
549 489
549 490
549 491
549 502
549 509
549 521
549 523
549 529
549 530
549 536
549 554
549 560
549 563
549 564
549 570
549 576
549 585
549 597
549 598
550 475
550 488
550 498
550 505
550 506
550 513
550 531
550 537
550 542
550 543
550 556
550 572
550 578
550 584
550 586
550 590
550 608
551 479
551 481
551 497
551 499
551 514
551 515
551 520
551 522
551 533
551 540
551 541
551 544
551 559
551 565
551 566
551 571
551 581
551 589
551 591
551 593
552 493
552 496
552 500
552 510
552 516
552 517
552 527
552 528
552 532
552 539
552 547
552 553
552 555
552 558
552 568
552 574
552 575
552 580
552 582
552 587
552 600
553 493
553 496
553 500
553 510
553 517
553 524
553 527
553 528
553 532
553 547
553 548
553 552
553 555
553 558
553 574
553 575
553 580
553 582
553 583
553 587
553 605
554 490
554 491
554 508
554 509
554 516
554 521
554 523
554 530
554 539
554 547
554 549
554 560
554 563
554 568
554 570
554 576
554 597
555 494
555 496
555 500
555 508
555 510
555 516
555 527
555 528
555 539
555 547
555 552
555 553
555 568
555 574
555 580
555 582
555 587
555 600
555 603
556 498
556 505
556 506
556 513
556 518
556 524
556 531
556 532
556 537
556 542
556 543
556 548
556 550
556 572
556 575
556 578
556 583
556 584
556 586
556 604
557 480
557 482
557 495
557 503
557 507
557 512
557 519
557 525
557 534
557 535
557 538
557 545
557 546
557 562
557 567
557 569
557 573
557 577
557 579
557 592
557 594
557 599
557 601
557 606
557 609
558 486
558 493
558 500
558 517
558 518
558 524
558 527
558 528
558 532
558 542
558 548
558 552
558 553
558 572
558 575
558 582
558 583
558 584
558 587
558 605
558 607
559 483
559 499
559 511
559 514
559 515
559 522
559 526
559 533
559 540
559 541
559 544
559 551
559 561
559 565
559 566
559 571
559 581
559 588
559 589
559 591
559 595
560 489
560 490
560 502
560 509
560 521
560 523
560 529
560 530
560 536
560 538
560 549
560 554
560 563
560 564
560 569
560 570
560 576
560 585
560 597
560 598
560 602
561 484
561 501
561 511
561 512
561 514
561 519
561 526
561 534
561 544
561 545
561 559
561 562
561 565
561 566
561 573
561 579
561 581
561 588
561 592
561 595
561 599
562 501
562 511
562 512
562 514
562 519
562 526
562 534
562 544
562 545
562 557
562 561
562 565
562 573
562 579
562 581
562 588
562 592
562 595
562 599
562 606
563 491
563 509
563 521
563 523
563 530
563 539
563 549
563 554
563 560
563 568
563 570
563 576
563 597
563 598
564 502
564 504
564 521
564 525
564 529
564 530
564 536
564 538
564 546
564 549
564 560
564 567
564 569
564 570
564 576
564 585
564 594
564 596
564 598
564 602
565 511
565 514
565 519
565 526
565 533
565 534
565 544
565 545
565 551
565 559
565 561
565 562
565 566
565 573
565 581
565 588
565 591
565 592
565 595
566 499
566 514
566 515
566 520
566 522
566 533
566 540
566 541
566 544
566 551
566 559
566 561
566 565
566 571
566 581
566 589
566 591
566 593
566 595
567 503
567 507
567 525
567 535
567 536
567 538
567 546
567 557
567 564
567 569
567 573
567 577
567 579
567 585
567 594
567 596
567 599
567 601
567 606
567 609
568 494
568 508
568 510
568 516
568 523
568 527
568 539
568 547
568 552
568 554
568 555
568 563
568 574
568 580
568 582
568 600
568 603
569 503
569 504
569 525
569 529
569 535
569 536
569 538
569 546
569 557
569 560
569 564
569 567
569 570
569 577
569 585
569 594
569 596
569 598
569 601
569 602
569 609
570 502
570 509
570 521
570 529
570 530
570 536
570 538
570 549
570 554
570 560
570 563
570 564
570 569
570 576
570 585
570 596
570 597
570 598
570 602
571 497
571 515
571 520
571 522
571 533
571 540
571 541
571 551
571 559
571 566
571 589
571 591
571 593
572 517
572 518
572 524
572 532
572 537
572 542
572 548
572 550
572 556
572 558
572 575
572 578
572 583
572 584
572 586
572 587
572 604
572 605
572 607
573 507
573 512
573 519
573 526
573 534
573 535
573 545
573 557
573 561
573 562
573 565
573 567
573 577
573 579
573 588
573 592
573 595
573 599
573 601
573 606
574 510
574 516
574 527
574 528
574 539
574 547
574 552
574 553
574 555
574 568
574 580
574 582
574 587
574 600
574 603
575 517
575 518
575 524
575 528
575 532
575 542
575 548
575 552
575 553
575 556
575 558
575 572
575 582
575 583
575 584
575 587
575 605
575 607
576 509
576 521
576 523
576 529
576 530
576 549
576 554
576 560
576 563
576 564
576 570
576 585
576 597
576 598
576 602
577 507
577 525
577 535
577 538
577 545
577 546
577 557
577 567
577 569
577 573
577 579
577 592
577 594
577 596
577 599
577 601
577 606
577 609
578 506
578 518
578 531
578 537
578 542
578 548
578 550
578 556
578 572
578 583
578 584
578 586
578 590
578 604
578 607
578 608
579 507
579 512
579 519
579 534
579 535
579 545
579 546
579 557
579 561
579 562
579 567
579 573
579 577
579 588
579 592
579 594
579 599
579 601
579 606
579 609
580 510
580 516
580 527
580 528
580 539
580 547
580 552
580 553
580 555
580 568
580 574
580 582
580 587
580 600
580 603
580 605
581 514
581 522
581 526
581 533
581 540
581 544
581 551
581 559
581 561
581 562
581 565
581 566
581 588
581 589
581 591
581 593
581 595
582 527
582 528
582 547
582 552
582 553
582 555
582 558
582 568
582 574
582 575
582 580
582 587
582 600
582 603
582 605
583 517
583 518
583 524
583 532
583 542
583 548
583 553
583 556
583 558
583 572
583 575
583 578
583 584
583 587
583 604
583 605
583 607
584 518
584 524
584 531
584 537
584 542
584 548
584 550
584 556
584 558
584 572
584 575
584 578
584 583
584 586
584 604
584 607
584 608
585 529
585 530
585 536
585 538
585 546
585 549
585 560
585 564
585 567
585 569
585 570
585 576
585 594
585 596
585 597
585 598
585 602
586 513
586 531
586 537
586 543
586 550
586 556
586 572
586 578
586 584
586 590
586 604
586 608
587 527
587 528
587 532
587 548
587 552
587 553
587 555
587 558
587 572
587 574
587 575
587 580
587 582
587 583
587 600
587 605
587 607
588 526
588 534
588 544
588 545
588 559
588 561
588 562
588 565
588 573
588 579
588 581
588 592
588 595
588 599
588 606
589 515
589 522
589 533
589 540
589 541
589 551
589 559
589 566
589 571
589 581
589 591
589 593
590 531
590 537
590 543
590 550
590 578
590 586
590 608
591 522
591 533
591 540
591 544
591 551
591 559
591 565
591 566
591 571
591 581
591 589
591 593
591 595
592 519
592 534
592 544
592 545
592 557
592 561
592 562
592 565
592 573
592 577
592 579
592 588
592 595
592 599
592 601
592 606
593 520
593 540
593 541
593 551
593 566
593 571
593 581
593 589
593 591
594 525
594 535
594 538
594 546
594 557
594 564
594 567
594 569
594 577
594 579
594 585
594 596
594 599
594 601
594 602
594 606
594 609
595 526
595 544
595 559
595 561
595 562
595 565
595 566
595 573
595 581
595 588
595 591
595 592
595 599
596 536
596 538
596 546
596 564
596 567
596 569
596 570
596 577
596 585
596 594
596 598
596 601
596 602
596 609
597 549
597 554
597 560
597 563
597 570
597 576
597 585
597 598
597 602
598 549
598 560
598 563
598 564
598 569
598 570
598 576
598 585
598 596
598 597
598 602
599 545
599 557
599 561
599 562
599 567
599 573
599 577
599 579
599 588
599 592
599 594
599 595
599 601
599 606
599 609
600 539
600 547
600 552
600 555
600 568
600 574
600 580
600 582
600 587
600 603
601 557
601 567
601 569
601 573
601 577
601 579
601 592
601 594
601 596
601 599
601 606
601 609
602 560
602 564
602 569
602 570
602 576
602 585
602 594
602 596
602 597
602 598
603 539
603 547
603 555
603 568
603 574
603 580
603 582
603 600
604 542
604 548
604 556
604 572
604 578
604 583
604 584
604 586
604 605
604 607
604 608
605 548
605 553
605 558
605 572
605 575
605 580
605 582
605 583
605 587
605 604
605 607
606 545
606 557
606 562
606 567
606 573
606 577
606 579
606 588
606 592
606 594
606 599
606 601
606 609
607 548
607 558
607 572
607 575
607 578
607 583
607 584
607 587
607 604
607 605
608 550
608 578
608 584
608 586
608 590
608 604
609 557
609 567
609 569
609 577
609 579
609 594
609 596
609 599
609 601
609 606
