1 4
1 10
1 14
1 16
1 34
1 39
1 51
1 61
1 67
2 10
2 14
2 23
2 30
2 38
2 39
2 66
2 70
3 19
3 24
3 33
3 36
3 56
3 62
3 73
3 74
4 1
4 10
4 16
4 18
4 34
4 47
4 51
4 67
5 9
5 17
5 32
5 37
5 42
5 46
5 58
5 63
5 72
5 77
6 7
6 8
6 21
6 29
6 35
6 40
6 52
6 54
6 64
7 6
7 24
7 29
7 40
7 56
7 64
8 6
8 21
8 27
8 29
8 35
8 52
8 54
8 60
8 76
9 5
9 23
9 30
9 32
9 42
9 55
9 58
9 63
10 1
10 2
10 4
10 14
10 34
10 38
10 39
10 61
10 67
10 70
11 12
11 20
11 26
11 31
11 41
11 44
11 45
11 68
11 69
11 71
12 11
12 22
12 26
12 31
12 41
12 44
12 45
12 53
12 68
12 69
13 17
13 19
13 25
13 33
13 37
13 46
13 48
13 49
13 79
13 80
14 1
14 2
14 10
14 23
14 34
14 38
14 39
14 61
14 66
14 70
15 18
15 20
15 28
15 43
15 50
15 57
15 59
16 1
16 4
16 18
16 34
16 47
16 51
16 57
16 67
16 75
17 5
17 13
17 25
17 32
17 37
17 46
17 48
17 49
17 63
17 72
17 80
18 4
18 15
18 16
18 28
18 43
18 47
18 50
18 57
18 75
19 3
19 13
19 25
19 33
19 36
19 48
19 62
19 73
19 74
19 89
20 11
20 15
20 28
20 31
20 43
20 44
20 59
20 71
20 82
20 84
21 6
21 8
21 27
21 29
21 35
21 40
21 52
21 54
21 60
21 64
21 76
21 83
22 12
22 26
22 41
22 45
22 53
22 65
22 69
22 86
22 90
23 2
23 9
23 14
23 30
23 38
23 42
23 55
23 66
23 70
23 95
24 3
24 7
24 29
24 36
24 40
24 56
24 64
24 73
24 78
24 81
24 91
25 13
25 17
25 19
25 33
25 46
25 48
25 49
25 62
25 79
25 80
26 11
26 12
26 22
26 41
26 45
26 53
26 65
26 68
26 69
26 87
26 90
27 8
27 21
27 35
27 52
27 54
27 60
27 76
28 15
28 18
28 20
28 43
28 44
28 50
28 59
28 82
28 84
28 96
29 6
29 7
29 8
29 21
29 24
29 40
29 52
29 54
29 64
29 83
29 91
30 2
30 9
30 23
30 38
30 42
30 55
30 58
30 66
30 95
31 11
31 12
31 20
31 41
31 44
31 45
31 59
31 68
31 69
31 71
31 82
32 5
32 9
32 17
32 37
32 42
32 46
32 58
32 63
32 72
32 77
33 3
33 13
33 19
33 25
33 36
33 48
33 49
33 62
33 73
33 74
33 79
33 89
33 98
33 99
34 1
34 4
34 10
34 14
34 16
34 39
34 47
34 51
34 61
34 67
34 88
34 93
35 6
35 8
35 21
35 27
35 52
35 54
35 60
35 76
35 83
35 97
36 3
36 19
36 24
36 33
36 48
36 56
36 62
36 73
36 74
36 78
36 81
36 89
36 98
37 5
37 13
37 17
37 32
37 42
37 46
37 49
37 58
37 63
37 72
37 77
37 80
37 106
38 2
38 10
38 14
38 23
38 30
38 39
38 61
38 66
38 70
38 88
38 95
38 101
39 1
39 2
39 10
39 14
39 34
39 38
39 51
39 61
39 67
39 70
39 88
39 93
39 101
40 6
40 7
40 21
40 24
40 29
40 52
40 56
40 64
40 78
40 91
41 11
41 12
41 22
41 26
41 31
41 44
41 45
41 53
41 68
41 69
41 71
41 87
41 90
41 103
41 107
42 5
42 9
42 23
42 30
42 32
42 37
42 55
42 58
42 63
42 77
42 92
42 102
43 15
43 18
43 20
43 28
43 50
43 57
43 59
43 84
43 85
43 96
44 11
44 12
44 20
44 28
44 31
44 41
44 59
44 68
44 69
44 71
44 82
44 84
44 103
45 11
45 12
45 22
45 26
45 31
45 41
45 53
45 65
45 68
45 69
45 86
45 87
45 90
45 107
46 5
46 13
46 17
46 25
46 32
46 37
46 48
46 49
46 63
46 72
46 77
46 79
46 80
46 106
47 4
47 16
47 18
47 34
47 50
47 51
47 57
47 67
47 75
47 93
47 94
47 100
48 13
48 17
48 19
48 25
48 33
48 36
48 46
48 49
48 62
48 74
48 79
48 80
48 89
48 99
49 13
49 17
49 25
49 33
49 37
49 46
49 48
49 62
49 72
49 79
49 80
49 99
49 113
50 15
50 18
50 28
50 43
50 47
50 57
50 59
50 75
50 85
50 94
50 96
50 112
51 1
51 4
51 16
51 34
51 39
51 47
51 57
51 61
51 67
51 75
51 88
51 93
51 94
51 100
52 6
52 8
52 21
52 27
52 29
52 35
52 40
52 54
52 60
52 64
52 76
52 83
52 97
52 105
52 115
53 12
53 22
53 26
53 41
53 45
53 65
53 69
53 86
53 87
53 90
53 107
53 119
54 6
54 8
54 21
54 27
54 29
54 35
54 52
54 60
54 64
54 76
54 83
54 97
54 115
55 9
55 23
55 30
55 42
55 58
55 66
55 77
55 92
55 95
55 102
55 104
56 3
56 7
56 24
56 36
56 40
56 64
56 73
56 74
56 78
56 81
56 91
56 108
56 110
56 118
57 15
57 16
57 18
57 43
57 47
57 50
57 51
57 75
57 85
57 94
57 100
57 112
57 120
57 121
58 5
58 9
58 30
58 32
58 37
58 42
58 55
58 63
58 72
58 77
58 92
58 102
58 116
58 123
59 15
59 20
59 28
59 31
59 43
59 44
59 50
59 71
59 82
59 84
59 85
59 96
59 109
59 126
60 8
60 21
60 27
60 35
60 52
60 54
60 76
60 83
60 97
61 1
61 10
61 14
61 34
61 38
61 39
61 51
61 67
61 70
61 88
61 93
61 101
61 111
62 3
62 19
62 25
62 33
62 36
62 48
62 49
62 73
62 74
62 79
62 89
62 98
62 99
62 108
62 117
63 5
63 9
63 17
63 32
63 37
63 42
63 46
63 58
63 72
63 77
63 80
63 92
63 106
63 116
64 6
64 7
64 21
64 24
64 29
64 40
64 52
64 54
64 56
64 76
64 78
64 83
64 91
64 105
64 128
65 22
65 26
65 45
65 53
65 69
65 86
65 87
65 90
65 119
66 2
66 14
66 23
66 30
66 38
66 55
66 70
66 95
66 101
66 102
66 104
66 125
67 1
67 4
67 10
67 16
67 34
67 39
67 47
67 51
67 61
67 75
67 88
67 93
67 94
67 100
67 111
67 122
68 11
68 12
68 26
68 31
68 41
68 44
68 45
68 69
68 71
68 82
68 84
68 87
68 90
68 103
68 107
68 114
68 131
69 11
69 12
69 22
69 26
69 31
69 41
69 44
69 45
69 53
69 65
69 68
69 71
69 87
69 90
69 103
69 107
70 2
70 10
70 14
70 23
70 38
70 39
70 61
70 66
70 88
70 95
70 101
70 111
70 132
71 11
71 20
71 31
71 41
71 44
71 59
71 68
71 69
71 82
71 84
71 87
71 103
71 107
71 109
71 114
71 131
72 5
72 17
72 32
72 37
72 46
72 49
72 58
72 63
72 77
72 80
72 92
72 106
72 113
72 116
73 3
73 19
73 24
73 33
73 36
73 56
73 62
73 74
73 78
73 81
73 89
73 98
73 108
73 110
73 117
73 118
73 135
74 3
74 19
74 33
74 36
74 48
74 56
74 62
74 73
74 79
74 81
74 89
74 98
74 99
74 108
74 117
74 118
74 135
75 16
75 18
75 47
75 50
75 51
75 57
75 67
75 85
75 93
75 94
75 100
75 112
75 120
75 121
76 8
76 21
76 27
76 35
76 52
76 54
76 60
76 64
76 83
76 97
76 105
76 115
76 127
76 130
76 138
77 5
77 32
77 37
77 42
77 46
77 55
77 58
77 63
77 72
77 92
77 102
77 106
77 116
77 123
77 142
78 24
78 36
78 40
78 56
78 64
78 73
78 81
78 91
78 105
78 108
78 110
78 118
78 124
79 13
79 25
79 33
79 46
79 48
79 49
79 62
79 74
79 80
79 89
79 98
79 99
79 113
79 117
79 133
80 13
80 17
80 25
80 37
80 46
80 48
80 49
80 63
80 72
80 79
80 99
80 106
80 113
80 146
81 24
81 36
81 56
81 73
81 74
81 78
81 91
81 98
81 108
81 110
81 118
81 124
81 135
81 144
81 145
82 20
82 28
82 31
82 44
82 59
82 68
82 71
82 84
82 96
82 103
82 109
82 114
82 126
82 131
82 141
83 21
83 29
83 35
83 52
83 54
83 60
83 64
83 76
83 97
83 105
83 115
83 127
83 128
83 130
83 136
83 138
84 20
84 28
84 43
84 44
84 59
84 68
84 71
84 82
84 85
84 96
84 103
84 109
84 112
84 114
84 126
84 140
84 141
85 43
85 50
85 57
85 59
85 75
85 84
85 94
85 96
85 112
85 120
85 121
85 126
85 140
86 22
86 45
86 53
86 65
86 87
86 90
86 119
86 139
87 26
87 41
87 45
87 53
87 65
87 68
87 69
87 71
87 86
87 90
87 103
87 107
87 119
87 131
87 139
87 149
87 150
88 34
88 38
88 39
88 51
88 61
88 67
88 70
88 93
88 100
88 101
88 111
88 122
88 132
88 134
88 143
89 19
89 33
89 36
89 48
89 62
89 73
89 74
89 79
89 98
89 99
89 108
89 117
89 133
89 135
89 137
90 22
90 26
90 41
90 45
90 53
90 65
90 68
90 69
90 86
90 87
90 107
90 119
90 139
90 150
91 24
91 29
91 40
91 56
91 64
91 78
91 81
91 105
91 110
91 118
91 124
91 128
92 42
92 55
92 58
92 63
92 72
92 77
92 102
92 104
92 106
92 116
92 123
92 129
92 142
92 147
93 34
93 39
93 47
93 51
93 61
93 67
93 75
93 88
93 94
93 100
93 111
93 121
93 122
93 134
93 143
94 47
94 50
94 51
94 57
94 67
94 75
94 85
94 93
94 100
94 112
94 120
94 121
94 122
94 148
95 23
95 30
95 38
95 55
95 66
95 70
95 101
95 102
95 104
95 125
95 129
95 132
95 156
95 157
96 28
96 43
96 50
96 59
96 82
96 84
96 85
96 109
96 112
96 114
96 120
96 126
96 140
96 141
97 35
97 52
97 54
97 60
97 76
97 83
97 105
97 115
97 127
97 130
97 138
97 154
98 33
98 36
98 62
98 73
98 74
98 79
98 81
98 89
98 99
98 108
98 117
98 118
98 133
98 135
98 137
98 144
98 145
99 33
99 48
99 49
99 62
99 74
99 79
99 80
99 89
99 98
99 113
99 117
99 133
99 135
99 137
99 146
99 160
100 47
100 51
100 57
100 67
100 75
100 88
100 93
100 94
100 120
100 121
100 122
100 134
100 143
100 148
100 158
101 38
101 39
101 61
101 66
101 70
101 88
101 95
101 104
101 111
101 125
101 132
101 134
101 157
102 42
102 55
102 58
102 66
102 77
102 92
102 95
102 104
102 116
102 123
102 125
102 129
102 142
102 147
102 155
102 156
103 41
103 44
103 68
103 69
103 71
103 82
103 84
103 87
103 107
103 109
103 114
103 131
103 141
103 149
103 151
104 55
104 66
104 92
104 95
104 101
104 102
104 123
104 125
104 129
104 155
104 156
104 157
105 52
105 64
105 76
105 78
105 83
105 91
105 97
105 110
105 115
105 124
105 128
105 130
105 136
105 138
105 159
105 161
106 37
106 46
106 63
106 72
106 77
106 80
106 92
106 113
106 116
106 123
106 142
106 146
106 152
107 41
107 45
107 53
107 68
107 69
107 71
107 87
107 90
107 103
107 114
107 119
107 131
107 139
107 149
107 150
108 56
108 62
108 73
108 74
108 78
108 81
108 89
108 98
108 110
108 117
108 118
108 135
108 137
108 144
108 145
108 166
109 59
109 71
109 82
109 84
109 96
109 103
109 112
109 114
109 126
109 131
109 140
109 141
109 151
109 168
110 56
110 73
110 78
110 81
110 91
110 105
110 108
110 118
110 124
110 128
110 144
110 145
110 159
110 162
111 61
111 67
111 70
111 88
111 93
111 101
111 122
111 125
111 132
111 134
111 143
111 167
111 174
112 50
112 57
112 75
112 84
112 85
112 94
112 96
112 109
112 120
112 121
112 126
112 140
112 141
112 148
112 153
112 173
113 49
113 72
113 79
113 80
113 99
113 106
113 133
113 146
113 152
113 160
114 68
114 71
114 82
114 84
114 96
114 103
114 107
114 109
114 126
114 131
114 141
114 149
114 151
114 165
114 168
115 52
115 54
115 76
115 83
115 97
115 105
115 127
115 128
115 130
115 136
115 138
115 154
115 161
115 163
116 58
116 63
116 72
116 77
116 92
116 102
116 106
116 123
116 129
116 142
116 147
116 152
116 155
116 170
116 171
117 62
117 73
117 74
117 79
117 89
117 98
117 99
117 108
117 133
117 135
117 137
117 145
117 160
117 166
117 169
118 56
118 73
118 74
118 78
118 81
118 91
118 98
118 108
118 110
118 124
118 135
118 144
118 145
118 162
119 53
119 65
119 86
119 87
119 90
119 107
119 139
119 150
119 164
120 57
120 75
120 85
120 94
120 96
120 100
120 112
120 121
120 140
120 148
120 153
120 172
121 57
121 75
121 85
121 93
121 94
121 100
121 112
121 120
121 122
121 148
121 153
121 158
121 172
121 177
122 67
122 88
122 93
122 94
122 100
122 111
122 121
122 134
122 143
122 148
122 158
122 177
123 58
123 77
123 92
123 102
123 104
123 106
123 116
123 129
123 142
123 147
123 152
123 155
123 170
123 171
124 78
124 81
124 91
124 105
124 110
124 118
124 128
124 130
124 136
124 144
124 159
124 161
124 162
124 180
125 66
125 95
125 101
125 102
125 104
125 111
125 129
125 132
125 155
125 156
125 157
125 167
125 175
125 184
126 59
126 82
126 84
126 85
126 96
126 109
126 112
126 114
126 140
126 141
126 151
126 168
126 173
126 176
127 76
127 83
127 97
127 115
127 130
127 136
127 138
127 154
127 161
127 163
127 182
127 183
128 64
128 83
128 91
128 105
128 110
128 115
128 124
128 130
128 136
128 138
128 159
128 161
128 162
128 163
128 180
129 92
129 95
129 102
129 104
129 116
129 123
129 125
129 142
129 147
129 155
129 156
129 157
129 171
129 175
129 188
130 76
130 83
130 97
130 105
130 115
130 124
130 127
130 128
130 136
130 138
130 154
130 159
130 161
130 163
130 183
131 68
131 71
131 82
131 87
131 103
131 107
131 109
131 114
131 141
131 149
131 150
131 151
131 165
131 168
132 70
132 88
132 95
132 101
132 111
132 125
132 134
132 143
132 156
132 157
132 167
132 174
132 184
133 79
133 89
133 98
133 99
133 113
133 117
133 135
133 137
133 146
133 160
133 166
133 169
133 187
134 88
134 93
134 100
134 101
134 111
134 122
134 132
134 143
134 158
134 167
134 174
134 186
135 73
135 74
135 81
135 89
135 98
135 99
135 108
135 117
135 118
135 133
135 137
135 144
135 145
135 160
135 166
135 169
135 192
136 83
136 105
136 115
136 124
136 127
136 128
136 130
136 138
136 159
136 161
136 162
136 163
136 183
136 190
137 89
137 98
137 99
137 108
137 117
137 133
137 135
137 145
137 160
137 166
137 169
137 187
137 192
137 198
138 76
138 83
138 97
138 105
138 115
138 127
138 128
138 130
138 136
138 154
138 161
138 163
138 182
138 183
138 197
139 86
139 87
139 90
139 107
139 119
139 149
139 150
139 164
139 178
139 185
139 199
140 84
140 85
140 96
140 109
140 112
140 120
140 126
140 141
140 148
140 153
140 168
140 173
140 176
140 194
141 82
141 84
141 96
141 103
141 109
141 112
141 114
141 126
141 131
141 140
141 151
141 165
141 168
141 173
141 176
141 189
141 200
142 77
142 92
142 102
142 106
142 116
142 123
142 129
142 147
142 152
142 155
142 170
142 171
142 179
142 188
143 88
143 93
143 100
143 111
143 122
143 132
143 134
143 158
143 167
143 174
143 177
143 186
144 81
144 98
144 108
144 110
144 118
144 124
144 135
144 145
144 159
144 162
144 166
144 180
144 181
144 192
144 195
145 81
145 98
145 108
145 110
145 117
145 118
145 135
145 137
145 144
145 162
145 166
145 169
145 181
145 192
145 195
146 80
146 99
146 106
146 113
146 133
146 152
146 160
146 179
146 193
146 203
147 92
147 102
147 116
147 123
147 129
147 142
147 152
147 155
147 156
147 170
147 171
147 175
147 179
147 188
147 208
148 94
148 100
148 112
148 120
148 121
148 122
148 140
148 153
148 158
148 172
148 173
148 177
148 191
148 205
148 206
149 87
149 103
149 107
149 114
149 131
149 139
149 150
149 151
149 165
149 178
149 189
149 196
150 87
150 90
150 107
150 119
150 131
150 139
150 149
150 151
150 164
150 165
150 178
150 185
150 196
150 199
151 103
151 109
151 114
151 126
151 131
151 141
151 149
151 150
151 165
151 168
151 176
151 189
151 196
151 200
152 106
152 113
152 116
152 123
152 142
152 146
152 147
152 170
152 171
152 179
152 203
152 204
153 112
153 120
153 121
153 140
153 148
153 172
153 173
153 177
153 191
153 194
153 206
153 207
154 97
154 115
154 127
154 130
154 138
154 161
154 163
154 182
154 183
154 197
154 211
154 212
155 102
155 104
155 116
155 123
155 125
155 129
155 142
155 147
155 156
155 157
155 170
155 171
155 175
155 188
155 208
155 216
156 95
156 102
156 104
156 125
156 129
156 132
156 147
156 155
156 157
156 167
156 171
156 175
156 184
156 188
157 95
157 101
157 104
157 125
157 129
157 132
157 155
157 156
157 167
157 175
157 184
157 202
158 100
158 121
158 122
158 134
158 143
158 148
158 172
158 174
158 177
158 186
158 205
159 105
159 110
159 124
159 128
159 130
159 136
159 144
159 161
159 162
159 163
159 180
159 181
159 190
159 201
160 99
160 113
160 117
160 133
160 135
160 137
160 146
160 166
160 169
160 187
160 193
160 198
160 203
160 217
161 105
161 115
161 124
161 127
161 128
161 130
161 136
161 138
161 154
161 159
161 162
161 163
161 180
161 183
161 190
161 197
161 201
161 220
162 110
162 118
162 124
162 128
162 136
162 144
162 145
162 159
162 161
162 180
162 181
162 190
162 195
162 201
162 213
163 115
163 127
163 128
163 130
163 136
163 138
163 154
163 159
163 161
163 182
163 183
163 190
163 197
163 212
163 222
164 119
164 139
164 150
164 178
164 185
164 199
164 210
165 114
165 131
165 141
165 149
165 150
165 151
165 168
165 178
165 189
165 196
165 199
165 200
165 221
165 224
166 108
166 117
166 133
166 135
166 137
166 144
166 145
166 160
166 169
166 181
166 187
166 192
166 195
166 198
166 225
167 111
167 125
167 132
167 134
167 143
167 156
167 157
167 174
167 184
167 202
167 215
168 109
168 114
168 126
168 131
168 140
168 141
168 151
168 165
168 173
168 176
168 189
168 194
168 200
168 214
168 221
169 117
169 133
169 135
169 137
169 145
169 160
169 166
169 187
169 192
169 193
169 195
169 198
169 217
169 225
169 226
170 116
170 123
170 142
170 147
170 152
170 155
170 171
170 179
170 188
170 204
170 208
170 209
170 230
171 116
171 123
171 129
171 142
171 147
171 152
171 155
171 156
171 170
171 175
171 179
171 188
171 204
171 208
171 209
171 216
172 120
172 121
172 148
172 153
172 158
172 173
172 177
172 191
172 205
172 206
172 207
172 228
173 112
173 126
173 140
173 141
173 148
173 153
173 168
173 172
173 176
173 191
173 194
173 200
173 207
173 214
174 111
174 132
174 134
174 143
174 158
174 167
174 184
174 186
174 202
174 215
175 125
175 129
175 147
175 155
175 156
175 157
175 171
175 184
175 188
175 208
175 216
175 218
176 126
176 140
176 141
176 151
176 168
176 173
176 189
176 194
176 200
176 207
176 214
176 236
177 121
177 122
177 143
177 148
177 153
177 158
177 172
177 186
177 191
177 205
177 206
177 219
177 227
178 139
178 149
178 150
178 164
178 165
178 185
178 196
178 199
178 210
178 223
178 224
179 142
179 146
179 147
179 152
179 170
179 171
179 203
179 204
179 209
179 230
180 124
180 128
180 144
180 159
180 161
180 162
180 181
180 190
180 195
180 201
180 213
180 220
180 232
181 144
181 145
181 159
181 162
181 166
181 180
181 190
181 192
181 195
181 201
181 213
181 229
182 127
182 138
182 154
182 163
182 183
182 197
182 211
182 212
182 222
182 234
183 127
183 130
183 136
183 138
183 154
183 161
183 163
183 182
183 190
183 197
183 211
183 212
183 222
183 234
184 125
184 132
184 156
184 157
184 167
184 174
184 175
184 202
184 216
184 218
185 139
185 150
185 164
185 178
185 196
185 199
185 210
185 223
185 238
185 239
186 134
186 143
186 158
186 174
186 177
186 202
186 205
186 206
186 215
186 219
186 227
186 237
186 241
187 133
187 137
187 160
187 166
187 169
187 192
187 193
187 198
187 203
187 217
187 226
187 233
187 243
188 129
188 142
188 147
188 155
188 156
188 170
188 171
188 175
188 208
188 209
188 216
188 240
188 250
189 141
189 149
189 151
189 165
189 168
189 176
189 194
189 196
189 200
189 214
189 221
189 224
189 236
189 244
190 136
190 159
190 161
190 162
190 163
190 180
190 181
190 183
190 197
190 201
190 213
190 220
190 222
190 231
190 232
191 148
191 153
191 172
191 173
191 177
191 194
191 205
191 206
191 207
191 227
191 228
192 135
192 137
192 144
192 145
192 166
192 169
192 181
192 187
192 195
192 198
192 213
192 217
192 225
192 226
192 229
193 146
193 160
193 169
193 187
193 198
193 203
193 204
193 217
193 226
193 233
193 243
194 140
194 153
194 168
194 173
194 176
194 189
194 191
194 200
194 207
194 214
194 228
194 235
194 236
195 144
195 145
195 162
195 166
195 169
195 180
195 181
195 192
195 198
195 213
195 225
195 226
195 229
195 251
196 149
196 150
196 151
196 165
196 178
196 185
196 189
196 199
196 200
196 221
196 223
196 224
196 244
196 248
197 138
197 154
197 161
197 163
197 182
197 183
197 190
197 211
197 212
197 220
197 222
197 231
197 234
198 137
198 160
198 166
198 169
198 187
198 192
198 193
198 195
198 217
198 225
198 226
198 229
198 233
198 243
198 254
198 256
199 139
199 150
199 164
199 165
199 178
199 185
199 196
199 210
199 223
199 224
199 238
199 239
199 248
199 259
200 141
200 151
200 165
200 168
200 173
200 176
200 189
200 194
200 196
200 214
200 221
200 224
200 235
200 236
200 244
200 253
201 159
201 161
201 162
201 180
201 181
201 190
201 213
201 220
201 231
201 232
201 252
201 261
202 157
202 167
202 174
202 184
202 186
202 215
202 218
202 237
202 245
202 246
203 146
203 152
203 160
203 179
203 187
203 193
203 204
203 217
203 230
203 233
203 242
203 247
204 152
204 170
204 171
204 179
204 193
204 203
204 208
204 209
204 230
204 233
204 242
204 247
205 148
205 158
205 172
205 177
205 186
205 191
205 206
205 219
205 227
205 228
205 241
205 258
206 148
206 153
206 172
206 177
206 186
206 191
206 205
206 207
206 219
206 227
206 228
206 257
206 258
207 153
207 172
207 173
207 176
207 191
207 194
207 206
207 214
207 228
207 235
207 236
207 257
207 260
208 147
208 155
208 170
208 171
208 175
208 188
208 204
208 209
208 216
208 230
208 240
208 249
208 250
208 255
209 170
209 171
209 179
209 188
209 204
209 208
209 216
209 230
209 240
209 242
209 250
209 255
209 264
210 164
210 178
210 185
210 199
210 223
210 238
210 239
210 262
211 154
211 182
211 183
211 197
211 212
211 222
211 234
211 267
212 154
212 163
212 182
212 183
212 197
212 211
212 222
212 231
212 234
213 162
213 180
213 181
213 190
213 192
213 195
213 201
213 220
213 225
213 229
213 232
213 251
213 252
214 168
214 173
214 176
214 189
214 194
214 200
214 207
214 221
214 235
214 236
214 253
214 269
215 167
215 174
215 186
215 202
215 219
215 237
215 241
215 246
215 266
216 155
216 171
216 175
216 184
216 188
216 208
216 209
216 218
216 240
216 245
216 249
216 250
217 160
217 169
217 187
217 192
217 193
217 198
217 203
217 225
217 226
217 233
217 243
217 247
217 254
217 265
218 175
218 184
218 202
218 216
218 245
218 246
218 249
218 250
218 273
219 177
219 186
219 205
219 206
219 215
219 227
219 237
219 241
219 258
219 266
220 161
220 180
220 190
220 197
220 201
220 213
220 222
220 231
220 232
220 252
220 261
220 263
221 165
221 168
221 189
221 196
221 200
221 214
221 223
221 224
221 236
221 244
221 248
221 253
221 275
222 163
222 182
222 183
222 190
222 197
222 211
222 212
222 220
222 231
222 234
222 263
222 267
222 270
223 178
223 185
223 196
223 199
223 210
223 221
223 224
223 238
223 239
223 244
223 248
223 259
223 262
224 165
224 178
224 189
224 196
224 199
224 200
224 221
224 223
224 238
224 244
224 248
224 253
224 259
224 285
225 166
225 169
225 192
225 195
225 198
225 213
225 217
225 226
225 229
225 243
225 251
225 256
225 272
226 169
226 187
226 192
226 193
226 195
226 198
226 217
226 225
226 229
226 233
226 243
226 254
226 256
226 282
227 177
227 186
227 191
227 205
227 206
227 219
227 228
227 241
227 257
227 258
227 266
227 278
228 172
228 191
228 194
228 205
228 206
228 207
228 227
228 235
228 257
228 258
228 260
228 278
228 279
228 283
229 181
229 192
229 195
229 198
229 213
229 225
229 226
229 243
229 251
229 252
229 256
229 272
230 170
230 179
230 203
230 204
230 208
230 209
230 240
230 242
230 247
230 255
230 264
230 268
230 271
231 190
231 197
231 201
231 212
231 220
231 222
231 232
231 234
231 261
231 263
231 270
231 286
232 180
232 190
232 201
232 213
232 220
232 231
232 251
232 252
232 261
232 263
232 290
232 291
233 187
233 193
233 198
233 203
233 204
233 217
233 226
233 242
233 243
233 247
233 254
233 265
233 268
233 271
233 284
234 182
234 183
234 197
234 211
234 212
234 222
234 231
234 267
234 270
234 295
235 194
235 200
235 207
235 214
235 228
235 236
235 253
235 257
235 260
235 269
235 274
235 279
236 176
236 189
236 194
236 200
236 207
236 214
236 221
236 235
236 244
236 253
236 260
236 269
236 274
236 275
237 186
237 202
237 215
237 219
237 241
237 246
237 266
237 281
237 293
237 294
238 185
238 199
238 210
238 223
238 224
238 239
238 248
238 259
238 262
238 287
238 288
238 289
239 185
239 199
239 210
239 223
239 238
239 259
239 262
239 288
239 289
240 188
240 208
240 209
240 216
240 230
240 242
240 249
240 250
240 255
240 264
240 276
240 280
241 186
241 205
241 215
241 219
241 227
241 237
241 246
241 258
241 266
241 281
241 294
242 203
242 204
242 209
242 230
242 233
242 240
242 247
242 255
242 264
242 265
242 268
242 271
243 187
243 193
243 198
243 217
243 225
243 226
243 229
243 233
243 254
243 256
243 265
243 282
243 284
244 189
244 196
244 200
244 221
244 223
244 224
244 236
244 248
244 253
244 259
244 274
244 275
244 285
244 287
244 299
245 202
245 216
245 218
245 246
245 249
245 250
245 273
245 277
245 280
246 202
246 215
246 218
246 237
246 241
246 245
246 273
246 281
246 293
247 203
247 204
247 217
247 230
247 233
247 242
247 254
247 255
247 264
247 265
247 268
247 271
247 284
247 301
248 196
248 199
248 221
248 223
248 224
248 238
248 244
248 253
248 259
248 262
248 275
248 285
248 287
248 288
249 208
249 216
249 218
249 240
249 245
249 250
249 255
249 273
249 276
249 277
249 280
249 306
250 188
250 208
250 209
250 216
250 218
250 240
250 245
250 249
250 255
250 276
250 277
250 280
251 195
251 213
251 225
251 229
251 232
251 252
251 256
251 261
251 272
251 290
251 292
252 201
252 213
252 220
252 229
252 232
252 251
252 261
252 263
252 272
252 290
252 291
252 292
253 200
253 214
253 221
253 224
253 235
253 236
253 244
253 248
253 269
253 274
253 275
253 285
253 297
253 299
254 198
254 217
254 226
254 233
254 243
254 247
254 256
254 265
254 271
254 282
254 284
254 308
254 314
255 208
255 209
255 230
255 240
255 242
255 247
255 249
255 250
255 264
255 268
255 276
255 280
255 302
255 312
256 198
256 225
256 226
256 229
256 243
256 251
256 254
256 272
256 282
256 284
256 300
256 313
257 206
257 207
257 227
257 228
257 235
257 258
257 260
257 278
257 279
257 283
257 305
258 205
258 206
258 219
258 227
258 228
258 241
258 257
258 266
258 278
258 283
258 294
258 305
258 307
259 199
259 223
259 224
259 238
259 239
259 244
259 248
259 262
259 285
259 287
259 288
259 289
259 310
259 311
260 207
260 228
260 235
260 236
260 257
260 269
260 278
260 279
260 283
260 296
260 315
261 201
261 220
261 231
261 232
261 251
261 252
261 263
261 270
261 286
261 290
261 291
261 292
261 316
262 210
262 223
262 238
262 239
262 248
262 259
262 287
262 288
262 289
262 304
262 310
263 220
263 222
263 231
263 232
263 252
263 261
263 270
263 286
263 290
263 291
263 298
263 316
263 319
264 209
264 230
264 240
264 242
264 247
264 255
264 268
264 271
264 276
264 301
264 302
264 312
265 217
265 233
265 242
265 243
265 247
265 254
265 268
265 271
265 282
265 284
265 301
265 308
265 314
266 215
266 219
266 227
266 237
266 241
266 258
266 278
266 281
266 294
266 307
267 211
267 222
267 234
267 270
267 295
267 298
268 230
268 233
268 242
268 247
268 255
268 264
268 265
268 271
268 301
268 302
268 308
268 312
269 214
269 235
269 236
269 253
269 260
269 274
269 275
269 279
269 283
269 296
269 297
269 315
269 325
269 327
270 222
270 231
270 234
270 261
270 263
270 267
270 286
270 291
270 295
270 298
270 319
270 321
271 230
271 233
271 242
271 247
271 254
271 264
271 265
271 268
271 284
271 301
271 308
271 312
272 225
272 229
272 251
272 252
272 256
272 290
272 292
272 300
272 313
272 320
272 323
273 218
273 245
273 246
273 249
273 277
273 280
273 281
273 293
273 303
273 306
274 235
274 236
274 244
274 253
274 269
274 275
274 279
274 285
274 296
274 297
274 299
274 325
274 327
275 221
275 236
275 244
275 248
275 253
275 269
275 274
275 285
275 287
275 296
275 297
275 299
275 311
275 325
275 329
276 240
276 249
276 250
276 255
276 264
276 277
276 280
276 302
276 306
276 309
276 332
277 245
277 249
277 250
277 273
277 276
277 280
277 293
277 303
277 306
277 309
278 227
278 228
278 257
278 258
278 260
278 266
278 279
278 283
278 294
278 305
278 307
278 315
278 333
279 228
279 235
279 257
279 260
279 269
279 274
279 278
279 283
279 296
279 297
279 305
279 315
279 327
280 240
280 245
280 249
280 250
280 255
280 273
280 276
280 277
280 302
280 303
280 306
280 309
280 332
281 237
281 241
281 246
281 266
281 273
281 293
281 294
281 317
281 324
282 226
282 243
282 254
282 256
282 265
282 284
282 300
282 308
282 314
282 318
282 323
283 228
283 257
283 258
283 260
283 269
283 278
283 279
283 296
283 305
283 307
283 315
283 333
284 233
284 243
284 247
284 254
284 256
284 265
284 271
284 282
284 300
284 301
284 308
284 314
284 318
285 224
285 244
285 248
285 253
285 259
285 274
285 275
285 287
285 288
285 299
285 310
285 311
285 329
285 330
286 231
286 261
286 263
286 270
286 290
286 291
286 295
286 298
286 316
286 319
286 321
286 322
287 238
287 244
287 248
287 259
287 262
287 275
287 285
287 288
287 289
287 299
287 310
287 311
287 329
287 330
287 335
288 238
288 239
288 248
288 259
288 262
288 285
288 287
288 289
288 304
288 310
288 311
288 326
288 330
288 335
289 238
289 239
289 259
289 262
289 287
289 288
289 304
289 310
289 326
290 232
290 251
290 252
290 261
290 263
290 272
290 286
290 291
290 292
290 313
290 316
290 319
290 320
290 322
291 232
291 252
291 261
291 263
291 270
291 286
291 290
291 292
291 298
291 316
291 319
291 320
291 322
292 251
292 252
292 261
292 272
292 290
292 291
292 313
292 316
292 320
292 322
292 323
292 347
293 237
293 246
293 273
293 277
293 281
293 294
293 303
293 317
293 324
294 237
294 241
294 258
294 266
294 278
294 281
294 293
294 307
294 317
294 324
294 328
294 341
295 234
295 267
295 270
295 286
295 298
295 319
295 321
295 331
295 339
296 260
296 269
296 274
296 275
296 279
296 283
296 297
296 299
296 315
296 325
296 327
296 336
296 338
296 353
297 253
297 269
297 274
297 275
297 279
297 296
297 299
297 315
297 325
297 327
297 329
297 336
297 353
298 263
298 267
298 270
298 286
298 291
298 295
298 316
298 319
298 321
298 331
298 339
298 340
299 244
299 253
299 274
299 275
299 285
299 287
299 296
299 297
299 310
299 311
299 325
299 329
299 330
299 336
299 355
300 256
300 272
300 282
300 284
300 313
300 314
300 318
300 323
300 343
300 348
301 247
301 264
301 265
301 268
301 271
301 284
301 302
301 308
301 312
301 314
301 345
301 346
301 349
302 255
302 264
302 268
302 276
302 280
302 301
302 309
302 312
302 332
302 334
302 349
302 351
303 273
303 277
303 280
303 293
303 306
303 317
303 332
303 337
303 342
304 262
304 288
304 289
304 310
304 326
304 335
304 344
304 352
305 257
305 258
305 278
305 279
305 283
305 307
305 315
305 328
305 333
305 338
305 357
306 249
306 273
306 276
306 277
306 280
306 303
306 309
306 332
306 337
306 342
306 354
307 258
307 266
307 278
307 283
307 294
307 305
307 324
307 328
307 333
307 357
308 254
308 265
308 268
308 271
308 282
308 284
308 301
308 312
308 314
308 318
308 345
308 346
309 276
309 277
309 280
309 302
309 306
309 312
309 332
309 334
309 337
309 351
309 354
309 358
310 259
310 262
310 285
310 287
310 288
310 289
310 299
310 304
310 311
310 326
310 329
310 330
310 335
310 344
310 352
310 355
311 259
311 275
311 285
311 287
311 288
311 299
311 310
311 325
311 329
311 330
311 335
311 336
311 352
311 355
312 255
312 264
312 268
312 271
312 301
312 302
312 308
312 309
312 334
312 345
312 349
312 351
313 256
313 272
313 290
313 292
313 300
313 318
313 320
313 322
313 323
313 343
313 347
313 348
313 356
314 254
314 265
314 282
314 284
314 300
314 301
314 308
314 318
314 323
314 346
314 365
315 260
315 269
315 278
315 279
315 283
315 296
315 297
315 305
315 327
315 333
315 338
315 361
316 261
316 263
316 286
316 290
316 291
316 292
316 298
316 319
316 320
316 321
316 322
316 340
316 347
316 350
316 363
316 369
317 281
317 293
317 294
317 303
317 324
317 328
317 341
317 342
317 359
317 372
318 282
318 284
318 300
318 308
318 313
318 314
318 323
318 343
318 346
318 348
318 365
318 367
319 263
319 270
319 286
319 290
319 291
319 295
319 298
319 316
319 321
319 322
319 331
319 339
319 340
319 350
319 363
319 364
319 377
320 272
320 290
320 291
320 292
320 313
320 316
320 322
320 323
320 343
320 347
320 348
320 350
320 356
320 373
321 270
321 286
321 295
321 298
321 316
321 319
321 331
321 339
321 340
321 364
321 366
322 286
322 290
322 291
322 292
322 313
322 316
322 319
322 320
322 340
322 347
322 350
322 356
322 363
322 369
323 272
323 282
323 292
323 300
323 313
323 314
323 318
323 320
323 343
323 347
323 348
323 356
323 367
324 281
324 293
324 294
324 307
324 317
324 328
324 341
324 359
324 372
325 269
325 274
325 275
325 296
325 297
325 299
325 311
325 327
325 329
325 330
325 336
325 353
325 360
326 288
326 289
326 304
326 310
326 330
326 335
326 344
326 352
326 371
327 269
327 274
327 279
327 296
327 297
327 315
327 325
327 336
327 338
327 353
327 360
327 361
328 294
328 305
328 307
328 317
328 324
328 333
328 341
328 357
328 359
328 372
329 275
329 285
329 287
329 297
329 299
329 310
329 311
329 325
329 330
329 335
329 336
329 353
329 355
329 360
329 370
329 376
330 285
330 287
330 288
330 299
330 310
330 311
330 325
330 326
330 329
330 335
330 336
330 352
330 355
330 360
330 370
330 376
331 295
331 298
331 319
331 321
331 339
331 340
331 364
331 366
332 276
332 280
332 302
332 303
332 306
332 309
332 334
332 337
332 342
332 351
332 354
332 358
332 362
333 278
333 283
333 305
333 307
333 315
333 328
333 338
333 357
333 361
333 375
333 379
334 302
334 309
334 312
334 332
334 349
334 351
334 354
334 358
334 374
334 386
335 287
335 288
335 304
335 310
335 311
335 326
335 329
335 330
335 344
335 352
335 355
335 370
335 371
335 376
335 380
336 296
336 297
336 299
336 311
336 325
336 327
336 329
336 330
336 353
336 355
336 360
336 376
336 385
337 303
337 306
337 309
337 332
337 342
337 354
337 358
337 362
337 378
337 389
337 395
338 296
338 305
338 315
338 327
338 333
338 353
338 361
338 375
338 379
338 384
339 295
339 298
339 319
339 321
339 331
339 340
339 350
339 363
339 364
339 366
339 377
339 387
340 298
340 316
340 319
340 321
340 322
340 331
340 339
340 350
340 363
340 364
340 366
340 369
340 377
340 387
340 397
341 294
341 317
341 324
341 328
341 342
341 359
341 372
341 399
342 303
342 306
342 317
342 332
342 337
342 341
342 362
342 378
342 395
343 300
343 313
343 318
343 320
343 323
343 347
343 348
343 356
343 367
343 373
343 381
343 382
343 394
344 304
344 310
344 326
344 335
344 352
344 371
344 380
344 393
345 301
345 308
345 312
345 346
345 349
345 351
345 365
345 368
345 374
345 388
345 390
346 301
346 308
346 314
346 318
346 345
346 349
346 365
346 367
346 368
346 388
346 390
347 292
347 313
347 316
347 320
347 322
347 323
347 343
347 348
347 350
347 356
347 363
347 369
347 373
347 381
347 394
347 396
347 400
348 300
348 313
348 318
348 320
348 323
348 343
348 347
348 356
348 365
348 367
348 373
348 381
348 382
348 394
349 301
349 302
349 312
349 334
349 345
349 346
349 351
349 358
349 368
349 374
349 388
349 391
350 316
350 319
350 320
350 322
350 339
350 340
350 347
350 356
350 363
350 364
350 369
350 373
350 377
350 400
350 402
351 302
351 309
351 312
351 332
351 334
351 345
351 349
351 354
351 358
351 368
351 374
351 386
351 391
352 304
352 310
352 311
352 326
352 330
352 335
352 344
352 355
352 370
352 371
352 376
352 380
352 393
352 398
353 296
353 297
353 325
353 327
353 329
353 336
353 338
353 360
353 361
353 384
353 385
354 306
354 309
354 332
354 334
354 337
354 351
354 358
354 362
354 386
354 389
355 299
355 310
355 311
355 329
355 330
355 335
355 336
355 352
355 360
355 370
355 376
355 380
355 398
356 313
356 320
356 322
356 323
356 343
356 347
356 348
356 350
356 367
356 369
356 373
356 381
356 382
356 394
356 396
356 400
357 305
357 307
357 328
357 333
357 359
357 375
357 379
357 383
357 392
357 404
357 406
357 409
358 309
358 332
358 334
358 337
358 349
358 351
358 354
358 362
358 374
358 386
358 389
358 391
358 413
359 317
359 324
359 328
359 341
359 357
359 372
359 379
359 383
359 392
359 399
359 404
359 409
360 325
360 327
360 329
360 330
360 336
360 353
360 355
360 370
360 376
360 384
360 385
360 403
361 315
361 327
361 333
361 338
361 353
361 375
361 379
361 384
361 385
361 401
361 406
362 332
362 337
362 342
362 354
362 358
362 378
362 389
362 395
362 407
363 316
363 319
363 322
363 339
363 340
363 347
363 350
363 364
363 369
363 373
363 377
363 387
363 397
363 400
363 402
364 319
364 321
364 331
364 339
364 340
364 350
364 363
364 366
364 377
364 387
364 397
364 402
364 405
364 411
365 314
365 318
365 345
365 346
365 348
365 367
365 368
365 382
365 388
365 390
365 408
366 321
366 331
366 339
366 340
366 364
366 377
366 387
366 397
366 405
366 411
367 318
367 323
367 343
367 346
367 348
367 356
367 365
367 381
367 382
367 390
367 408
367 410
368 345
368 346
368 349
368 351
368 365
368 374
368 388
368 390
368 391
368 416
369 316
369 322
369 340
369 347
369 350
369 356
369 363
369 373
369 377
369 394
369 396
369 397
369 400
369 402
370 329
370 330
370 335
370 352
370 355
370 360
370 371
370 376
370 380
370 393
370 398
370 414
370 417
370 421
371 326
371 335
371 344
371 352
371 370
371 380
371 393
371 398
371 414
371 415
372 317
372 324
372 328
372 341
372 359
372 378
372 383
372 399
372 404
373 320
373 343
373 347
373 348
373 350
373 356
373 363
373 369
373 381
373 382
373 394
373 396
373 400
373 410
373 424
374 334
374 345
374 349
374 351
374 358
374 368
374 386
374 388
374 391
374 416
374 419
374 422
375 333
375 338
375 357
375 361
375 379
375 383
375 384
375 392
375 401
375 406
375 420
375 427
376 329
376 330
376 335
376 336
376 352
376 355
376 360
376 370
376 380
376 385
376 398
376 403
376 417
376 421
377 319
377 339
377 340
377 350
377 363
377 364
377 366
377 369
377 387
377 397
377 400
377 402
377 411
377 428
378 337
378 342
378 362
378 372
378 389
378 395
378 407
378 423
379 333
379 338
379 357
379 359
379 361
379 375
379 383
379 392
379 401
379 404
379 406
379 409
379 426
379 427
380 335
380 344
380 352
380 355
380 370
380 371
380 376
380 393
380 398
380 414
380 415
380 421
381 343
381 347
381 348
381 356
381 367
381 373
381 382
381 394
381 396
381 408
381 410
381 424
382 343
382 348
382 356
382 365
382 367
382 373
382 381
382 394
382 396
382 408
382 410
382 418
383 357
383 359
383 372
383 375
383 379
383 392
383 399
383 404
383 406
383 409
383 426
383 430
384 338
384 353
384 360
384 361
384 375
384 385
384 401
384 403
384 406
384 412
384 420
384 433
385 336
385 353
385 360
385 361
385 376
385 384
385 401
385 403
385 412
385 420
385 425
385 433
386 334
386 351
386 354
386 358
386 374
386 389
386 391
386 413
386 422
386 435
387 339
387 340
387 363
387 364
387 366
387 377
387 397
387 402
387 405
387 411
387 434
388 345
388 346
388 349
388 365
388 368
388 374
388 390
388 391
388 416
388 419
388 422
389 337
389 354
389 358
389 362
389 378
389 386
389 395
389 407
389 413
389 423
389 441
390 345
390 346
390 365
390 367
390 368
390 388
390 408
390 416
390 418
391 349
391 351
391 358
391 368
391 374
391 386
391 388
391 413
391 416
391 419
391 422
391 435
392 357
392 359
392 375
392 379
392 383
392 401
392 404
392 406
392 409
392 426
392 427
392 430
393 344
393 352
393 370
393 371
393 380
393 398
393 414
393 415
393 421
393 431
394 343
394 347
394 348
394 356
394 369
394 373
394 381
394 382
394 396
394 400
394 410
394 424
394 436
395 337
395 342
395 362
395 378
395 389
395 407
395 413
395 423
395 438
395 441
396 347
396 356
396 369
396 373
396 381
396 382
396 394
396 400
396 402
396 410
396 424
396 429
396 436
396 446
396 449
397 340
397 363
397 364
397 366
397 369
397 377
397 387
397 400
397 402
397 405
397 411
397 428
397 429
397 434
397 444
398 352
398 355
398 370
398 371
398 376
398 380
398 393
398 403
398 414
398 415
398 417
398 421
398 442
399 341
399 359
399 372
399 383
399 404
399 407
399 409
399 430
399 432
399 440
400 347
400 350
400 356
400 363
400 369
400 373
400 377
400 394
400 396
400 397
400 402
400 424
400 428
400 429
400 446
400 449
401 361
401 375
401 379
401 384
401 385
401 392
401 406
401 412
401 420
401 427
401 433
401 439
402 350
402 363
402 364
402 369
402 377
402 387
402 396
402 397
402 400
402 411
402 428
402 429
402 434
402 444
403 360
403 376
403 384
403 385
403 398
403 412
403 417
403 425
403 433
403 448
403 453
404 357
404 359
404 372
404 379
404 383
404 392
404 399
404 409
404 426
404 430
404 432
404 440
405 364
405 366
405 387
405 397
405 411
405 434
405 437
405 456
406 357
406 361
406 375
406 379
406 383
406 384
406 392
406 401
406 409
406 420
406 426
406 427
406 430
406 439
406 447
406 452
407 362
407 378
407 389
407 395
407 399
407 423
407 432
407 438
407 455
407 464
408 365
408 367
408 381
408 382
408 390
408 410
408 418
408 436
408 445
408 450
409 357
409 359
409 379
409 383
409 392
409 399
409 404
409 406
409 426
409 427
409 430
409 432
409 440
409 447
410 367
410 373
410 381
410 382
410 394
410 396
410 408
410 418
410 424
410 436
410 449
410 450
410 458
411 364
411 366
411 377
411 387
411 397
411 402
411 405
411 428
411 434
411 437
411 444
411 456
412 384
412 385
412 401
412 403
412 420
412 425
412 433
412 439
412 453
412 460
413 358
413 386
413 389
413 391
413 395
413 422
413 423
413 435
413 441
413 443
413 462
414 370
414 371
414 380
414 393
414 398
414 415
414 417
414 421
414 431
414 442
414 459
415 371
415 380
415 393
415 398
415 414
415 421
415 431
415 442
415 459
416 368
416 374
416 388
416 390
416 391
416 419
416 422
416 435
416 451
416 454
416 461
417 370
417 376
417 398
417 403
417 414
417 421
417 425
417 442
417 448
417 453
417 463
418 382
418 390
418 408
418 410
418 436
418 445
418 450
418 454
418 468
419 374
419 388
419 391
419 416
419 422
419 435
419 451
419 454
419 461
419 470
420 375
420 384
420 385
420 401
420 406
420 412
420 426
420 427
420 433
420 439
420 452
420 453
420 460
421 370
421 376
421 380
421 393
421 398
421 414
421 415
421 417
421 425
421 431
421 442
421 448
421 463
421 475
422 374
422 386
422 388
422 391
422 413
422 416
422 419
422 435
422 443
422 451
422 461
422 462
423 378
423 389
423 395
423 407
423 413
423 438
423 441
423 443
423 455
423 464
424 373
424 381
424 394
424 396
424 400
424 410
424 428
424 429
424 436
424 446
424 449
424 458
425 385
425 403
425 412
425 417
425 421
425 433
425 448
425 453
425 463
425 469
425 473
426 379
426 383
426 392
426 404
426 406
426 409
426 420
426 427
426 430
426 440
426 447
426 452
426 465
426 466
427 375
427 379
427 392
427 401
427 406
427 409
427 420
427 426
427 430
427 439
427 447
427 452
427 460
427 465
427 474
428 377
428 397
428 400
428 402
428 411
428 424
428 429
428 434
428 444
428 446
428 457
428 467
428 481
429 396
429 397
429 400
429 402
429 424
429 428
429 444
429 446
429 449
429 457
429 458
429 467
430 383
430 392
430 399
430 404
430 406
430 409
430 426
430 427
430 432
430 440
430 447
430 452
430 465
430 466
430 472
431 393
431 414
431 415
431 421
431 442
431 459
432 399
432 404
432 407
432 409
432 430
432 438
432 440
432 464
432 472
432 478
433 384
433 385
433 401
433 403
433 412
433 420
433 425
433 439
433 448
433 453
433 460
433 469
433 473
434 387
434 397
434 402
434 405
434 411
434 428
434 437
434 444
434 456
434 457
434 471
434 479
435 386
435 391
435 413
435 416
435 419
435 422
435 441
435 443
435 451
435 461
435 462
435 487
436 394
436 396
436 408
436 410
436 418
436 424
436 445
436 449
436 450
436 458
436 476
436 484
437 405
437 411
437 434
437 444
437 456
437 471
437 479
437 492
438 395
438 407
438 423
438 432
438 441
438 455
438 464
438 491
439 401
439 406
439 412
439 420
439 427
439 433
439 452
439 453
439 460
439 473
439 474
439 493
440 399
440 404
440 409
440 426
440 430
440 432
440 447
440 466
440 472
440 478
441 389
441 395
441 413
441 423
441 435
441 438
441 443
441 455
441 462
441 477
441 489
442 398
442 414
442 415
442 417
442 421
442 431
442 448
442 459
442 463
442 475
442 488
443 413
443 422
443 423
443 435
443 441
443 455
443 462
443 477
443 487
443 489
444 397
444 402
444 411
444 428
444 429
444 434
444 437
444 446
444 456
444 457
444 467
444 479
444 481
445 408
445 418
445 436
445 450
445 454
445 468
445 476
445 482
445 495
446 396
446 400
446 424
446 428
446 429
446 444
446 449
446 457
446 458
446 467
446 481
446 483
446 499
447 406
447 409
447 426
447 427
447 430
447 440
447 452
447 465
447 466
447 472
447 474
447 496
448 403
448 417
448 421
448 425
448 433
448 442
448 453
448 463
448 469
448 473
448 475
448 486
448 498
449 396
449 400
449 410
449 424
449 429
449 436
449 446
449 450
449 457
449 458
449 467
449 483
449 484
450 408
450 410
450 418
450 436
450 445
450 449
450 458
450 468
450 476
450 484
450 501
451 416
451 419
451 422
451 435
451 454
451 461
451 462
451 470
451 480
451 482
451 485
451 503
452 406
452 420
452 426
452 427
452 430
452 439
452 447
452 460
452 465
452 466
452 474
452 493
452 496
452 500
453 403
453 412
453 417
453 420
453 425
453 433
453 439
453 448
453 460
453 463
453 469
453 473
453 486
454 416
454 418
454 419
454 445
454 451
454 461
454 468
454 470
454 480
454 482
454 495
454 507
455 407
455 423
455 438
455 441
455 443
455 464
455 477
455 490
455 491
455 502
456 405
456 411
456 434
456 437
456 444
456 457
456 471
456 479
456 481
456 492
456 497
457 428
457 429
457 434
457 444
457 446
457 449
457 456
457 467
457 479
457 481
457 483
457 499
458 410
458 424
458 429
458 436
458 446
458 449
458 450
458 467
458 476
458 483
458 484
458 501
459 414
459 415
459 431
459 442
459 475
459 488
459 505
459 513
460 412
460 420
460 427
460 433
460 439
460 452
460 453
460 473
460 474
460 486
460 493
460 500
461 416
461 419
461 422
461 435
461 451
461 454
461 462
461 470
461 480
461 485
461 487
461 503
461 504
462 413
462 422
462 435
462 441
462 443
462 451
462 461
462 470
462 485
462 487
462 489
462 503
462 504
463 417
463 421
463 425
463 442
463 448
463 453
463 469
463 473
463 475
463 486
463 498
463 505
463 506
464 407
464 423
464 432
464 438
464 455
464 477
464 478
464 490
464 491
464 509
465 426
465 427
465 430
465 447
465 452
465 466
465 472
465 474
465 493
465 494
465 496
465 500
465 510
466 426
466 430
466 440
466 447
466 452
466 465
466 472
466 474
466 478
466 494
466 496
466 508
466 510
466 516
467 428
467 429
467 444
467 446
467 449
467 457
467 458
467 479
467 481
467 483
467 499
468 418
468 445
468 450
468 454
468 476
468 480
468 482
468 495
468 501
468 507
468 512
468 519
469 425
469 433
469 448
469 453
469 463
469 473
469 486
469 498
469 518
469 524
470 419
470 451
470 454
470 461
470 462
470 480
470 482
470 485
470 503
470 504
470 507
470 525
471 434
471 437
471 456
471 479
471 492
471 497
471 520
472 430
472 432
472 440
472 447
472 465
472 466
472 478
472 494
472 496
472 508
472 510
472 516
473 425
473 433
473 439
473 448
473 453
473 460
473 463
473 469
473 486
473 493
473 498
473 517
473 518
473 524
474 427
474 439
474 447
474 452
474 460
474 465
474 466
474 493
474 496
474 500
474 527
474 528
475 421
475 442
475 448
475 459
475 463
475 488
475 498
475 505
475 506
475 513
475 531
476 436
476 445
476 450
476 458
476 468
476 482
476 484
476 495
476 501
476 511
476 512
476 519
476 534
477 441
477 443
477 455
477 464
477 487
477 489
477 490
477 491
477 502
477 509
477 521
477 529
477 530
478 432
478 440
478 464
478 466
478 472
478 491
478 494
478 508
478 516
478 523
479 434
479 437
479 444
479 456
479 457
479 467
479 471
479 481
479 492
479 497
479 515
479 520
479 522
480 451
480 454
480 461
480 468
480 470
480 482
480 485
480 495
480 503
480 507
480 525
480 535
481 428
481 444
481 446
481 456
481 457
481 467
481 479
481 497
481 499
481 515
481 522
481 533
482 445
482 451
482 454
482 468
482 470
482 476
482 480
482 495
482 503
482 507
482 512
483 446
483 449
483 457
483 458
483 467
483 484
483 499
483 501
483 511
483 514
483 526
484 436
484 449
484 450
484 458
484 476
484 483
484 501
484 511
484 514
484 519
484 526
484 534
485 451
485 461
485 462
485 470
485 480
485 487
485 489
485 503
485 504
485 525
485 538
486 448
486 453
486 460
486 463
486 469
486 473
486 493
486 498
486 517
486 518
486 524
486 532
487 435
487 443
487 461
487 462
487 477
487 485
487 489
487 502
487 503
487 504
487 525
487 529
487 536
487 538
488 442
488 459
488 475
488 505
488 506
488 513
488 531
489 441
489 443
489 462
489 477
489 485
489 487
489 490
489 502
489 504
489 521
489 529
489 530
489 536
490 455
490 464
490 477
490 489
490 491
490 502
490 509
490 521
490 523
490 530
491 438
491 455
491 464
491 477
491 478
491 490
491 508
491 509
491 521
491 523
492 437
492 456
492 471
492 479
492 497
492 515
492 520
492 541
493 439
493 452
493 460
493 465
493 473
493 474
493 486
493 500
493 517
493 524
493 527
493 528
493 532
494 465
494 466
494 472
494 478
494 496
494 508
494 510
494 516
494 539
494 547
495 445
495 454
495 468
495 476
495 480
495 482
495 501
495 507
495 512
495 519
495 534
495 545
496 447
496 452
496 465
496 466
496 472
496 474
496 494
496 500
496 508
496 510
496 516
496 527
496 528
496 547
497 456
497 471
497 479
497 481
497 492
497 515
497 520
497 522
497 540
497 541
498 448
498 463
498 469
498 473
498 475
498 486
498 505
498 506
498 518
498 524
498 537
498 542
499 446
499 457
499 467
499 481
499 483
499 514
499 515
499 522
499 533
500 452
500 460
500 465
500 474
500 493
500 496
500 510
500 517
500 527
500 528
500 532
500 552
500 553
501 450
501 458
501 468
501 476
501 483
501 484
501 495
501 511
501 512
501 514
501 519
501 526
501 534
501 545
502 455
502 477
502 487
502 489
502 490
502 504
502 509
502 521
502 529
502 530
502 536
503 451
503 461
503 462
503 470
503 480
503 482
503 485
503 487
503 504
503 507
503 525
503 535
503 538
503 546
504 461
504 462
504 470
504 485
504 487
504 489
504 502
504 503
504 525
504 529
504 536
504 538
504 546
505 459
505 463
505 475
505 488
505 498
505 506
505 513
505 531
505 537
505 543
505 550
506 463
506 475
506 488
506 498
506 505
506 513
506 518
506 531
506 537
506 542
506 550
506 556
507 454
507 468
507 470
507 480
507 482
507 495
507 503
507 512
507 519
507 525
507 535
507 545
507 557
508 466
508 472
508 478
508 491
508 494
508 496
508 510
508 516
508 523
508 539
508 547
509 464
509 477
509 490
509 491
509 502
509 521
509 523
509 530
509 549
509 554
509 563
510 465
510 466
510 472
510 494
510 496
510 500
510 508
510 516
510 527
510 528
510 539
510 547
510 552
510 555
511 476
511 483
511 484
511 501
511 512
511 514
511 519
511 526
511 534
511 544
511 545
511 561
512 468
512 476
512 482
512 495
512 501
512 507
512 511
512 519
512 534
512 545
513 459
513 475
513 488
513 505
513 506
513 531
513 537
513 543
513 550
514 483
514 484
514 499
514 501
514 511
514 526
514 533
514 544
514 559
514 565
515 479
515 481
515 492
515 497
515 499
515 520
515 522
515 533
515 540
515 541
515 551
516 466
516 472
516 478
516 494
516 496
516 508
516 510
516 527
516 539
516 547
516 555
516 568
517 473
517 486
517 493
517 500
517 518
517 524
517 527
517 528
517 532
517 548
517 553
517 558
518 469
518 473
518 486
518 498
518 506
518 517
518 524
518 532
518 537
518 542
518 548
518 556
519 468
519 476
519 484
519 495
519 501
519 507
519 511
519 512
519 526
519 534
519 545
519 562
520 471
520 479
520 492
520 497
520 515
520 522
520 540
520 541
520 551
520 571
521 477
521 489
521 490
521 491
521 502
521 509
521 523
521 529
521 530
521 549
521 560
521 570
522 479
522 481
522 497
522 499
522 515
522 520
522 533
522 540
522 541
522 551
522 559
522 566
523 478
523 490
523 491
523 508
523 509
523 521
523 539
523 549
523 554
523 563
524 469
524 473
524 486
524 493
524 498
524 517
524 518
524 532
524 542
524 548
524 558
525 470
525 480
525 485
525 487
525 503
525 504
525 507
525 535
525 536
525 538
525 546
525 557
525 567
525 569
526 483
526 484
526 501
526 511
526 514
526 519
526 534
526 544
526 545
526 561
526 562
526 565
527 474
527 493
527 496
527 500
527 510
527 516
527 517
527 528
527 547
527 552
527 553
527 555
528 474
528 493
528 496
528 500
528 510
528 517
528 527
528 532
528 552
528 553
528 555
528 558
529 477
529 487
529 489
529 502
529 504
529 521
529 530
529 536
529 538
529 549
529 560
529 564
529 570
530 477
530 489
530 490
530 502
530 509
530 521
530 529
530 536
530 549
530 560
530 564
530 570
531 475
531 488
531 505
531 506
531 513
531 537
531 543
531 550
531 556
532 486
532 493
532 500
532 517
532 518
532 524
532 528
532 542
532 548
532 553
532 558
532 575
533 481
533 499
533 514
533 515
533 522
533 540
533 544
533 551
533 559
533 566
534 476
534 484
534 495
534 501
534 511
534 512
534 519
534 526
534 544
534 545
534 561
534 562
534 573
535 480
535 503
535 507
535 525
535 538
535 546
535 557
535 567
535 569
535 577
536 487
536 489
536 502
536 504
536 525
536 529
536 530
536 538
536 546
536 560
536 564
536 569
536 570
536 585
537 498
537 505
537 506
537 513
537 518
537 531
537 542
537 543
537 550
537 556
537 578
538 485
538 487
538 503
538 504
538 525
538 529
538 535
538 536
538 546
538 564
538 567
538 569
539 494
539 508
539 510
539 516
539 523
539 547
539 554
539 555
539 568
539 574
540 497
540 515
540 520
540 522
540 533
540 541
540 551
540 559
540 566
540 571
540 589
541 492
541 497
541 515
541 520
541 522
541 540
541 551
541 571
541 593
542 498
542 506
542 518
542 524
542 532
542 537
542 548
542 556
542 558
542 572
542 578
542 583
542 584
543 505
543 513
543 531
543 537
543 550
543 590
544 511
544 514
544 526
544 533
544 534
544 559
544 561
544 562
544 565
544 581
545 495
545 501
545 507
545 511
545 512
545 519
545 526
545 534
545 557
545 561
545 562
545 573
545 579
545 592
546 503
546 504
546 525
546 535
546 536
546 538
546 557
546 567
546 569
546 577
546 594
547 494
547 496
547 508
547 510
547 516
547 527
547 539
547 552
547 555
547 568
547 574
547 580
548 517
548 518
548 524
548 532
548 542
548 556
548 558
548 572
548 575
548 583
548 584
549 509
549 521
549 523
549 529
549 530
549 554
549 560
549 563
549 570
549 576
549 597
550 505
550 506
550 513
550 531
550 537
550 543
550 556
550 578
550 586
550 590
551 515
551 520
551 522
551 533
551 540
551 541
551 559
551 566
551 571
551 581
551 589
551 591
551 593
552 500
552 510
552 527
552 528
552 547
552 553
552 555
552 558
552 574
552 580
552 582
552 587
553 500
553 517
553 527
553 528
553 532
553 552
553 555
553 558
553 575
553 580
553 582
553 587
554 509
554 523
554 539
554 549
554 563
554 568
554 576
555 510
555 516
555 527
555 528
555 539
555 547
555 552
555 553
555 568
555 574
555 580
555 582
555 600
556 506
556 518
556 531
556 537
556 542
556 548
556 550
556 572
556 578
556 583
556 584
557 507
557 525
557 535
557 545
557 546
557 567
557 573
557 577
557 579
557 594
558 517
558 524
558 528
558 532
558 542
558 548
558 552
558 553
558 572
558 575
558 583
558 587
559 514
559 522
559 533
559 540
559 544
559 551
559 565
559 566
559 581
559 591
560 521
560 529
560 530
560 536
560 549
560 563
560 564
560 570
560 576
560 585
560 597
560 598
561 511
561 526
561 534
561 544
561 545
561 562
561 565
561 573
561 581
561 588
561 592
561 595
562 519
562 526
562 534
562 544
562 545
562 561
562 565
562 573
562 579
562 588
562 592
562 595
562 599
563 509
563 523
563 549
563 554
563 560
563 570
563 576
563 597
564 529
564 530
564 536
564 538
564 560
564 569
564 570
564 585
564 596
564 598
564 602
565 514
565 526
565 544
565 559
565 561
565 562
565 581
565 588
565 595
566 522
566 533
566 540
566 551
566 559
566 571
566 581
566 589
566 591
566 593
567 525
567 535
567 538
567 546
567 557
567 569
567 577
567 579
567 594
567 596
567 601
567 609
568 516
568 539
568 547
568 554
568 555
568 574
568 580
568 600
568 603
569 525
569 535
569 536
569 538
569 546
569 564
569 567
569 577
569 585
569 594
569 596
570 521
570 529
570 530
570 536
570 549
570 560
570 563
570 564
570 576
570 585
570 597
570 598
570 602
571 520
571 540
571 541
571 551
571 566
571 589
571 593
572 542
572 548
572 556
572 558
572 575
572 578
572 583
572 584
572 604
572 607
573 534
573 545
573 557
573 561
573 562
573 577
573 579
573 588
573 592
573 599
573 601
573 606
574 539
574 547
574 552
574 555
574 568
574 580
574 582
574 600
574 603
575 532
575 548
575 553
575 558
575 572
575 583
575 587
575 605
575 607
576 549
576 554
576 560
576 563
576 570
576 597
576 598
577 535
577 546
577 557
577 567
577 569
577 573
577 579
577 594
577 599
577 601
577 606
577 609
578 537
578 542
578 550
578 556
578 572
578 583
578 584
578 586
578 604
579 545
579 557
579 562
579 567
579 573
579 577
579 592
579 599
579 601
579 606
580 547
580 552
580 553
580 555
580 568
580 574
580 582
580 587
580 600
580 603
581 544
581 551
581 559
581 561
581 565
581 566
581 591
581 595
582 552
582 553
582 555
582 574
582 580
582 587
582 600
583 542
583 548
583 556
583 558
583 572
583 575
583 578
583 584
583 604
583 605
583 607
584 542
584 548
584 556
584 572
584 578
584 583
584 586
584 604
585 536
585 560
585 564
585 569
585 570
585 596
585 598
585 602
586 550
586 578
586 584
586 590
586 604
586 608
587 552
587 553
587 558
587 575
587 580
587 582
587 605
588 561
588 562
588 565
588 573
588 592
588 595
588 599
589 540
589 551
589 566
589 571
589 591
589 593
590 543
590 550
590 586
590 608
591 551
591 559
591 566
591 581
591 589
591 593
592 545
592 561
592 562
592 573
592 579
592 588
592 595
592 599
592 606
593 541
593 551
593 566
593 571
593 589
593 591
594 546
594 557
594 567
594 569
594 577
594 596
594 601
594 609
595 561
595 562
595 565
595 581
595 588
595 592
596 564
596 567
596 569
596 585
596 594
596 602
596 609
597 549
597 560
597 563
597 570
597 576
597 598
598 560
598 564
598 570
598 576
598 585
598 597
598 602
599 562
599 573
599 577
599 579
599 588
599 592
599 601
599 606
600 555
600 568
600 574
600 580
600 582
600 603
601 567
601 573
601 577
601 579
601 594
601 599
601 606
601 609
602 564
602 570
602 585
602 596
602 598
603 568
603 574
603 580
603 600
604 572
604 578
604 583
604 584
604 586
604 607
604 608
605 575
605 583
605 587
605 607
606 573
606 577
606 579
606 592
606 599
606 601
606 609
607 572
607 575
607 583
607 604
607 605
608 586
608 590
608 604
609 567
609 577
609 594
609 596
609 601
609 606
