1 26
1 30
1 51
2 13
2 16
2 23
2 36
2 56
3 25
3 40
4 7
4 13
4 15
4 21
4 28
4 37
4 45
5 12
5 18
5 27
5 42
5 43
5 57
6 9
6 11
6 46
6 49
6 59
7 4
7 13
7 15
7 23
7 28
7 37
7 61
8 17
8 21
8 29
8 32
8 38
8 44
9 6
9 25
9 41
9 46
9 49
9 59
10 14
10 27
10 34
10 52
11 6
11 20
11 39
11 46
11 50
11 60
12 5
12 17
12 18
12 27
12 29
12 42
12 43
13 2
13 4
13 7
13 23
13 28
13 37
13 56
13 58
14 10
14 30
14 33
14 34
14 52
14 55
14 64
15 4
15 7
15 21
15 28
15 44
15 45
15 53
15 65
16 2
16 22
16 24
16 35
16 36
16 47
16 67
16 71
17 8
17 12
17 18
17 29
17 32
17 38
17 42
17 73
17 77
18 5
18 12
18 17
18 27
18 29
18 42
18 43
18 57
18 72
18 78
19 22
19 24
19 31
19 47
19 48
19 54
19 63
20 11
20 26
20 39
20 50
20 60
20 62
20 80
21 4
21 8
21 15
21 32
21 44
21 45
21 53
21 65
21 76
22 16
22 19
22 24
22 35
22 47
22 48
22 63
22 67
22 83
23 2
23 7
23 13
23 36
23 37
23 56
23 58
23 71
23 81
24 16
24 19
24 22
24 35
24 47
24 48
24 54
24 63
24 83
25 3
25 9
25 40
25 41
25 49
25 66
25 68
25 79
26 1
26 20
26 39
26 50
26 51
26 62
27 5
27 10
27 12
27 18
27 34
27 43
27 52
27 57
27 69
28 4
28 7
28 13
28 15
28 37
28 45
28 61
28 65
28 74
29 8
29 12
29 17
29 18
29 32
29 38
29 42
29 43
29 72
29 73
29 77
30 1
30 14
30 33
30 51
30 55
30 82
30 84
31 19
31 48
31 54
31 85
32 8
32 17
32 21
32 29
32 38
32 44
32 53
32 70
32 73
32 76
32 77
33 14
33 30
33 52
33 55
33 64
33 84
34 10
34 14
34 27
34 43
34 52
34 57
34 69
34 75
35 16
35 22
35 24
35 36
35 47
35 67
35 71
35 83
36 2
36 16
36 23
36 35
36 56
36 58
36 67
36 71
36 81
37 4
37 7
37 13
37 23
37 28
37 45
37 56
37 58
37 61
37 74
37 99
38 8
38 17
38 29
38 32
38 42
38 44
38 70
38 72
38 73
38 76
38 77
39 11
39 20
39 26
39 46
39 50
39 60
39 62
39 80
39 89
40 3
40 25
40 41
40 66
40 68
40 79
40 91
40 95
41 9
41 25
41 40
41 46
41 49
41 59
41 66
41 79
41 92
42 5
42 12
42 17
42 18
42 29
42 38
42 43
42 57
42 72
42 77
42 78
43 5
43 12
43 18
43 27
43 29
43 34
43 42
43 57
43 69
43 72
43 78
43 87
43 90
44 8
44 15
44 21
44 32
44 38
44 45
44 53
44 65
44 70
44 73
44 76
44 86
45 4
45 15
45 21
45 28
45 37
45 44
45 53
45 61
45 65
45 76
45 86
45 98
46 6
46 9
46 11
46 39
46 41
46 49
46 59
46 60
46 89
46 92
46 94
47 16
47 19
47 22
47 24
47 35
47 48
47 63
47 67
47 83
47 93
48 19
48 22
48 24
48 31
48 47
48 54
48 63
48 83
48 85
48 93
49 6
49 9
49 25
49 41
49 46
49 59
49 60
49 66
49 79
49 92
49 94
49 108
50 11
50 20
50 26
50 39
50 60
50 62
50 80
50 96
51 1
51 26
51 30
51 55
51 62
51 82
51 84
51 96
51 97
52 10
52 14
52 27
52 33
52 34
52 57
52 64
52 69
52 75
52 101
53 15
53 21
53 32
53 44
53 45
53 65
53 70
53 76
53 86
53 98
54 19
54 24
54 31
54 48
54 63
54 85
54 93
54 109
55 14
55 30
55 33
55 51
55 64
55 82
55 84
55 103
55 106
56 2
56 13
56 23
56 36
56 37
56 58
56 71
56 74
56 81
56 88
56 100
56 113
57 5
57 18
57 27
57 34
57 42
57 43
57 52
57 69
57 75
57 78
57 87
57 90
58 13
58 23
58 36
58 37
58 56
58 61
58 71
58 74
58 81
58 88
58 105
59 6
59 9
59 41
59 46
59 49
59 60
59 79
59 89
59 92
59 94
59 108
60 11
60 20
60 39
60 46
60 49
60 50
60 59
60 80
60 89
60 94
60 120
61 7
61 28
61 37
61 45
61 58
61 65
61 74
61 86
61 98
61 99
61 102
61 105
62 20
62 26
62 39
62 50
62 51
62 80
62 82
62 96
62 97
62 125
63 19
63 22
63 24
63 47
63 48
63 54
63 67
63 83
63 85
63 93
63 109
63 112
63 116
64 14
64 33
64 52
64 55
64 75
64 84
64 101
64 103
65 15
65 21
65 28
65 44
65 45
65 53
65 61
65 76
65 86
65 98
65 99
65 102
65 117
65 126
66 25
66 40
66 41
66 49
66 68
66 79
66 91
66 92
66 95
66 111
66 118
67 16
67 22
67 35
67 36
67 47
67 63
67 71
67 83
67 100
67 112
68 25
68 40
68 66
68 91
68 95
68 118
69 27
69 34
69 43
69 52
69 57
69 75
69 87
69 90
69 101
69 114
69 123
69 124
70 32
70 38
70 44
70 53
70 73
70 76
70 77
70 86
70 110
70 115
70 121
70 132
71 16
71 23
71 35
71 36
71 56
71 58
71 67
71 81
71 88
71 100
71 113
71 131
72 18
72 29
72 38
72 42
72 43
72 73
72 77
72 78
72 87
72 104
72 107
72 115
73 17
73 29
73 32
73 38
73 44
73 70
73 72
73 76
73 77
73 104
73 110
73 115
73 132
74 28
74 37
74 56
74 58
74 61
74 81
74 88
74 99
74 102
74 105
74 119
74 127
74 133
74 135
75 34
75 52
75 57
75 64
75 69
75 90
75 101
75 114
75 129
76 21
76 32
76 38
76 44
76 45
76 53
76 65
76 70
76 73
76 86
76 98
76 110
76 117
76 121
76 132
77 17
77 29
77 32
77 38
77 42
77 70
77 72
77 73
77 78
77 104
77 107
77 110
77 115
78 18
78 42
78 43
78 57
78 72
78 77
78 87
78 90
78 104
78 107
78 123
78 137
79 25
79 40
79 41
79 49
79 59
79 66
79 92
79 94
79 95
79 108
79 111
79 118
79 144
80 20
80 39
80 50
80 60
80 62
80 89
80 96
80 97
80 120
80 122
80 125
81 23
81 36
81 56
81 58
81 71
81 74
81 88
81 100
81 105
81 113
81 119
82 30
82 51
82 55
82 62
82 84
82 96
82 97
82 103
82 106
82 128
82 138
83 22
83 24
83 35
83 47
83 48
83 63
83 67
83 85
83 93
83 112
83 116
83 141
84 30
84 33
84 51
84 55
84 64
84 82
84 97
84 103
84 106
84 128
84 138
84 140
85 31
85 48
85 54
85 63
85 83
85 93
85 109
85 116
85 134
85 136
86 44
86 45
86 53
86 61
86 65
86 70
86 76
86 98
86 102
86 110
86 117
86 121
86 126
86 148
87 43
87 57
87 69
87 72
87 78
87 90
87 107
87 114
87 123
87 124
87 137
87 147
88 56
88 58
88 71
88 74
88 81
88 99
88 100
88 105
88 113
88 119
88 133
89 39
89 46
89 59
89 60
89 80
89 92
89 94
89 108
89 120
89 122
89 139
89 151
90 43
90 57
90 69
90 75
90 78
90 87
90 101
90 114
90 123
90 124
90 129
90 147
91 40
91 66
91 68
91 95
91 118
91 143
92 41
92 46
92 49
92 59
92 66
92 79
92 89
92 94
92 95
92 108
92 111
92 120
92 139
92 144
93 47
93 48
93 54
93 63
93 83
93 85
93 109
93 112
93 116
93 134
93 136
94 46
94 49
94 59
94 60
94 79
94 89
94 92
94 108
94 111
94 120
94 122
94 139
94 151
95 40
95 66
95 68
95 79
95 91
95 92
95 111
95 118
95 143
95 144
95 145
96 50
96 51
96 62
96 80
96 82
96 97
96 122
96 125
96 128
96 142
96 146
97 51
97 62
97 80
97 82
97 84
97 96
97 106
97 125
97 128
97 138
97 142
98 45
98 53
98 61
98 65
98 76
98 86
98 99
98 102
98 117
98 121
98 126
98 127
98 135
98 148
98 158
99 37
99 61
99 65
99 74
99 88
99 98
99 102
99 105
99 119
99 126
99 127
99 133
99 135
100 56
100 67
100 71
100 81
100 88
100 112
100 113
100 119
100 131
100 152
101 52
101 64
101 69
101 75
101 90
101 103
101 114
101 124
101 129
101 130
101 155
102 61
102 65
102 74
102 86
102 98
102 99
102 105
102 117
102 126
102 127
102 133
102 135
102 158
103 55
103 64
103 82
103 84
103 101
103 106
103 130
103 138
103 140
104 72
104 73
104 77
104 78
104 107
104 110
104 115
104 137
104 149
104 150
105 58
105 61
105 74
105 81
105 88
105 99
105 102
105 113
105 119
105 127
105 133
105 135
105 156
106 55
106 82
106 84
106 97
106 103
106 128
106 138
106 140
106 142
106 163
107 72
107 77
107 78
107 87
107 104
107 115
107 123
107 137
107 149
107 153
108 49
108 59
108 79
108 89
108 92
108 94
108 111
108 120
108 139
108 144
108 145
108 151
108 157
108 168
109 54
109 63
109 85
109 93
109 116
109 134
109 136
109 167
110 70
110 73
110 76
110 77
110 86
110 104
110 115
110 117
110 121
110 132
110 148
110 150
110 159
110 172
111 66
111 79
111 92
111 94
111 95
111 108
111 118
111 139
111 143
111 144
111 145
111 157
111 165
112 63
112 67
112 83
112 93
112 100
112 116
112 131
112 141
112 154
112 162
112 170
113 56
113 71
113 81
113 88
113 100
113 105
113 119
113 131
113 133
113 152
113 161
114 69
114 75
114 87
114 90
114 101
114 123
114 124
114 129
114 130
114 147
114 155
114 171
115 70
115 72
115 73
115 77
115 104
115 107
115 110
115 121
115 132
115 149
115 150
115 159
115 160
115 172
116 63
116 83
116 85
116 93
116 109
116 112
116 134
116 141
116 154
116 167
116 170
116 176
117 65
117 76
117 86
117 98
117 102
117 110
117 121
117 126
117 127
117 132
117 148
117 158
117 166
117 174
118 66
118 68
118 79
118 91
118 95
118 111
118 143
118 144
118 145
118 165
118 175
119 74
119 81
119 88
119 99
119 100
119 105
119 113
119 131
119 133
119 135
119 152
119 156
119 161
120 60
120 80
120 89
120 92
120 94
120 108
120 122
120 139
120 146
120 151
120 168
120 173
121 70
121 76
121 86
121 98
121 110
121 115
121 117
121 126
121 132
121 148
121 150
121 159
121 166
121 174
122 80
122 89
122 94
122 96
122 120
122 125
122 139
122 146
122 151
122 173
123 69
123 78
123 87
123 90
123 107
123 114
123 124
123 137
123 147
123 153
123 171
124 69
124 87
124 90
124 101
124 114
124 123
124 129
124 147
124 153
124 155
124 171
125 62
125 80
125 96
125 97
125 122
125 128
125 142
125 146
125 178
126 65
126 86
126 98
126 99
126 102
126 117
126 121
126 127
126 135
126 148
126 158
126 166
126 174
127 74
127 98
127 99
127 102
127 105
127 117
127 126
127 133
127 135
127 156
127 158
127 166
127 177
128 82
128 84
128 96
128 97
128 106
128 125
128 138
128 140
128 142
128 163
128 169
128 179
129 75
129 90
129 101
129 114
129 124
129 130
129 155
129 164
129 171
130 101
130 103
130 114
130 129
130 138
130 140
130 155
130 164
130 169
131 71
131 100
131 112
131 113
131 119
131 141
131 152
131 161
131 162
131 170
131 183
132 70
132 73
132 76
132 110
132 115
132 117
132 121
132 148
132 150
132 159
132 160
132 172
132 174
133 74
133 88
133 99
133 102
133 105
133 113
133 119
133 127
133 135
133 152
133 156
133 161
133 177
134 85
134 93
134 109
134 116
134 136
134 154
134 167
134 176
134 187
135 74
135 98
135 99
135 102
135 105
135 119
135 126
135 127
135 133
135 156
135 158
135 177
136 85
136 93
136 109
136 134
136 167
136 187
137 78
137 87
137 104
137 107
137 123
137 147
137 149
137 153
137 160
137 181
138 82
138 84
138 97
138 103
138 106
138 128
138 130
138 140
138 142
138 163
138 169
138 179
138 191
139 89
139 92
139 94
139 108
139 111
139 120
139 122
139 144
139 145
139 151
139 157
139 165
139 168
139 180
140 84
140 103
140 106
140 128
140 130
140 138
140 163
140 164
140 169
140 191
141 83
141 112
141 116
141 131
141 154
141 162
141 170
141 176
141 183
142 96
142 97
142 106
142 125
142 128
142 138
142 146
142 163
142 178
142 179
142 185
143 91
143 95
143 111
143 118
143 144
143 145
143 165
143 175
143 184
143 188
144 79
144 92
144 95
144 108
144 111
144 118
144 139
144 143
144 145
144 157
144 165
144 168
144 184
144 189
145 95
145 108
145 111
145 118
145 139
145 143
145 144
145 157
145 165
145 168
145 175
145 184
145 188
145 189
146 96
146 120
146 122
146 125
146 142
146 151
146 173
146 178
147 87
147 90
147 114
147 123
147 124
147 137
147 153
147 155
147 171
147 181
147 186
148 86
148 98
148 110
148 117
148 121
148 126
148 132
148 150
148 158
148 159
148 166
148 172
148 174
148 199
149 104
149 107
149 115
149 137
149 150
149 153
149 160
149 172
149 181
149 195
150 104
150 110
150 115
150 121
150 132
150 148
150 149
150 159
150 160
150 172
150 193
150 198
151 89
151 94
151 108
151 120
151 122
151 139
151 146
151 157
151 168
151 173
151 180
151 192
152 100
152 113
152 119
152 131
152 133
152 156
152 161
152 162
152 182
152 183
152 190
152 196
153 107
153 123
153 124
153 137
153 147
153 149
153 181
153 195
154 112
154 116
154 134
154 141
154 162
154 167
154 170
154 176
154 187
155 101
155 114
155 124
155 129
155 130
155 147
155 164
155 171
155 186
155 197
156 105
156 119
156 127
156 133
156 135
156 152
156 158
156 161
156 177
156 182
156 194
156 196
157 108
157 111
157 139
157 144
157 145
157 151
157 165
157 168
157 180
157 184
157 189
157 201
157 202
158 98
158 102
158 117
158 126
158 127
158 135
158 148
158 156
158 166
158 174
158 177
158 199
158 212
159 110
159 115
159 121
159 132
159 148
159 150
159 160
159 166
159 172
159 174
159 193
159 198
159 199
160 115
160 132
160 137
160 149
160 150
160 159
160 172
160 193
160 195
160 198
161 113
161 119
161 131
161 133
161 152
161 156
161 162
161 182
161 183
161 190
161 194
161 196
161 209
162 112
162 131
162 141
162 152
162 154
162 161
162 170
162 182
162 183
162 190
163 106
163 128
163 138
163 140
163 142
163 169
163 179
163 185
163 191
163 200
164 129
164 130
164 140
164 155
164 169
164 171
164 191
164 197
164 200
164 204
165 111
165 118
165 139
165 143
165 144
165 145
165 157
165 168
165 175
165 184
165 188
165 189
165 201
165 202
166 117
166 121
166 126
166 127
166 148
166 158
166 159
166 174
166 177
166 199
166 212
167 109
167 116
167 134
167 136
167 154
167 176
167 187
167 211
168 108
168 120
168 139
168 144
168 145
168 151
168 157
168 165
168 180
168 184
168 189
168 192
168 201
168 207
169 128
169 130
169 138
169 140
169 163
169 164
169 179
169 191
169 200
169 204
170 112
170 116
170 131
170 141
170 154
170 162
170 176
170 183
170 190
170 210
170 215
171 114
171 123
171 124
171 129
171 147
171 155
171 164
171 181
171 186
171 197
171 205
172 110
172 115
172 132
172 148
172 149
172 150
172 159
172 160
172 174
172 193
172 198
173 120
173 122
173 146
173 151
173 178
173 180
173 192
173 203
173 206
174 117
174 121
174 126
174 132
174 148
174 158
174 159
174 166
174 172
174 198
174 199
174 212
175 118
175 143
175 145
175 165
175 184
175 188
175 202
175 213
176 116
176 134
176 141
176 154
176 167
176 170
176 183
176 187
176 210
176 217
176 226
177 127
177 133
177 135
177 156
177 158
177 166
177 194
177 212
177 224
178 125
178 142
178 146
178 173
178 179
178 185
178 192
178 203
178 206
178 214
178 230
179 128
179 138
179 142
179 163
179 169
179 178
179 185
179 191
179 214
179 218
179 220
180 139
180 151
180 157
180 168
180 173
180 189
180 192
180 201
180 206
180 207
180 223
180 235
181 137
181 147
181 149
181 153
181 171
181 186
181 195
181 205
181 219
182 152
182 156
182 161
182 162
182 183
182 190
182 194
182 196
182 209
183 131
183 141
183 152
183 161
183 162
183 170
183 176
183 182
183 190
183 209
183 215
184 143
184 144
184 145
184 157
184 165
184 168
184 175
184 188
184 189
184 201
184 202
184 213
184 216
185 142
185 163
185 178
185 179
185 191
185 203
185 214
185 218
185 230
186 147
186 155
186 171
186 181
186 197
186 205
186 233
187 134
187 136
187 154
187 167
187 176
187 208
187 210
187 211
187 217
188 143
188 145
188 165
188 175
188 184
188 189
188 202
188 213
188 216
188 238
189 144
189 145
189 157
189 165
189 168
189 180
189 184
189 188
189 201
189 202
189 207
189 213
189 216
189 223
190 152
190 161
190 162
190 170
190 182
190 183
190 196
190 209
190 215
190 236
190 237
191 138
191 140
191 163
191 164
191 169
191 179
191 185
191 200
191 204
191 218
191 220
192 151
192 168
192 173
192 178
192 180
192 201
192 203
192 206
192 207
192 235
192 239
192 241
193 150
193 159
193 160
193 172
193 195
193 198
193 221
193 222
193 228
193 247
194 156
194 161
194 177
194 182
194 196
194 209
194 225
194 234
195 149
195 153
195 160
195 181
195 193
195 219
195 221
195 222
195 227
196 152
196 156
196 161
196 182
196 190
196 194
196 209
196 225
196 234
196 236
197 155
197 164
197 171
197 186
197 204
197 205
197 232
197 245
198 150
198 159
198 160
198 172
198 174
198 193
198 199
198 221
198 222
198 228
198 231
198 247
199 148
199 158
199 159
199 166
199 174
199 198
199 212
199 224
199 228
199 229
199 231
199 240
200 163
200 164
200 169
200 191
200 204
200 220
200 232
200 251
201 157
201 165
201 168
201 180
201 184
201 189
201 192
201 202
201 207
201 216
201 223
201 235
202 157
202 165
202 175
202 184
202 188
202 189
202 201
202 213
202 216
202 223
202 243
202 253
203 173
203 178
203 185
203 192
203 206
203 214
203 218
203 230
203 239
203 244
203 257
204 164
204 169
204 191
204 197
204 200
204 232
204 251
205 171
205 181
205 186
205 197
205 219
205 233
205 245
206 173
206 178
206 180
206 192
206 203
206 207
206 230
206 239
206 241
206 244
207 168
207 180
207 189
207 192
207 201
207 206
207 223
207 235
207 239
207 241
207 261
208 187
208 211
208 217
208 242
208 249
209 161
209 182
209 183
209 190
209 194
209 196
209 215
209 225
209 236
209 237
210 170
210 176
210 187
210 211
210 215
210 217
210 226
210 237
210 246
210 248
211 167
211 187
211 208
211 210
211 217
211 242
211 246
211 249
212 158
212 166
212 174
212 177
212 199
212 224
212 229
212 231
212 240
212 258
212 260
213 175
213 184
213 188
213 189
213 202
213 216
213 238
213 243
213 253
214 178
214 179
214 185
214 203
214 218
214 220
214 230
214 244
214 250
214 256
214 257
215 170
215 183
215 190
215 209
215 210
215 226
215 236
215 237
215 248
215 265
216 184
216 188
216 189
216 201
216 202
216 213
216 223
216 238
216 243
216 253
216 255
217 176
217 187
217 208
217 210
217 211
217 226
217 242
217 246
217 248
217 249
218 179
218 185
218 191
218 203
218 214
218 220
218 230
218 250
218 251
218 256
218 267
219 181
219 195
219 205
219 227
219 233
219 254
219 262
220 179
220 191
220 200
220 214
220 218
220 250
220 251
220 267
221 193
221 195
221 198
221 222
221 227
221 228
221 247
221 252
221 254
221 268
221 278
222 193
222 195
222 198
222 221
222 227
222 228
222 231
222 247
222 252
222 254
222 268
222 278
223 180
223 189
223 201
223 202
223 207
223 216
223 235
223 241
223 243
223 255
223 261
224 177
224 199
224 212
224 229
224 234
224 240
224 258
224 259
224 260
224 269
224 284
225 194
225 196
225 209
225 234
225 236
225 259
225 263
226 176
226 210
226 215
226 217
226 237
226 246
226 248
226 265
226 270
227 195
227 219
227 221
227 222
227 233
227 252
227 254
227 262
228 193
228 198
228 199
228 221
228 222
228 229
228 231
228 247
228 252
228 260
228 268
228 279
229 199
229 212
229 224
229 228
229 231
229 240
229 258
229 260
229 269
230 178
230 185
230 203
230 206
230 214
230 218
230 239
230 244
230 256
230 257
230 273
230 289
231 198
231 199
231 212
231 222
231 228
231 229
231 240
231 247
231 260
231 269
231 279
232 197
232 200
232 204
232 245
232 251
232 264
232 266
233 186
233 205
233 219
233 227
233 245
233 262
233 277
233 282
234 194
234 196
234 224
234 225
234 240
234 258
234 259
234 263
234 285
235 180
235 192
235 201
235 207
235 223
235 239
235 241
235 255
235 261
235 274
236 190
236 196
236 209
236 215
236 225
236 237
236 263
236 265
236 272
237 190
237 209
237 210
237 215
237 226
237 236
237 248
237 265
237 270
237 272
237 286
237 294
238 188
238 213
238 216
238 243
238 253
238 275
238 281
239 192
239 203
239 206
239 207
239 230
239 235
239 241
239 244
239 257
239 261
239 273
239 274
240 199
240 212
240 224
240 229
240 231
240 234
240 258
240 260
240 269
240 284
240 291
241 192
241 206
241 207
241 223
241 235
241 239
241 244
241 261
241 273
241 274
242 208
242 211
242 217
242 249
242 271
242 290
242 300
243 202
243 213
243 216
243 223
243 238
243 253
243 255
243 275
243 281
243 287
244 203
244 206
244 214
244 230
244 239
244 241
244 256
244 257
244 273
244 289
245 197
245 205
245 232
245 233
245 264
245 266
245 277
246 210
246 211
246 217
246 226
246 248
246 249
246 270
246 271
246 280
247 193
247 198
247 221
247 222
247 228
247 231
247 252
247 254
247 260
247 268
247 278
247 279
247 295
247 298
248 210
248 215
248 217
248 226
248 237
248 246
248 265
248 270
248 280
248 286
248 305
249 208
249 211
249 217
249 242
249 246
249 271
249 280
249 290
249 300
250 214
250 218
250 220
250 251
250 256
250 267
250 276
250 283
251 200
251 204
251 218
251 220
251 232
251 250
251 266
251 267
251 276
251 283
251 302
252 221
252 222
252 227
252 228
252 247
252 254
252 262
252 268
252 278
252 279
252 292
252 295
252 298
253 202
253 213
253 216
253 238
253 243
253 255
253 275
253 281
253 287
254 219
254 221
254 222
254 227
254 247
254 252
254 262
254 268
254 278
254 282
254 292
254 295
254 297
254 298
255 216
255 223
255 235
255 243
255 253
255 261
255 274
255 281
255 287
256 214
256 218
256 230
256 244
256 250
256 257
256 267
256 283
256 288
256 289
257 203
257 214
257 230
257 239
257 244
257 256
257 267
257 273
257 288
257 289
258 212
258 224
258 229
258 234
258 240
258 259
258 260
258 269
258 284
258 285
258 291
258 311
259 224
259 225
259 234
259 258
259 263
259 284
259 285
259 293
260 212
260 224
260 228
260 229
260 231
260 240
260 247
260 258
260 269
260 279
260 284
260 291
260 301
261 207
261 223
261 235
261 239
261 241
261 255
261 273
261 274
261 287
261 303
261 312
262 219
262 227
262 233
262 252
262 254
262 282
262 292
262 297
263 225
263 234
263 236
263 259
263 272
263 285
263 293
263 304
264 232
264 245
264 266
264 277
264 296
264 299
264 307
265 215
265 226
265 236
265 237
265 248
265 270
265 272
265 286
265 294
265 304
265 313
266 232
266 245
266 251
266 264
266 276
266 277
266 296
266 299
266 302
267 218
267 220
267 250
267 251
267 256
267 257
267 276
267 283
267 288
267 289
267 302
267 308
268 221
268 222
268 228
268 247
268 252
268 254
268 278
268 279
268 292
268 295
268 298
268 301
269 224
269 229
269 231
269 240
269 258
269 260
269 284
269 291
269 301
269 311
269 317
270 226
270 237
270 246
270 248
270 265
270 280
270 286
270 294
270 305
270 313
270 318
271 242
271 246
271 249
271 280
271 290
271 300
271 314
272 236
272 237
272 263
272 265
272 286
272 293
272 294
272 304
272 316
272 326
273 230
273 239
273 241
273 244
273 257
273 261
273 274
273 289
273 303
273 306
273 315
274 235
274 239
274 241
274 255
274 261
274 273
274 287
274 303
274 306
274 312
274 324
275 238
275 243
275 253
275 281
275 309
275 310
275 322
276 250
276 251
276 266
276 267
276 283
276 296
276 302
276 308
277 233
277 245
277 264
277 266
277 282
277 296
277 299
277 307
278 221
278 222
278 247
278 252
278 254
278 268
278 279
278 292
278 295
278 297
278 298
278 320
278 325
279 228
279 231
279 247
279 252
279 260
279 268
279 278
279 291
279 295
279 298
279 301
279 323
280 246
280 248
280 249
280 270
280 271
280 290
280 300
280 305
280 314
280 318
280 328
281 238
281 243
281 253
281 255
281 275
281 287
281 309
281 310
281 321
281 322
281 335
282 233
282 254
282 262
282 277
282 292
282 297
282 307
282 327
282 333
283 250
283 251
283 256
283 267
283 276
283 288
283 302
283 308
283 329
284 224
284 240
284 258
284 259
284 260
284 269
284 285
284 291
284 311
284 317
284 319
285 234
285 258
285 259
285 263
285 284
285 293
285 311
285 316
285 319
286 237
286 248
286 265
286 270
286 272
286 294
286 304
286 305
286 313
287 243
287 253
287 255
287 261
287 274
287 281
287 303
287 309
287 312
287 321
287 336
288 256
288 257
288 267
288 283
288 289
288 308
288 315
288 334
289 230
289 244
289 256
289 257
289 267
289 273
289 288
289 306
289 315
289 334
289 340
290 242
290 249
290 271
290 280
290 300
290 314
290 338
291 240
291 258
291 260
291 269
291 279
291 284
291 301
291 311
291 317
291 323
291 332
292 252
292 254
292 262
292 268
292 278
292 282
292 295
292 297
292 298
292 320
292 325
292 327
293 259
293 263
293 272
293 285
293 304
293 311
293 316
293 319
293 326
293 342
294 237
294 265
294 270
294 272
294 286
294 304
294 305
294 313
294 326
294 339
295 247
295 252
295 254
295 268
295 278
295 279
295 292
295 298
295 301
295 320
295 323
295 325
296 264
296 266
296 276
296 277
296 299
296 302
296 307
296 330
296 331
297 254
297 262
297 278
297 282
297 292
297 298
297 320
297 325
297 327
297 333
298 247
298 252
298 254
298 268
298 278
298 279
298 292
298 295
298 297
298 301
298 320
298 325
298 327
299 264
299 266
299 277
299 296
299 307
299 330
299 331
299 337
300 242
300 249
300 271
300 280
300 290
300 314
300 318
300 328
300 338
301 260
301 268
301 269
301 279
301 291
301 295
301 298
301 317
301 323
301 332
301 347
301 353
302 251
302 266
302 267
302 276
302 283
302 296
302 308
302 329
302 331
302 348
303 261
303 273
303 274
303 287
303 306
303 312
303 324
303 336
303 346
304 263
304 265
304 272
304 286
304 293
304 294
304 313
304 316
304 326
304 342
305 248
305 270
305 280
305 286
305 294
305 313
305 314
305 318
305 328
305 339
305 355
306 273
306 274
306 289
306 303
306 315
306 324
306 346
306 349
307 264
307 277
307 282
307 296
307 299
307 330
307 333
307 337
307 341
308 267
308 276
308 283
308 288
308 302
308 329
308 334
308 348
308 352
309 275
309 281
309 287
309 310
309 312
309 321
309 322
309 335
309 345
309 362
310 275
310 281
310 309
310 321
310 322
310 335
310 364
311 258
311 269
311 284
311 285
311 291
311 293
311 317
311 319
311 332
311 343
311 344
312 261
312 274
312 287
312 303
312 309
312 321
312 324
312 335
312 336
312 345
312 358
312 359
313 265
313 270
313 286
313 294
313 304
313 305
313 318
313 326
313 339
313 356
314 271
314 280
314 290
314 300
314 305
314 318
314 328
314 338
314 351
315 273
315 288
315 289
315 306
315 334
315 340
315 349
316 272
316 285
316 293
316 304
316 319
316 326
316 342
316 343
316 357
316 361
317 269
317 284
317 291
317 301
317 311
317 319
317 323
317 332
317 344
318 270
318 280
318 300
318 305
318 313
318 314
318 328
318 338
318 339
318 351
318 355
319 284
319 285
319 293
319 311
319 316
319 317
319 342
319 343
319 344
319 361
320 278
320 292
320 295
320 297
320 298
320 325
320 327
320 333
320 350
320 354
320 365
321 281
321 287
321 309
321 310
321 312
321 322
321 324
321 335
321 336
321 345
321 359
321 362
321 370
322 275
322 281
322 309
322 310
322 321
322 335
322 345
322 362
322 364
323 279
323 291
323 295
323 301
323 317
323 325
323 332
323 347
323 353
324 274
324 303
324 306
324 312
324 321
324 336
324 345
324 346
324 358
324 359
325 278
325 292
325 295
325 297
325 298
325 320
325 323
325 327
325 347
325 350
325 354
326 272
326 293
326 294
326 304
326 313
326 316
326 339
326 342
326 356
326 357
326 366
327 282
327 292
327 297
327 298
327 320
327 325
327 333
327 341
327 350
327 354
327 363
327 365
328 280
328 300
328 305
328 314
328 318
328 338
328 351
328 355
328 369
328 378
329 283
329 302
329 308
329 331
329 334
329 348
329 352
329 360
329 375
330 296
330 299
330 307
330 331
330 337
330 341
330 348
330 367
330 372
331 296
331 299
331 302
331 329
331 330
331 337
331 348
331 360
331 367
331 380
332 291
332 301
332 311
332 317
332 323
332 344
332 347
332 353
332 376
332 379
333 282
333 297
333 307
333 320
333 327
333 337
333 341
333 350
333 363
333 365
333 372
333 382
334 288
334 289
334 308
334 315
334 329
334 340
334 349
334 352
334 371
334 374
335 281
335 309
335 310
335 312
335 321
335 322
335 336
335 345
335 359
335 362
335 364
335 370
335 388
336 287
336 303
336 312
336 321
336 324
336 335
336 345
336 358
336 359
336 362
336 370
336 383
337 299
337 307
337 330
337 331
337 333
337 341
337 363
337 367
337 372
337 382
338 290
338 300
338 314
338 318
338 328
338 351
338 355
338 369
338 387
339 294
339 305
339 313
339 318
339 326
339 355
339 356
339 357
339 366
339 368
339 378
339 390
340 289
340 315
340 334
340 346
340 349
340 371
340 374
341 307
341 327
341 330
341 333
341 337
341 363
341 365
341 367
341 372
341 382
342 293
342 304
342 316
342 319
342 326
342 343
342 357
342 361
342 366
342 377
342 397
343 311
343 316
343 319
343 342
343 344
343 361
343 377
343 399
344 311
344 317
344 319
344 332
344 343
344 361
344 376
344 379
344 393
345 309
345 312
345 321
345 322
345 324
345 335
345 336
345 358
345 359
345 362
345 364
345 370
345 383
345 388
346 303
346 306
346 324
346 340
346 349
346 358
346 371
346 373
346 389
346 398
347 301
347 323
347 325
347 332
347 353
347 354
347 376
347 381
347 392
347 396
348 302
348 308
348 329
348 330
348 331
348 352
348 360
348 375
348 380
348 385
349 306
349 315
349 334
349 340
349 346
349 371
349 373
349 398
350 320
350 325
350 327
350 333
350 354
350 363
350 365
350 386
350 392
350 401
351 314
351 318
351 328
351 338
351 355
351 368
351 369
351 378
351 387
351 400
352 308
352 329
352 334
352 348
352 360
352 374
352 375
352 384
352 385
352 403
353 301
353 323
353 332
353 347
353 354
353 376
353 379
353 381
353 396
353 404
354 320
354 325
354 327
354 347
354 350
354 353
354 365
354 386
354 392
354 396
355 305
355 318
355 328
355 338
355 339
355 351
355 356
355 368
355 378
355 395
355 400
356 313
356 326
356 339
356 355
356 357
356 366
356 368
356 378
356 390
356 391
356 395
357 316
357 326
357 339
357 342
357 356
357 361
357 366
357 377
357 390
357 391
357 397
358 312
358 324
358 336
358 345
358 346
358 359
358 370
358 373
358 383
358 389
358 405
359 312
359 321
359 324
359 335
359 336
359 345
359 358
359 362
359 370
359 383
359 389
359 405
359 406
360 329
360 331
360 348
360 352
360 375
360 380
360 384
360 385
360 403
360 420
361 316
361 319
361 342
361 343
361 344
361 357
361 377
361 397
361 399
361 419
362 309
362 321
362 322
362 335
362 336
362 345
362 359
362 364
362 370
362 383
362 388
362 394
362 406
362 418
363 327
363 333
363 337
363 341
363 350
363 365
363 367
363 372
363 382
363 401
363 411
363 412
364 310
364 322
364 335
364 345
364 362
364 370
364 388
364 394
365 320
365 327
365 333
365 341
365 350
365 354
365 363
365 382
365 386
365 401
365 412
366 326
366 339
366 342
366 356
366 357
366 368
366 377
366 390
366 391
366 397
366 421
367 330
367 331
367 337
367 341
367 363
367 372
367 380
367 382
367 402
367 410
368 339
368 351
368 355
368 356
368 366
368 378
368 390
368 391
368 395
368 400
369 328
369 338
369 351
369 387
369 415
369 417
370 321
370 335
370 336
370 345
370 358
370 359
370 362
370 364
370 383
370 388
370 394
370 405
370 406
370 418
371 334
371 340
371 346
371 349
371 373
371 374
371 384
371 398
371 408
371 409
372 330
372 333
372 337
372 341
372 363
372 367
372 382
372 402
372 410
372 411
372 412
373 346
373 349
373 358
373 371
373 383
373 389
373 398
373 408
373 422
374 334
374 340
374 352
374 371
374 375
374 384
374 408
374 409
374 423
375 329
375 348
375 352
375 360
375 374
375 380
375 384
375 385
375 403
375 409
375 420
375 423
376 332
376 344
376 347
376 353
376 379
376 381
376 393
376 396
376 404
376 414
376 416
377 342
377 343
377 357
377 361
377 366
377 391
377 397
377 399
377 419
377 421
377 434
378 328
378 339
378 351
378 355
378 356
378 368
378 387
378 390
378 395
378 400
378 415
378 417
378 427
379 332
379 344
379 353
379 376
379 381
379 393
379 404
379 407
379 414
379 416
380 331
380 348
380 360
380 367
380 375
380 385
380 402
380 410
380 413
380 420
381 347
381 353
381 376
381 379
381 392
381 396
381 404
381 414
381 416
381 429
382 333
382 337
382 341
382 363
382 365
382 367
382 372
382 401
382 402
382 410
382 411
382 412
383 336
383 345
383 358
383 359
383 362
383 370
383 373
383 388
383 389
383 405
383 406
383 431
383 435
384 352
384 360
384 371
384 374
384 375
384 385
384 403
384 409
384 423
385 348
385 352
385 360
385 375
385 380
385 384
385 403
385 413
385 420
385 423
386 350
386 354
386 365
386 392
386 396
386 401
386 425
386 433
387 338
387 351
387 369
387 378
387 400
387 415
387 417
387 436
387 440
388 335
388 345
388 362
388 364
388 370
388 383
388 394
388 405
388 406
388 418
388 424
388 432
389 346
389 358
389 359
389 373
389 383
389 398
389 405
389 406
389 422
389 431
389 435
389 439
390 339
390 356
390 357
390 366
390 368
390 378
390 391
390 395
390 397
390 400
390 421
390 426
390 430
391 356
391 357
391 366
391 368
391 377
391 390
391 395
391 397
391 421
391 426
391 430
391 445
392 347
392 350
392 354
392 381
392 386
392 396
392 401
392 414
392 425
392 429
393 344
393 376
393 379
393 399
393 404
393 407
393 416
393 428
393 441
393 447
394 362
394 364
394 370
394 388
394 418
394 424
394 432
395 355
395 356
395 368
395 378
395 390
395 391
395 400
395 417
395 426
395 427
395 430
395 448
396 347
396 353
396 354
396 376
396 381
396 386
396 392
396 404
396 414
396 425
396 429
397 342
397 357
397 361
397 366
397 377
397 390
397 391
397 399
397 419
397 421
397 426
397 434
397 445
398 346
398 349
398 371
398 373
398 389
398 408
398 422
398 438
398 439
398 442
399 343
399 361
399 377
399 393
399 397
399 407
399 419
399 428
399 434
399 447
399 451
400 351
400 355
400 368
400 378
400 387
400 390
400 395
400 415
400 417
400 427
400 430
400 436
400 440
400 448
401 350
401 363
401 365
401 382
401 386
401 392
401 411
401 412
401 425
401 433
402 367
402 372
402 380
402 382
402 410
402 411
402 413
402 437
403 352
403 360
403 375
403 384
403 385
403 409
403 420
403 423
403 446
403 454
404 353
404 376
404 379
404 381
404 393
404 396
404 414
404 416
404 429
404 441
404 443
405 358
405 359
405 370
405 383
405 388
405 389
405 406
405 418
405 422
405 431
405 435
405 439
405 456
405 460
406 359
406 362
406 370
406 383
406 388
406 389
406 405
406 418
406 431
406 432
406 435
406 452
406 456
407 379
407 393
407 399
407 416
407 419
407 428
407 441
407 447
407 451
408 371
408 373
408 374
408 398
408 409
408 422
408 438
408 442
408 453
408 459
409 371
409 374
409 375
409 384
409 403
409 408
409 423
409 438
409 446
409 453
409 459
410 367
410 372
410 380
410 382
410 402
410 411
410 412
410 413
410 437
410 444
410 469
411 363
411 372
411 382
411 401
411 402
411 410
411 412
411 433
411 437
411 444
411 462
412 363
412 365
412 372
412 382
412 401
412 410
412 411
412 433
412 444
412 462
412 467
413 380
413 385
413 402
413 410
413 420
413 437
413 450
414 376
414 379
414 381
414 392
414 396
414 404
414 416
414 429
414 441
414 443
414 458
414 464
415 369
415 378
415 387
415 400
415 417
415 427
415 436
415 440
415 465
415 466
416 376
416 379
416 381
416 393
416 404
416 407
416 414
416 441
416 443
416 447
416 472
417 369
417 378
417 387
417 395
417 400
417 415
417 427
417 436
417 440
417 448
417 465
417 466
418 362
418 370
418 388
418 394
418 405
418 406
418 424
418 431
418 432
418 452
418 455
419 361
419 377
419 397
419 399
419 407
419 421
419 428
419 434
419 451
419 471
419 476
420 360
420 375
420 380
420 385
420 403
420 413
420 423
420 446
420 450
420 454
421 366
421 377
421 390
421 391
421 397
421 419
421 426
421 430
421 434
421 445
421 468
422 373
422 389
422 398
422 405
422 408
422 431
422 435
422 438
422 439
422 442
422 460
422 470
422 473
423 374
423 375
423 384
423 385
423 403
423 409
423 420
423 446
423 453
423 454
423 474
424 388
424 394
424 418
424 432
424 452
424 455
425 386
425 392
425 396
425 401
425 429
425 433
425 449
425 457
425 458
425 467
426 390
426 391
426 395
426 397
426 421
426 427
426 430
426 434
426 445
426 461
426 463
426 468
427 378
427 395
427 400
427 415
427 417
427 426
427 430
427 436
427 440
427 448
427 461
427 463
427 465
427 475
428 393
428 399
428 407
428 419
428 434
428 447
428 451
428 471
428 476
428 482
429 381
429 392
429 396
429 404
429 414
429 425
429 443
429 449
429 458
429 464
429 485
430 390
430 391
430 395
430 400
430 421
430 426
430 427
430 445
430 448
430 461
430 463
431 383
431 389
431 405
431 406
431 418
431 422
431 435
431 439
431 452
431 456
431 460
431 479
431 481
432 388
432 394
432 406
432 418
432 424
432 452
432 455
432 480
433 386
433 401
433 411
433 412
433 425
433 444
433 449
433 457
433 462
433 467
434 377
434 397
434 399
434 419
434 421
434 426
434 428
434 445
434 451
434 468
434 471
434 476
435 383
435 389
435 405
435 406
435 422
435 431
435 439
435 456
435 460
435 473
435 481
435 487
436 387
436 400
436 415
436 417
436 427
436 440
436 448
436 465
436 466
437 402
437 410
437 411
437 413
437 444
437 450
437 469
438 398
438 408
438 409
438 422
438 439
438 442
438 446
438 453
438 459
438 470
438 483
439 389
439 398
439 405
439 422
439 431
439 435
439 438
439 442
439 456
439 460
439 470
439 473
439 487
440 387
440 400
440 415
440 417
440 427
440 436
440 448
440 461
440 465
440 466
440 475
441 393
441 404
441 407
441 414
441 416
441 443
441 447
441 464
441 472
441 478
441 488
442 398
442 408
442 422
442 438
442 439
442 453
442 459
442 470
442 473
442 483
442 491
443 404
443 414
443 416
443 429
443 441
443 458
443 464
443 472
443 478
443 488
443 492
444 410
444 411
444 412
444 433
444 437
444 462
444 467
444 469
444 477
445 391
445 397
445 421
445 426
445 430
445 434
445 461
445 463
445 468
446 403
446 409
446 420
446 423
446 438
446 453
446 454
446 459
446 474
446 489
447 393
447 399
447 407
447 416
447 428
447 441
447 451
447 471
447 472
447 482
447 488
447 496
448 395
448 400
448 417
448 427
448 430
448 436
448 440
448 461
448 463
448 465
448 466
448 475
448 486
448 495
449 425
449 429
449 433
449 457
449 458
449 464
449 467
449 485
449 490
449 494
450 413
450 420
450 437
450 454
450 469
450 484
451 399
451 407
451 419
451 428
451 434
451 447
451 471
451 476
451 482
452 406
452 418
452 424
452 431
452 432
452 455
452 456
452 479
452 480
452 481
452 504
453 408
453 409
453 423
453 438
453 442
453 446
453 459
453 470
453 474
453 483
453 489
453 503
454 403
454 420
454 423
454 446
454 450
454 474
454 484
455 418
455 424
455 432
455 452
455 480
456 405
456 406
456 431
456 435
456 439
456 452
456 460
456 473
456 479
456 480
456 481
456 487
456 500
457 425
457 433
457 449
457 458
457 462
457 467
457 490
457 494
457 497
458 414
458 425
458 429
458 443
458 449
458 457
458 464
458 478
458 485
458 492
458 494
459 408
459 409
459 438
459 442
459 446
459 453
459 470
459 474
459 483
459 489
459 491
459 503
460 405
460 422
460 431
460 435
460 439
460 456
460 470
460 473
460 479
460 481
460 487
460 500
461 426
461 427
461 430
461 440
461 445
461 448
461 463
461 465
461 475
461 486
461 495
461 501
462 411
462 412
462 433
462 444
462 457
462 467
462 469
462 477
462 490
462 497
462 498
463 426
463 427
463 430
463 445
463 448
463 461
463 468
463 475
463 486
463 501
463 505
464 414
464 429
464 441
464 443
464 449
464 458
464 472
464 478
464 485
464 488
464 492
465 415
465 417
465 427
465 436
465 440
465 448
465 461
465 466
465 475
465 486
465 495
465 499
465 506
466 415
466 417
466 436
466 440
466 448
466 465
466 475
466 495
466 499
466 506
467 412
467 425
467 433
467 444
467 449
467 457
467 462
467 477
467 490
467 494
467 497
467 498
468 421
468 426
468 434
468 445
468 463
468 471
468 476
468 502
468 505
468 513
469 410
469 437
469 444
469 450
469 462
469 477
469 493
469 509
470 422
470 438
470 439
470 442
470 453
470 459
470 460
470 473
470 483
470 487
470 491
470 503
470 510
470 517
471 419
471 428
471 434
471 447
471 451
471 468
471 476
471 482
471 513
471 516
471 520
472 416
472 441
472 443
472 447
472 464
472 478
472 482
472 488
472 496
472 515
473 422
473 435
473 439
473 442
473 456
473 460
473 470
473 481
473 487
473 491
473 500
473 510
474 423
474 446
474 453
474 454
474 459
474 483
474 484
474 489
474 518
474 519
475 427
475 440
475 448
475 461
475 463
475 465
475 466
475 486
475 495
475 501
475 506
475 521
476 419
476 428
476 434
476 451
476 468
476 471
476 482
476 502
476 513
476 516
477 444
477 462
477 467
477 469
477 493
477 497
477 498
477 509
477 526
478 441
478 443
478 458
478 464
478 472
478 485
478 488
478 492
478 496
478 524
478 531
479 431
479 452
479 456
479 460
479 480
479 481
479 487
479 500
479 504
479 507
479 528
479 530
480 432
480 452
480 455
480 456
480 479
480 481
480 500
480 504
480 507
480 514
480 528
481 431
481 435
481 452
481 456
481 460
481 473
481 479
481 480
481 487
481 500
481 504
481 507
481 530
482 428
482 447
482 451
482 471
482 472
482 476
482 496
482 513
482 515
482 516
482 520
483 438
483 442
483 453
483 459
483 470
483 474
483 489
483 491
483 503
483 517
483 518
483 529
484 450
484 454
484 474
484 508
484 511
484 512
484 519
484 536
485 429
485 449
485 458
485 464
485 478
485 492
485 494
485 522
485 524
486 448
486 461
486 463
486 465
486 475
486 495
486 501
486 505
486 521
486 532
487 435
487 439
487 456
487 460
487 470
487 473
487 479
487 481
487 491
487 500
487 507
487 510
487 530
487 535
488 441
488 443
488 447
488 464
488 472
488 478
488 492
488 496
488 515
488 525
488 531
489 446
489 453
489 459
489 474
489 483
489 503
489 518
489 519
489 529
489 538
490 449
490 457
490 462
490 467
490 494
490 497
490 498
490 523
490 527
491 442
491 459
491 470
491 473
491 483
491 487
491 503
491 510
491 517
491 529
491 537
491 543
492 443
492 458
492 464
492 478
492 485
492 488
492 522
492 524
492 531
493 469
493 477
493 508
493 509
493 512
493 539
494 449
494 457
494 458
494 467
494 485
494 490
494 497
494 522
494 523
494 527
495 448
495 461
495 465
495 466
495 475
495 486
495 499
495 501
495 506
495 521
495 532
495 533
496 447
496 472
496 478
496 482
496 488
496 515
496 520
496 525
496 531
496 549
497 457
497 462
497 467
497 477
497 490
497 494
497 498
497 523
497 526
497 527
497 540
498 462
498 467
498 477
498 490
498 497
498 509
498 523
498 526
498 540
499 465
499 466
499 495
499 506
499 521
499 533
499 544
500 456
500 460
500 473
500 479
500 480
500 481
500 487
500 504
500 507
500 510
500 528
500 530
500 535
500 552
501 461
501 463
501 475
501 486
501 495
501 505
501 521
501 532
501 541
501 542
502 468
502 476
502 505
502 513
502 516
502 534
502 541
503 453
503 459
503 470
503 483
503 489
503 491
503 510
503 517
503 518
503 519
503 529
503 538
503 543
503 556
504 452
504 479
504 480
504 481
504 500
504 507
504 514
504 528
504 530
504 554
505 463
505 468
505 486
505 501
505 502
505 513
505 534
505 541
505 542
506 465
506 466
506 475
506 495
506 499
506 521
506 532
506 533
506 544
506 547
507 479
507 480
507 481
507 487
507 500
507 504
507 528
507 530
507 535
507 552
507 554
508 484
508 493
508 511
508 512
508 519
508 536
508 545
508 546
509 469
509 477
509 493
509 498
509 512
509 526
509 539
509 545
509 557
509 560
510 470
510 473
510 487
510 491
510 500
510 503
510 517
510 535
510 537
510 543
511 484
511 508
511 512
511 518
511 519
511 536
511 546
512 484
512 493
512 508
512 509
512 511
512 536
512 545
512 546
513 468
513 471
513 476
513 482
513 502
513 505
513 516
513 520
513 534
514 480
514 504
514 528
514 561
515 472
515 482
515 488
515 496
515 516
515 520
515 525
515 531
515 549
515 553
515 555
516 471
516 476
516 482
516 502
516 513
516 515
516 520
516 534
516 555
516 567
517 470
517 483
517 491
517 503
517 510
517 529
517 535
517 537
517 543
517 564
518 474
518 483
518 489
518 503
518 511
518 519
518 529
518 538
518 556
518 563
518 565
519 474
519 484
519 489
519 503
519 508
519 511
519 518
519 529
519 536
519 538
519 563
520 471
520 482
520 496
520 513
520 515
520 516
520 525
520 549
520 555
520 567
521 475
521 486
521 495
521 499
521 501
521 506
521 532
521 533
521 542
521 544
521 547
522 485
522 492
522 494
522 523
522 524
522 527
522 548
522 550
522 558
522 574
523 490
523 494
523 497
523 498
523 522
523 526
523 527
523 540
523 548
523 551
523 562
523 570
524 478
524 485
524 492
524 522
524 525
524 531
524 548
524 550
524 558
525 488
525 496
525 515
525 520
525 524
525 531
525 549
525 550
525 553
525 572
526 477
526 497
526 498
526 509
526 523
526 539
526 540
526 551
526 557
526 570
526 580
527 490
527 494
527 497
527 522
527 523
527 540
527 548
527 562
528 479
528 480
528 500
528 504
528 507
528 514
528 530
528 552
528 554
528 561
529 483
529 489
529 491
529 503
529 517
529 518
529 519
529 537
529 538
529 543
529 556
529 564
529 565
530 479
530 481
530 487
530 500
530 504
530 507
530 528
530 535
530 552
530 554
530 559
531 478
531 488
531 492
531 496
531 515
531 524
531 525
531 549
531 550
531 553
531 558
531 572
532 486
532 495
532 501
532 506
532 521
532 533
532 541
532 542
532 547
532 576
533 495
533 499
533 506
533 521
533 532
533 544
533 547
533 573
533 578
534 502
534 505
534 513
534 516
534 541
534 566
534 568
534 569
535 487
535 500
535 507
535 510
535 517
535 530
535 537
535 552
535 559
535 584
536 484
536 508
536 511
536 512
536 519
536 538
536 545
536 546
536 563
536 571
536 575
537 491
537 510
537 517
537 529
537 535
537 543
537 559
537 564
537 577
537 584
538 489
538 503
538 518
538 519
538 529
538 536
538 556
538 563
538 564
538 565
538 585
538 587
539 493
539 509
539 526
539 545
539 551
539 557
539 560
539 580
539 582
540 497
540 498
540 523
540 526
540 527
540 551
540 557
540 562
540 570
540 580
541 501
541 502
541 505
541 532
541 534
541 542
541 566
541 568
541 579
541 589
542 501
542 505
542 521
542 532
542 541
542 547
542 566
542 576
542 579
543 491
543 503
543 510
543 517
543 529
543 537
543 556
543 559
543 564
543 577
543 592
544 499
544 506
544 521
544 533
544 547
544 573
544 578
545 508
545 509
545 512
545 536
545 539
545 546
545 560
545 571
545 575
545 581
546 508
546 511
546 512
546 536
546 545
546 563
546 571
546 575
546 581
547 506
547 521
547 532
547 533
547 542
547 544
547 573
547 576
547 578
548 522
548 523
548 524
548 527
548 558
548 562
548 574
548 583
548 599
549 496
549 515
549 520
549 525
549 531
549 553
549 555
549 567
549 572
549 597
550 522
550 524
550 525
550 531
550 553
550 558
550 572
550 583
551 523
551 526
551 539
551 540
551 557
551 560
551 562
551 570
551 580
551 582
552 500
552 507
552 528
552 530
552 535
552 554
552 559
552 561
552 584
552 588
553 515
553 525
553 531
553 549
553 550
553 555
553 572
553 597
553 600
554 504
554 507
554 528
554 530
554 552
554 561
554 586
554 588
554 607
555 515
555 516
555 520
555 549
555 553
555 567
555 569
555 593
555 595
555 597
556 503
556 518
556 529
556 538
556 543
556 563
556 564
556 565
556 577
556 585
556 587
556 592
557 509
557 526
557 539
557 540
557 551
557 560
557 570
557 580
557 582
557 606
558 522
558 524
558 531
558 548
558 550
558 572
558 574
558 583
558 599
558 604
558 615
559 530
559 535
559 537
559 543
559 552
559 577
559 584
559 588
559 611
560 509
560 539
560 545
560 551
560 557
560 580
560 581
560 582
560 606
561 514
561 528
561 552
561 554
561 586
561 590
561 618
562 523
562 527
562 540
562 548
562 551
562 570
562 574
562 580
562 599
562 608
562 614
563 518
563 519
563 536
563 538
563 546
563 556
563 565
563 571
563 575
563 587
563 594
563 610
564 517
564 529
564 537
564 538
564 543
564 556
564 565
564 577
564 585
564 587
564 592
564 605
565 518
565 529
565 538
565 556
565 563
565 564
565 585
565 587
565 592
565 610
565 619
566 534
566 541
566 542
566 568
566 579
566 589
566 591
566 603
567 516
567 520
567 549
567 555
567 568
567 569
567 593
567 595
567 597
567 598
568 534
568 541
568 566
568 567
568 569
568 589
568 591
568 595
568 598
569 534
569 555
569 567
569 568
569 591
569 593
569 595
569 598
570 523
570 526
570 540
570 551
570 557
570 562
570 580
570 582
570 612
570 614
570 616
571 536
571 545
571 546
571 563
571 575
571 581
571 594
571 602
571 610
571 626
572 525
572 531
572 549
572 550
572 553
572 558
572 583
572 597
572 600
572 604
572 617
573 533
573 544
573 547
573 576
573 578
573 596
573 601
573 609
573 623
574 522
574 548
574 558
574 562
574 583
574 599
574 604
574 608
574 615
575 536
575 545
575 546
575 563
575 571
575 581
575 594
575 602
575 613
575 626
576 532
576 542
576 547
576 573
576 579
576 596
576 601
576 603
576 627
577 537
577 543
577 556
577 559
577 564
577 584
577 585
577 592
577 605
577 611
577 620
577 622
577 631
578 533
578 544
578 547
578 573
578 596
578 609
578 623
579 541
579 542
579 566
579 576
579 589
579 601
579 603
580 526
580 539
580 540
580 551
580 557
580 560
580 562
580 570
580 582
580 606
580 612
580 614
580 616
581 545
581 546
581 560
581 571
581 575
581 594
581 602
581 606
581 613
582 539
582 551
582 557
582 560
582 570
582 580
582 606
582 612
582 616
583 548
583 550
583 558
583 572
583 574
583 599
583 600
583 604
583 608
583 615
583 629
584 535
584 537
584 552
584 559
584 577
584 588
584 605
584 611
584 622
584 630
585 538
585 556
585 564
585 565
585 577
585 587
585 592
585 605
585 610
585 619
585 620
585 621
586 554
586 561
586 590
586 607
586 618
586 624
587 538
587 556
587 563
587 564
587 565
587 585
587 592
587 610
587 619
587 620
587 621
588 552
588 554
588 559
588 584
588 607
588 611
588 622
588 630
588 635
588 639
589 541
589 566
589 568
589 579
589 591
589 598
589 603
589 632
589 633
590 561
590 586
590 607
590 618
590 624
591 566
591 568
591 569
591 589
591 595
591 598
591 603
591 628
591 632
591 633
592 543
592 556
592 564
592 565
592 577
592 585
592 587
592 605
592 620
592 621
592 622
592 631
593 555
593 567
593 569
593 595
593 597
593 598
593 625
593 628
594 563
594 571
594 575
594 581
594 602
594 610
594 613
594 626
594 640
595 555
595 567
595 568
595 569
595 591
595 593
595 597
595 598
595 625
595 628
595 632
596 573
596 576
596 578
596 601
596 609
596 623
596 627
596 642
597 549
597 553
597 555
597 567
597 572
597 593
597 595
597 600
597 617
597 625
597 634
597 641
598 567
598 568
598 569
598 589
598 591
598 593
598 595
598 628
598 632
599 548
599 558
599 562
599 574
599 583
599 604
599 608
599 614
599 615
599 629
599 644
600 553
600 572
600 583
600 597
600 604
600 615
600 617
600 634
600 641
601 573
601 576
601 579
601 596
601 603
601 623
601 627
601 643
602 571
602 575
602 581
602 594
602 610
602 613
602 626
602 638
602 640
603 566
603 576
603 579
603 589
603 591
603 601
603 627
603 633
603 643
604 558
604 572
604 574
604 583
604 599
604 600
604 615
604 617
604 629
604 634
605 564
605 577
605 584
605 585
605 592
605 611
605 620
605 621
605 622
605 631
606 557
606 560
606 580
606 581
606 582
606 612
606 613
606 636
606 645
607 554
607 586
607 588
607 590
607 618
607 624
607 630
607 635
607 647
608 562
608 574
608 583
608 599
608 614
608 615
608 616
608 629
608 637
608 644
609 573
609 578
609 596
609 623
609 642
610 563
610 565
610 571
610 585
610 587
610 594
610 602
610 619
610 621
610 626
611 559
611 577
611 584
611 588
611 605
611 622
611 630
611 631
611 639
612 570
612 580
612 582
612 606
612 614
612 616
612 636
612 637
612 645
613 575
613 581
613 594
613 602
613 606
613 626
613 636
613 638
613 640
614 562
614 570
614 580
614 599
614 608
614 612
614 616
614 629
614 637
614 644
615 558
615 574
615 583
615 599
615 600
615 604
615 608
615 629
615 634
616 570
616 580
616 582
616 608
616 612
616 614
616 637
616 644
616 645
617 572
617 597
617 600
617 604
617 625
617 634
617 641
618 561
618 586
618 590
618 607
618 624
618 630
618 635
618 646
618 647
619 565
619 585
619 587
619 610
619 620
619 621
620 577
620 585
620 587
620 592
620 605
620 619
620 621
620 622
620 631
621 585
621 587
621 592
621 605
621 610
621 619
621 620
621 631
622 577
622 584
622 588
622 592
622 605
622 611
622 620
622 630
622 631
622 639
623 573
623 578
623 596
623 601
623 609
623 627
623 642
624 586
624 590
624 607
624 618
624 635
624 646
624 647
625 593
625 595
625 597
625 617
625 628
625 641
626 571
626 575
626 594
626 602
626 610
626 613
626 638
626 640
627 576
627 596
627 601
627 603
627 623
627 633
627 642
627 643
628 591
628 593
628 595
628 598
628 625
628 632
629 583
629 599
629 604
629 608
629 614
629 615
629 644
630 584
630 588
630 607
630 611
630 618
630 622
630 635
630 639
630 647
631 577
631 592
631 605
631 611
631 620
631 621
631 622
631 639
632 589
632 591
632 595
632 598
632 628
632 633
633 589
633 591
633 603
633 627
633 632
633 643
634 597
634 600
634 604
634 615
634 617
634 641
635 588
635 607
635 618
635 624
635 630
635 639
635 647
636 606
636 612
636 613
636 638
636 645
637 608
637 612
637 614
637 616
637 644
637 645
638 602
638 613
638 626
638 636
638 640
639 588
639 611
639 622
639 630
639 631
639 635
639 647
640 594
640 602
640 613
640 626
640 638
641 597
641 600
641 617
641 625
641 634
642 596
642 609
642 623
642 627
643 601
643 603
643 627
643 633
644 599
644 608
644 614
644 616
644 629
644 637
645 606
645 612
645 616
645 636
645 637
646 618
646 624
646 647
647 607
647 618
647 624
647 630
647 635
647 639
647 646
