@RELATION B57-S0378_medias
@ATTRIBUTE f1 REAL
@ATTRIBUTE f2 REAL
@ATTRIBUTE f3 REAL
@ATTRIBUTE f4 REAL
@ATTRIBUTE f5 REAL
@ATTRIBUTE f6 REAL
@ATTRIBUTE f7 REAL
@ATTRIBUTE f8 REAL
@ATTRIBUTE f9 REAL
@ATTRIBUTE f10 REAL
@ATTRIBUTE f11 REAL
@ATTRIBUTE f12 REAL
@ATTRIBUTE f13 REAL
@ATTRIBUTE f14 REAL
@ATTRIBUTE f15 REAL
@ATTRIBUTE f16 REAL
@ATTRIBUTE f17 REAL
@ATTRIBUTE f18 REAL
@ATTRIBUTE f19 REAL
@ATTRIBUTE f20 REAL
@ATTRIBUTE f21 REAL
@ATTRIBUTE class {L4,L24}
@DATA
0.008774284550934007,NaN,0.4404461018408618,0.008774284550934007,NaN,0.4404461018408618,0.02137157715847276,0.025,0.4480353269802734,0.016308884019039873,0.025,0.4450312586959229,0.027195775133539844,0.025,0.45146854787667395,0.023637433963581717,0.025,0.44932278481642374,0.01732720715448435,0.025,0.44546041130797304,L4
0.015107817587011685,0.025,0.4440214878440405,0.020270809924301622,0.025,0.4477134625212359,0.025915112332542137,0.025,0.45096786982928233,0.0201219759572536,0.025,0.44678363186179404,0.02821007236422196,0.025,0.4518977004887241,0.023700841572158664,0.025,0.4495731238401194,0.025108381464158634,0.025,0.4491082085103985,L4
0.008478722737839828,NaN,0.4401818341797572,0.018243728931871463,0.025,0.4464581911309894,0.03089309514591227,0.025,0.4527345480822215,0.027043975524328988,0.025,0.451897700488724,0.02843819236926066,0.025,0.45231612428547274,0.021158905602989143,0.025,0.447295038724487,0.026401427738249956,0.025,0.45189770048872413,L4
0.015199801100692042,0.025,0.4440214878440402,0.01351729291017679,0.025,0.4433651367903166,0.014246270601942243,0.025,0.44369331231717846,0.013622352181034223,0.025,0.4436933123171786,0.014401069872844703,0.025,0.4440214878440403,0.016308130870344308,0.025,0.4446778388977639,0.01351729291017679,0.025,0.4433651367903166,L4
0.01343670687284292,NaN,0.4431805380564569,0.020584012140837115,0.025,0.4477134625212356,0.014362123717062839,0.025,0.44387791105103824,0.017491863275074692,0.025,0.4456213435374916,0.015539724097318372,0.025,0.4445752840456196,0.01901967648803712,0.025,0.44666740302936375,0.019608476678164885,0.025,0.4470160895266542,L4
0.006613948734271361,NaN,0.43924293200168674,0.014081780298838166,0.025,0.44332511538460184,0.018155291446980238,0.025,0.4453662070760595,0.013227897468542723,0.025,0.4433251153846019,0.015295878624113413,0.025,0.4445497703994765,0.019456735821544533,0.025,0.4465908620909342,0.019866741089103822,0.025,0.4469990804292256,L4
0.009887753485653447,0.025,0.4412046479051433,0.01468674824489236,0.025,0.4439941398834687,0.012709904689773703,NaN,0.4430643092240269,0.017261247972515246,0.025,0.4458538012023523,0.020967283606255195,0.025,0.4477134625212358,0.01657499856179423,0.025,0.44492397054291044,0.025200510412435578,0.025,0.45050295449956135,L4
0.00648156401267533,NaN,0.43909885494111334,0.010170260728100688,0.025,0.4413773307418968,0.012975483280537436,NaN,0.4433030495284782,0.01962616133118939,0.024999999999999998,0.44692184993279216,0.013835478941789027,0.025,0.4433030495284781,0.018253865007041018,0.025,0.44646949988225304,0.01634039759569238,0.025,0.44511244973063513,L4
0.007850669201703546,NaN,0.4398099019159805,0.011448011524103161,0.025,0.4420271904115725,0.022592939281012123,0.025,0.44932278481642357,0.026470488805160165,0.025,0.45061024265257377,0.028214098268984324,0.025,0.451897700488724,0.027022780597232652,0.025,0.451897700488724,0.034341892752944435,0.025,0.4566183792212749,L4
0.01945485576736631,0.025,0.4467741437938405,0.016994599280111003,0.025,0.4447247211158871,0.0134922352916915,0.025,0.4433584393305848,0.01510572775700369,0.025,0.44438315066956147,0.01690116824586497,0.025,0.4454078620085382,0.01438865670385514,0.025,0.4433584393305848,0.02592938642921405,0.025,0.4498482778107707,L4
0.00836420080627781,0.025,0.440181834179757,0.01672104013726818,0.025,0.4455376587781418,0.014194991694582467,0.025,0.44352922455374744,0.021256077928919575,0.025,0.44821557107733434,0.03076864319575696,0.025,0.45290191760092113,0.026177579686402015,0.025,0.45089348337652674,0.020583669290122345,0.025,0.4475460930025363,L4
0.011483906990211401,0.025,0.44199215754528254,0.0144120847834479,0.025,0.44404158022323587,0.012177549963767189,0.025,0.4423337279916079,0.013032310545813301,0.025,0.44301686888425923,0.013725953519369088,0.025,0.4433584393305848,0.012915451431974506,0.025,0.4430168688842592,0.012455526686096306,0.025,0.44267529843793363,L4
0.021952876753318636,0.025,0.447651011208288,0.011976590670500706,0.025,0.44240510092069085,0.015296210925824888,0.025,0.4439039324314329,0.012729286907960298,0.025,0.44315451667606187,0.013608902918294575,0.025,0.44290471142427157,0.0112129071564927,NaN,0.4421552956689006,0.010962008410672833,0.025,0.44190549041711025,L4
0.014309401242374281,0.025,0.44392772340779385,0.021748142325289887,0.025,0.4487097096563519,0.0209073901362091,0.025,0.44791271194825893,0.01830662254607108,0.025,0.446318716532073,0.019650431146328733,0.025,0.44631871653207295,0.02082610449547985,0.025,0.4476470460455612,0.016045352363043948,0.025,0.4444590552131894,L4
0.011748899366558426,0.025,0.44233372799160786,0.012646118703895974,0.025,0.44286505979700336,0.012912947528815511,0.025,0.44313072569970097,0.012339024164654266,0.025,0.4425993938943056,0.01381016686615306,0.025,0.4436620575050963,0.014955993188726889,0.025,0.443927723407794,0.012822057106940891,0.025,0.44313072569970097,L4
0.009897204322115292,0.025,0.44104967612856927,0.011196198352604037,0.025,0.44197950678801107,0.011156037866716541,0.025,0.4416695632348638,0.019655395827093566,0.025,0.44755849074466203,0.010566781580303412,0.025,0.4416695632348639,0.007850669201703546,NaN,0.43980990191598024,0.008685347444223243,NaN,0.4404297890222748,L4
0.010966318564526812,0.025,0.44179781573961446,0.01203961019953313,0.025,0.4423749520109922,0.01149733837708594,0.025,0.4420863838753033,0.016047441725050297,0.025,0.44439492896081395,0.010911329658047426,NaN,0.44179781573961446,0.012952841025603637,0.025,0.44324065641805865,0.011787169686912333,NaN,0.4423749520109921,L4
0.013809321996832236,0.025,0.44337132878138946,0.016733032613916485,0.025,0.44558186959440205,0.017109934781181772,0.025,0.4455818695944021,0.024465035642042,0.025,0.4490555765862791,0.01619977961153662,0.025,0.44526607804968593,0.014174807160094541,0.025,0.44400291187082164,0.0168194122493515,0.025,0.4449502865049699,L4
0.01565582192248695,0.025,0.4446303398083496,0.014436322051507688,0.025,0.44374944760466795,0.015359291494223376,0.025,0.4444101167574291,0.015255413036117774,0.025,0.44418989370650885,0.01684194363554126,0.025,0.44551123201203124,0.015161796448218398,0.025,0.4446303398083496,0.012855210246443432,NaN,0.443309001502827,L24
0.011907957604839007,0.025,0.44233372799160786,0.01177162197202708,0.025,0.4423337279916078,0.013866302542365237,0.025,0.44352922455374727,0.013181236963911127,0.025,0.44332997512672406,0.012844779712409545,0.025,0.4431307256997008,0.010225671347331105,0.025,0.4413374808564917,0.011166875285429883,0.025,0.44193522913756145,L24
0.012945972081367243,0.025,0.4427853600261939,0.011050470469204174,0.025,0.44185552936675215,0.01042241693306789,0.025,0.4414835971029754,0.010986847173891942,0.025,0.44185552936675204,0.01123725064664785,0.025,0.4420414954986404,0.008164695969771688,NaN,0.4399958680478684,0.012803294778495539,0.025,0.4431572922899706,L24
0.011917452697518949,0.025,0.4424831650618754,0.01907660000571717,0.025,0.44666740302936353,0.020522767265596202,0.024999999999999998,0.44771346252123556,0.011670741359518146,0.025,0.4419601353159394,0.017449132177103095,0.025,0.44535982866452356,0.015321147016716833,0.025,0.4445752840456195,0.013147031713705282,NaN,0.44352922455374755,L24
0.007185358252406635,NaN,0.4394159058738438,0.014951615632158514,0.025,0.4442384174295929,0.022473389635461666,0.025,0.44849357468466566,0.013289920496427108,0.025,0.442820031677902,0.014854563147783918,0.025,0.44423841742959297,0.016369230063995006,0.025,0.4445220945799311,0.01753868263596699,0.025,0.4448057717302693,L24
0.013957017843990668,0.025,0.4435292245537474,0.012936508083212507,0.025,0.4432592737171353,0.009936240390271288,NaN,0.4410996670242382,0.012958907504216563,0.025,0.442719372043911,0.013669422580961467,0.025,0.44352922455374744,0.012757731963989442,0.025,0.4429893228805232,0.014903686948671155,0.025,0.4443390770635839,L24
0.01898268806217716,0.025,0.44668098821756963,0.0239989179865523,0.025,0.44907198134184856,0.017955920129705764,0.025,0.4460288991836752,0.016839878528687017,0.025,0.44494208412718494,0.01638521364502321,0.025,0.44494208412718494,0.015327154096446222,NaN,0.44494208412718494,0.01378939228711817,NaN,0.4438552690706946,L24
0.015049383596385985,0.025,0.4443542855614211,0.01680665649136646,0.024999999999999998,0.4443542855614212,0.0112212039203584,0.025,0.4419969683966391,0.014414892506028393,0.025,0.44388282212846475,0.01588457494430638,0.025,0.44435428556142115,0.008913480565728884,0.025,0.44058257809776985,0.013699417552871145,0.025,0.4434113586955084,L24
0.012841615722697753,0.025,0.4430369612634546,0.01638005009297573,0.025,0.44426761948918647,0.017806455460469824,0.025,0.4454982777149183,0.01096921700987179,0.025,0.44180630303772295,0.013856287807202852,0.025,0.443283092908601,0.012463297059111925,0.025,0.4427908296183083,0.013373338839494198,0.025,0.44352922455374744,L24
0.018878712952798516,0.025,0.44645819113098917,0.013361225834855644,0.025,0.44311080075699855,0.013670038069680101,0.025,0.4435292245537473,0.011653642842475114,0.025,0.442273953163501,0.012641906977478832,0.025,0.4429015888586242,0.012923610884329228,0.025,0.44311080075699855,0.016509037611516873,0.025,0.4449937078423683,L24
0.015518389514131507,0.025,0.4445254716888635,0.017492984528105077,0.025,0.44512321996993326,0.014257261230510338,0.025,0.44332997512672406,0.014671170847652085,0.025,0.444126972834817,0.013044901331099201,0.025,0.44332997512672406,0.012103697393000424,0.025,0.44273222684565433,0.013245022949788857,0.025,0.4435292245537474,L24
0.01374012347588439,0.025,0.4436325390714631,0.015338787410576859,0.025,0.4448723132840522,0.0166399684215733,0.025,0.4446656842486207,0.01567807762033562,0.025,0.4444590552131892,0.017139900574882037,0.025,0.4454922003903467,0.013249819744003717,0.025,0.44342591003603166,0.014199109429958934,0.025,0.44383916810689467,L24
0.012580034589304063,0.025,0.44225267737722557,0.01809081795666711,0.025,0.4456568031812837,0.017959568472375842,0.025,0.44622415748196015,0.017242638681765995,0.025,0.44537312603094553,0.02712839507431601,0.025,0.4504793147370329,0.016636849142504347,0.025,0.44508944888060753,0.017976868308611088,0.025,0.4459404803316219,L24
0.010424046742079621,0.025,0.4415092476039255,0.020753454361222775,0.025,0.44756917845339117,0.02153472010774467,0.025,0.4472806103177024,0.016265095634307572,0.025,0.4452606333678806,0.020678672766811578,0.025,0.4469920421820135,0.011787169686912333,NaN,0.44237495201099203,0.011102435164803118,NaN,0.4420863838753033,L24
0.01008714479925506,0.025,0.4414371055700034,0.020294767936295484,0.025,0.44741458838070075,0.01885816267017854,0.025,0.44711571424016594,0.020574450794686294,0.025,0.4471157142401659,0.02184527879440543,0.025,0.4477134625212357,0.019514207589350716,0.025,0.44681684009963096,0.015893572948453175,0.025,0.4450235952564218,L24
0.012665375567568459,0.025,0.4429893228805232,0.0165647548107773,0.025,0.44487897873680815,0.013813220212476067,0.025,0.44352922455374744,0.014141730636832637,0.025,0.4435292245537474,0.012030754139859384,0.025,0.4424494212072988,0.012757731963989442,0.025,0.4429893228805231,0.014759889317156553,0.025,0.44433907706358383,L24
0.011576920563753234,0.025,0.44229453138301333,0.012850088360410425,0.025,0.44298932288052306,0.011355217550822942,0.025,0.44190951953407454,0.014396400405091525,0.025,0.4440691262269717,0.014090289401739014,0.025,0.4435292245537474,0.012850088360410425,0.025,0.4429893228805232,0.009116906169720248,NaN,0.4405597653510139,L24
0.013025040479963652,0.025,0.44279082961830835,0.01417269401617568,0.025,0.4437753561988938,0.011469047976110522,0.025,0.44205243468286926,0.011716257034491858,0.025,0.4422985663280156,0.010637800648871324,0.025,0.4415601713925766,0.01180046433711099,0.025,0.4422985663280156,0.010390591590489986,0.025,0.44131403974743016,L24
