1 2
1 3
1 5
1 6
1 7
2 1
2 3
2 4
2 6
2 8
3 1
3 2
3 5
3 6
3 7
3 8
3 12
4 2
4 8
4 9
4 10
4 11
5 1
5 3
5 6
5 7
5 12
5 15
6 1
6 2
6 3
6 5
6 8
6 11
6 12
6 13
6 14
7 1
7 3
7 5
7 12
7 15
7 17
8 2
8 3
8 4
8 6
8 9
8 10
8 11
8 13
8 14
8 16
9 4
9 8
9 10
9 11
9 16
9 20
10 4
10 8
10 9
10 11
10 13
10 16
10 20
10 21
10 22
11 4
11 6
11 8
11 9
11 10
11 13
11 14
11 16
11 18
11 20
11 21
11 22
12 3
12 5
12 6
12 7
12 13
12 14
12 15
12 17
12 18
12 19
12 23
13 6
13 8
13 10
13 11
13 12
13 14
13 16
13 17
13 18
13 19
13 21
13 22
13 23
14 6
14 8
14 11
14 12
14 13
14 15
14 16
14 17
14 18
14 19
14 22
14 23
14 25
15 5
15 7
15 12
15 14
15 17
15 19
15 26
16 8
16 9
16 10
16 11
16 13
16 14
16 18
16 20
16 21
16 22
16 24
16 27
17 7
17 12
17 13
17 14
17 15
17 18
17 19
17 23
17 25
17 26
18 11
18 12
18 13
18 14
18 16
18 17
18 19
18 21
18 22
18 23
18 24
18 25
18 27
19 12
19 13
19 14
19 15
19 17
19 18
19 22
19 23
19 25
19 26
20 9
20 10
20 11
20 16
20 21
20 22
20 24
20 27
20 28
21 10
21 11
21 13
21 16
21 18
21 20
21 22
21 23
21 24
21 27
21 28
22 10
22 11
22 13
22 14
22 16
22 18
22 19
22 20
22 21
22 23
22 24
22 27
22 30
23 12
23 13
23 14
23 17
23 18
23 19
23 21
23 22
23 25
23 26
23 27
23 29
23 30
23 32
24 16
24 18
24 20
24 21
24 22
24 27
24 28
24 30
24 31
24 33
25 14
25 17
25 18
25 19
25 23
25 26
25 27
25 29
25 30
25 32
26 15
26 17
26 19
26 23
26 25
26 29
26 32
26 35
27 16
27 18
27 20
27 21
27 22
27 23
27 24
27 25
27 28
27 30
27 31
27 32
27 34
28 20
28 21
28 24
28 27
28 31
28 33
28 36
29 23
29 25
29 26
29 30
29 32
29 34
29 35
30 22
30 23
30 24
30 25
30 27
30 29
30 31
30 32
30 33
30 34
30 37
31 24
31 27
31 28
31 30
31 33
31 34
31 36
31 37
32 23
32 25
32 26
32 27
32 29
32 30
32 34
32 35
32 37
33 24
33 28
33 30
33 31
33 36
33 37
34 27
34 29
34 30
34 31
34 32
34 37
35 26
35 29
35 32
36 28
36 31
36 33
37 30
37 31
37 32
37 33
37 34
