1 6
1 7
2 3
2 4
2 9
3 2
3 8
3 9
4 2
4 9
5 8
6 1
6 7
6 11
6 12
7 1
7 6
7 10
7 11
8 3
8 5
8 13
9 2
9 3
9 4
9 13
9 18
10 7
10 14
10 15
11 6
11 7
11 12
11 17
12 6
12 11
12 17
13 8
13 9
13 16
13 18
14 10
14 15
14 19
15 10
15 14
15 18
15 19
16 13
17 11
17 12
17 20
17 21
18 9
18 13
18 15
18 23
18 24
19 14
19 15
19 21
19 24
19 25
20 17
21 17
21 19
21 25
21 26
22 23
22 27
23 18
23 22
23 24
23 27
24 18
24 19
24 23
24 27
24 29
25 19
25 21
25 26
25 29
25 31
26 21
26 25
26 28
26 31
26 32
27 22
27 23
27 24
27 33
28 26
28 32
29 24
29 25
29 31
30 34
31 25
31 26
31 29
31 32
32 26
32 28
32 31
32 38
33 27
33 35
33 37
34 30
34 36
34 39
35 33
35 37
35 40
35 41
36 34
36 37
36 39
36 42
36 45
37 33
37 35
37 36
37 40
37 42
37 44
38 32
38 41
39 34
39 36
39 45
39 46
40 35
40 37
40 41
40 44
40 49
41 35
41 38
41 40
41 48
42 36
42 37
42 44
42 45
43 47
44 37
44 40
44 42
44 49
45 36
45 39
45 42
45 46
46 39
46 45
47 43
47 48
48 41
48 47
49 40
49 44
