1 3
1 6
2 3
2 4
2 5
2 8
3 1
3 2
3 5
3 6
4 2
4 7
4 8
5 2
5 3
5 8
5 11
6 1
6 3
6 10
7 4
7 8
7 9
7 12
8 2
8 4
8 5
8 7
8 11
8 12
9 7
9 12
9 14
10 6
10 11
10 13
11 5
11 8
11 10
11 15
11 17
12 7
12 8
12 9
12 14
12 18
13 10
13 16
14 9
14 12
14 18
14 19
15 11
15 17
15 18
15 21
16 13
16 17
16 20
16 22
16 24
17 11
17 15
17 16
17 22
17 23
18 12
18 14
18 15
18 19
18 21
18 25
19 14
19 18
19 25
20 16
20 22
20 24
20 28
21 15
21 18
21 23
21 25
21 26
21 27
22 16
22 17
22 20
22 23
22 29
23 17
23 21
23 22
23 26
23 29
23 30
24 16
24 20
24 28
25 18
25 19
25 21
25 26
25 27
25 31
26 21
26 23
26 25
26 27
26 30
26 31
26 32
27 21
27 25
27 26
27 31
27 33
27 35
28 20
28 24
28 29
28 36
29 22
29 23
29 28
29 30
29 32
29 34
29 36
30 23
30 26
30 29
30 32
30 34
31 25
31 26
31 27
31 32
31 33
31 35
32 26
32 29
32 30
32 31
32 34
33 27
33 31
33 35
34 29
34 30
34 32
34 36
35 27
35 31
35 33
36 28
36 29
36 34
