1 3
1 5
2 4
3 1
3 5
4 2
5 1
5 3
5 8
5 9
6 7
6 10
7 6
8 5
8 9
8 13
9 5
9 8
9 11
10 6
10 12
11 9
11 14
12 10
12 15
12 17
13 8
13 14
13 16
14 11
14 13
14 16
14 18
14 19
15 12
15 17
16 13
16 14
16 19
16 21
17 12
17 15
17 18
17 20
18 14
18 17
18 19
19 14
19 16
19 18
19 22
20 17
21 16
22 19
22 24
23 25
23 27
23 29
24 22
24 25
24 28
25 23
25 24
25 27
25 28
25 30
26 32
27 23
27 25
27 28
27 29
27 30
27 33
28 24
28 25
28 27
28 30
28 31
28 33
29 23
29 27
29 30
29 33
30 25
30 27
30 28
30 29
30 31
30 33
30 36
31 28
31 30
31 33
31 34
32 26
32 35
33 27
33 28
33 29
33 30
33 31
33 34
33 36
34 31
34 33
35 32
36 30
36 33
