1 2
1 4
1 7
1 10
2 1
2 4
2 8
2 10
2 11
3 5
3 9
3 12
3 14
4 1
4 2
4 8
4 11
5 3
5 6
5 9
5 13
5 14
6 5
6 13
7 1
7 10
7 12
7 15
8 2
8 4
8 11
8 16
9 3
9 5
9 12
9 13
9 14
10 1
10 2
10 7
10 11
10 15
11 2
11 4
11 8
11 10
11 15
11 16
11 20
12 3
12 7
12 9
12 14
12 15
12 19
13 5
13 6
13 9
13 14
13 17
14 3
14 5
14 9
14 12
14 13
14 17
14 18
15 7
15 10
15 11
15 12
15 19
15 20
16 8
16 11
16 20
16 21
16 22
17 13
17 14
17 18
17 23
17 25
18 14
18 17
18 19
18 23
18 25
18 27
19 12
19 15
19 18
19 26
19 27
20 11
20 15
20 16
20 22
20 26
20 28
20 29
21 16
21 22
21 24
22 16
22 20
22 21
22 24
22 28
23 17
23 18
23 25
23 27
23 30
24 21
24 22
24 28
24 32
25 17
25 18
25 23
25 30
26 19
26 20
26 27
26 28
26 29
26 31
26 34
27 18
27 19
27 23
27 26
27 31
27 33
28 20
28 22
28 24
28 26
28 29
28 32
29 20
29 26
29 28
29 32
29 34
30 23
30 25
30 33
30 37
31 26
31 27
31 33
31 34
31 38
32 24
32 28
32 29
32 36
32 39
33 27
33 30
33 31
33 37
33 38
34 26
34 29
34 31
34 35
34 38
35 34
35 36
36 32
36 35
36 39
36 40
36 45
37 30
37 33
37 38
37 42
37 43
38 31
38 33
38 34
38 37
38 42
38 43
38 44
39 32
39 36
39 40
39 41
39 48
40 36
40 39
40 41
40 45
40 48
41 39
41 40
41 48
42 37
42 38
42 43
42 44
42 47
43 37
43 38
43 42
43 46
44 38
44 42
44 47
45 36
45 40
45 47
45 48
46 43
47 42
47 44
47 45
48 39
48 40
48 41
48 45
