1 2
1 3
1 6
1 9
1 10
1 13
2 1
2 10
2 11
3 1
3 6
3 7
3 9
3 13
3 14
4 5
4 8
4 12
5 4
5 7
5 8
5 12
6 1
6 3
6 7
6 9
6 14
6 15
6 19
7 3
7 5
7 6
7 8
7 9
7 14
7 15
7 17
8 4
8 5
8 7
8 12
8 15
8 16
8 17
9 1
9 3
9 6
9 7
9 10
9 13
9 14
9 15
9 19
9 20
9 21
10 1
10 2
10 9
10 11
10 13
10 18
10 21
11 2
11 10
11 13
11 18
11 21
11 22
12 4
12 5
12 8
12 16
12 17
12 24
13 1
13 3
13 9
13 10
13 11
13 14
13 18
13 20
13 21
13 26
14 3
14 6
14 7
14 9
14 13
14 15
14 19
14 20
14 23
15 6
15 7
15 8
15 9
15 14
15 17
15 19
15 23
16 8
16 12
16 17
16 24
16 25
17 7
17 8
17 12
17 15
17 16
17 23
17 24
17 25
18 10
18 11
18 13
18 20
18 21
18 22
18 26
18 28
19 6
19 9
19 14
19 15
19 20
19 21
19 23
19 27
19 29
20 9
20 13
20 14
20 18
20 19
20 21
20 23
20 26
20 27
20 31
21 9
21 10
21 11
21 13
21 18
21 19
21 20
21 22
21 26
21 28
22 11
22 18
22 21
22 26
22 28
22 35
23 14
23 15
23 17
23 19
23 20
23 25
23 27
23 29
23 30
24 12
24 16
24 17
24 25
24 30
24 32
24 33
25 16
25 17
25 23
25 24
25 29
25 30
25 32
25 33
26 13
26 18
26 20
26 21
26 22
26 27
26 28
26 31
26 34
26 37
27 19
27 20
27 23
27 26
27 29
27 30
27 31
27 36
27 39
28 18
28 21
28 22
28 26
28 34
28 35
28 37
29 19
29 23
29 25
29 27
29 30
29 31
29 33
29 36
29 39
29 40
29 42
30 23
30 24
30 25
30 27
30 29
30 32
30 33
30 36
30 40
30 42
31 20
31 26
31 27
31 29
31 34
31 36
31 38
31 39
31 40
31 43
32 24
32 25
32 30
32 33
32 41
33 24
33 25
33 29
33 30
33 32
33 40
33 41
33 42
34 26
34 28
34 31
34 35
34 37
34 38
34 39
34 44
34 45
35 22
35 28
35 34
35 37
35 44
36 27
36 29
36 30
36 31
36 38
36 39
36 40
36 42
36 43
37 26
37 28
37 34
37 35
37 38
37 44
37 45
38 31
38 34
38 36
38 37
38 39
38 43
38 44
38 45
39 27
39 29
39 31
39 34
39 36
39 38
39 40
39 43
39 45
40 29
40 30
40 31
40 33
40 36
40 39
40 42
40 43
40 48
41 32
41 33
41 42
41 46
42 29
42 30
42 33
42 36
42 40
42 41
42 43
42 46
42 48
42 51
43 31
43 36
43 38
43 39
43 40
43 42
43 45
43 48
43 49
44 34
44 35
44 37
44 38
44 45
44 47
44 50
45 34
45 37
45 38
45 39
45 43
45 44
45 47
45 49
45 50
45 52
46 41
46 42
46 48
46 51
47 44
47 45
47 50
47 53
47 54
48 40
48 42
48 43
48 46
48 49
48 51
49 43
49 45
49 48
49 50
49 51
49 52
50 44
50 45
50 47
50 49
50 52
50 53
50 54
51 42
51 46
51 48
51 49
52 45
52 49
52 50
53 47
53 50
53 54
54 47
54 50
54 53
