1 2
1 3
1 5
2 1
2 5
3 1
3 4
3 7
4 3
4 6
4 7
5 1
5 2
5 10
6 4
6 7
6 8
6 11
7 3
7 4
7 6
7 8
7 9
7 11
8 6
8 7
8 11
8 14
8 15
9 7
9 10
9 11
9 12
10 5
10 9
10 12
10 13
11 6
11 7
11 8
11 9
11 15
11 16
11 17
12 9
12 10
12 13
12 18
13 10
13 12
13 20
14 8
14 15
15 8
15 11
15 14
15 17
15 21
15 22
15 23
16 11
16 17
16 18
16 19
16 21
16 24
17 11
17 15
17 16
17 21
17 22
17 23
17 24
18 12
18 16
18 19
18 20
19 16
19 18
19 21
19 24
19 26
20 13
20 18
21 15
21 16
21 17
21 19
21 22
21 23
21 24
21 27
21 28
22 15
22 17
22 21
22 23
22 25
22 27
22 28
23 15
23 17
23 21
23 22
23 25
23 28
24 16
24 17
24 19
24 21
24 26
24 27
24 28
24 31
25 22
25 23
25 28
25 33
26 19
26 24
26 27
26 31
27 21
27 22
27 24
27 26
27 28
27 31
28 21
28 22
28 23
28 24
28 25
28 27
28 31
28 32
28 33
29 30
30 29
30 35
31 24
31 26
31 27
31 28
31 34
31 35
32 28
32 33
32 34
32 36
33 25
33 28
33 32
33 36
34 31
34 32
34 39
34 40
35 30
35 31
35 38
35 39
36 32
36 33
37 38
38 35
38 37
39 34
39 35
39 40
40 34
40 39
