1 3
2 10
2 11
3 1
3 6
3 9
4 5
4 8
4 12
5 4
5 7
5 8
6 3
6 7
6 9
6 14
6 15
7 5
7 6
7 8
7 14
7 15
8 4
8 5
8 7
8 12
8 16
8 17
9 3
9 6
9 13
9 14
9 20
10 2
10 11
10 13
10 18
11 2
11 10
11 13
11 18
11 22
12 4
12 8
12 16
12 17
13 9
13 10
13 11
13 18
13 20
13 21
14 6
14 7
14 9
14 15
14 19
14 23
15 6
15 7
15 14
15 17
15 19
15 23
16 8
16 12
16 17
16 24
17 8
17 12
17 15
17 16
17 24
17 25
18 10
18 11
18 13
18 21
18 22
18 26
19 14
19 15
19 20
19 23
19 27
20 9
20 13
20 19
20 21
20 26
20 27
21 13
21 18
21 20
21 26
22 11
22 18
22 28
23 14
23 15
23 19
23 25
23 27
23 29
23 30
24 16
24 17
24 25
24 32
24 33
25 17
25 23
25 24
25 30
25 32
25 33
26 18
26 20
26 21
26 28
26 34
27 19
27 20
27 23
27 29
27 31
27 36
28 22
28 26
28 34
28 35
28 37
29 23
29 27
29 30
29 31
29 36
29 40
30 23
30 25
30 29
30 33
30 40
31 27
31 29
31 34
31 36
31 38
31 39
32 24
32 25
32 33
32 41
33 24
33 25
33 30
33 32
33 41
34 26
34 28
34 31
34 35
34 37
34 38
35 28
35 34
35 37
36 27
36 29
36 31
36 38
36 39
36 40
36 43
37 28
37 34
37 35
37 38
37 44
38 31
38 34
38 36
38 37
38 39
38 45
39 31
39 36
39 38
39 40
39 43
39 45
40 29
40 30
40 36
40 39
40 42
40 43
41 32
41 33
41 42
41 46
42 40
42 41
42 43
42 48
43 36
43 39
43 40
43 42
43 49
44 37
44 47
45 38
45 39
45 50
46 41
46 48
47 44
47 50
47 53
47 54
48 42
48 46
48 49
48 51
49 43
49 48
49 51
49 52
50 45
50 47
50 52
50 54
51 48
51 49
52 49
52 50
53 47
53 54
54 47
54 50
54 53
