1 2
1 6
1 7
2 1
2 4
2 7
2 9
3 8
4 2
4 8
4 9
4 10
5 6
5 12
6 1
6 5
6 7
6 11
6 12
7 1
7 2
7 6
7 9
7 11
7 12
8 3
8 4
8 10
8 13
8 15
9 2
9 4
9 7
9 10
9 11
9 16
9 17
10 4
10 8
10 9
10 13
10 16
10 17
11 6
11 7
11 9
11 12
11 17
11 18
11 19
12 5
12 6
12 7
12 11
12 14
12 18
12 19
13 8
13 10
13 15
13 16
13 21
14 12
14 19
14 22
15 8
15 13
15 21
16 9
16 10
16 13
16 17
16 23
17 9
17 10
17 11
17 16
17 18
17 20
17 23
18 11
18 12
18 17
18 19
18 20
18 24
19 11
19 12
19 14
19 18
19 20
19 22
19 24
20 17
20 18
20 19
20 23
20 24
20 26
21 13
21 15
21 23
21 25
22 14
22 19
22 24
22 27
23 16
23 17
23 20
23 21
23 25
23 26
23 28
23 29
24 18
24 19
24 20
24 22
24 26
24 27
24 30
25 21
25 23
25 28
25 29
25 31
25 32
26 20
26 23
26 24
26 28
26 30
27 22
27 24
27 30
27 33
27 36
28 23
28 25
28 26
28 29
28 34
29 23
29 25
29 28
29 32
29 34
29 38
30 24
30 26
30 27
30 35
30 37
31 25
31 32
32 25
32 29
32 31
32 38
32 39
33 27
33 36
33 42
34 28
34 29
34 37
34 38
34 40
34 41
35 30
35 36
35 37
35 43
36 27
36 33
36 35
36 42
37 30
37 34
37 35
37 40
37 43
37 44
38 29
38 32
38 34
38 39
38 40
38 41
38 45
39 32
39 38
39 41
39 45
40 34
40 37
40 38
40 41
40 44
41 34
41 38
41 39
41 40
41 45
41 46
42 33
42 36
42 43
43 35
43 37
43 42
43 44
43 48
44 37
44 40
44 43
44 47
44 48
45 38
45 39
45 41
45 46
45 49
46 41
46 45
46 49
47 44
47 48
48 43
48 44
48 47
49 45
49 46
