1 2
1 3
1 6
1 9
1 10
1 11
1 13
1 14
2 1
2 10
2 11
2 13
2 18
3 1
3 6
3 7
3 9
3 10
3 13
3 14
3 15
4 5
4 7
4 8
4 12
4 16
4 17
5 4
5 6
5 7
5 8
5 12
5 15
5 16
5 17
6 1
6 3
6 5
6 7
6 8
6 9
6 13
6 14
6 15
6 19
6 20
6 23
7 3
7 4
7 5
7 6
7 8
7 9
7 12
7 14
7 15
7 16
7 17
7 19
7 23
8 4
8 5
8 6
8 7
8 12
8 14
8 15
8 16
8 17
9 1
9 3
9 6
9 7
9 10
9 13
9 14
9 15
9 18
9 19
9 20
9 21
9 23
10 1
10 2
10 3
10 9
10 11
10 13
10 18
10 20
10 21
10 22
10 26
11 1
11 2
11 10
11 13
11 18
11 21
11 22
12 4
12 5
12 7
12 8
12 15
12 16
12 17
12 24
12 25
13 1
13 2
13 3
13 6
13 9
13 10
13 11
13 14
13 18
13 19
13 20
13 21
13 22
13 26
14 1
14 3
14 6
14 7
14 8
14 9
14 13
14 15
14 17
14 19
14 20
14 21
14 23
14 27
15 3
15 5
15 6
15 7
15 8
15 9
15 12
15 14
15 16
15 17
15 19
15 20
15 23
15 25
15 27
15 29
16 4
16 5
16 7
16 8
16 12
16 15
16 17
16 23
16 24
16 25
16 32
17 4
17 5
17 7
17 8
17 12
17 14
17 15
17 16
17 19
17 23
17 24
17 25
17 30
17 33
18 2
18 9
18 10
18 11
18 13
18 20
18 21
18 22
18 26
18 28
18 34
19 6
19 7
19 9
19 13
19 14
19 15
19 17
19 20
19 21
19 23
19 25
19 26
19 27
19 29
19 30
19 31
19 36
20 6
20 9
20 10
20 13
20 14
20 15
20 18
20 19
20 21
20 23
20 26
20 27
20 28
20 29
20 31
20 34
21 9
21 10
21 11
21 13
21 14
21 18
21 19
21 20
21 22
21 26
21 27
21 28
21 31
21 34
22 10
22 11
22 13
22 18
22 21
22 26
22 28
22 35
23 6
23 7
23 9
23 14
23 15
23 16
23 17
23 19
23 20
23 24
23 25
23 27
23 29
23 30
23 31
23 33
23 36
24 12
24 16
24 17
24 23
24 25
24 30
24 32
24 33
25 12
25 15
25 16
25 17
25 19
25 23
25 24
25 27
25 29
25 30
25 32
25 33
26 10
26 13
26 18
26 19
26 20
26 21
26 22
26 27
26 28
26 31
26 34
26 35
26 37
26 38
26 39
27 14
27 15
27 19
27 20
27 21
27 23
27 25
27 26
27 29
27 30
27 31
27 34
27 36
27 38
27 39
27 40
27 43
28 18
28 20
28 21
28 22
28 26
28 31
28 34
28 35
28 37
28 38
29 15
29 19
29 20
29 23
29 25
29 27
29 30
29 31
29 33
29 36
29 38
29 39
29 40
29 42
29 43
30 17
30 19
30 23
30 24
30 25
30 27
30 29
30 31
30 32
30 33
30 36
30 40
30 41
30 42
30 43
31 19
31 20
31 21
31 23
31 26
31 27
31 28
31 29
31 30
31 34
31 36
31 37
31 38
31 39
31 40
31 43
31 45
32 16
32 24
32 25
32 30
32 33
32 41
32 42
33 17
33 23
33 24
33 25
33 29
33 30
33 32
33 36
33 40
33 41
33 42
34 18
34 20
34 21
34 26
34 27
34 28
34 31
34 35
34 36
34 37
34 38
34 39
34 44
34 45
35 22
35 26
35 28
35 34
35 37
35 44
36 19
36 23
36 27
36 29
36 30
36 31
36 33
36 34
36 38
36 39
36 40
36 42
36 43
36 45
37 26
37 28
37 31
37 34
37 35
37 38
37 39
37 44
37 45
37 47
38 26
38 27
38 28
38 29
38 31
38 34
38 36
38 37
38 39
38 40
38 43
38 44
38 45
39 26
39 27
39 29
39 31
39 34
39 36
39 37
39 38
39 40
39 42
39 43
39 45
39 49
40 27
40 29
40 30
40 31
40 33
40 36
40 38
40 39
40 41
40 42
40 43
40 45
40 48
40 49
40 51
41 30
41 32
41 33
41 40
41 42
41 46
41 48
41 51
42 29
42 30
42 32
42 33
42 36
42 39
42 40
42 41
42 43
42 46
42 48
42 49
42 51
43 27
43 29
43 30
43 31
43 36
43 38
43 39
43 40
43 42
43 45
43 48
43 49
43 51
43 52
44 34
44 35
44 37
44 38
44 45
44 47
44 50
44 53
45 31
45 34
45 36
45 37
45 38
45 39
45 40
45 43
45 44
45 47
45 49
45 50
45 52
46 41
46 42
46 48
46 51
47 37
47 44
47 45
47 50
47 53
47 54
48 40
48 41
48 42
48 43
48 46
48 49
48 51
48 52
49 39
49 40
49 42
49 43
49 45
49 48
49 50
49 51
49 52
50 44
50 45
50 47
50 49
50 52
50 53
50 54
51 40
51 41
51 42
51 43
51 46
51 48
51 49
51 52
52 43
52 45
52 48
52 49
52 50
52 51
52 54
53 44
53 47
53 50
53 54
54 47
54 50
54 52
54 53
