1 7
2 4
2 7
2 8
3 5
3 6
3 10
4 2
4 6
4 9
5 3
5 10
5 11
6 3
6 4
6 9
7 1
7 2
7 8
7 13
8 2
8 7
8 12
8 13
8 16
9 4
9 6
9 12
9 14
9 18
10 3
10 5
10 11
10 14
10 19
11 5
11 10
11 17
12 8
12 9
12 13
12 16
12 20
13 7
13 8
13 12
13 15
13 16
13 20
13 21
14 9
14 10
14 18
14 19
15 13
15 21
16 8
16 12
16 13
16 20
16 21
16 24
17 11
17 23
18 9
18 14
18 19
18 22
18 26
19 10
19 14
19 18
19 23
19 27
20 12
20 13
20 16
20 21
20 22
20 24
20 25
21 13
21 15
21 16
21 20
21 24
21 28
21 30
22 18
22 20
22 25
22 26
23 17
23 19
23 27
23 29
23 32
24 16
24 20
24 21
24 25
24 28
24 30
25 20
25 22
25 24
25 30
25 33
26 18
26 22
26 27
26 31
27 19
27 23
27 26
27 31
27 32
27 37
28 21
28 24
28 30
28 36
29 23
29 32
29 34
30 21
30 24
30 25
30 28
30 35
30 36
31 26
31 27
31 33
31 37
31 38
32 23
32 27
32 29
32 34
32 37
32 39
33 25
33 31
33 35
33 38
34 29
34 32
34 39
34 41
35 30
35 33
35 36
35 40
35 43
35 45
36 28
36 30
36 35
36 43
36 45
37 27
37 31
37 32
37 38
37 39
37 42
37 44
38 31
38 33
38 37
38 40
38 42
38 44
39 32
39 34
39 37
39 41
39 42
39 46
40 35
40 38
40 43
40 44
40 48
40 50
41 34
41 39
41 46
42 37
42 38
42 39
42 44
42 46
42 47
43 35
43 36
43 40
43 45
43 48
43 52
44 37
44 38
44 40
44 42
44 47
44 50
44 53
45 35
45 36
45 43
45 48
45 49
45 52
46 39
46 41
46 42
46 47
46 51
47 42
47 44
47 46
47 51
47 54
48 40
48 43
48 45
48 50
48 52
49 45
49 52
49 55
50 40
50 44
50 48
50 52
50 53
50 54
50 57
51 46
51 47
51 54
51 56
51 58
52 43
52 45
52 48
52 49
52 50
52 55
52 57
53 44
53 50
53 54
53 57
54 47
54 50
54 51
54 53
54 58
55 49
55 52
56 51
56 58
57 50
57 52
57 53
58 51
58 54
58 56
