1 6
1 7
1 10
1 11
1 12
2 3
2 4
2 5
2 8
2 9
2 13
3 2
3 4
3 5
3 8
3 9
3 13
4 2
4 3
4 7
4 9
4 10
4 14
4 15
5 2
5 3
5 8
5 13
5 16
6 1
6 7
6 10
6 11
6 12
6 17
7 1
7 4
7 6
7 10
7 11
7 12
7 14
7 15
8 2
8 3
8 5
8 9
8 13
8 16
8 18
9 2
9 3
9 4
9 8
9 10
9 13
9 14
9 15
9 18
10 1
10 4
10 6
10 7
10 9
10 11
10 14
10 15
10 17
10 18
10 19
10 21
11 1
11 6
11 7
11 10
11 12
11 14
11 17
11 19
11 20
11 21
12 1
12 6
12 7
12 11
12 17
12 20
13 2
13 3
13 5
13 8
13 9
13 15
13 16
13 18
13 22
13 23
14 4
14 7
14 9
14 10
14 11
14 15
14 17
14 18
14 19
14 21
14 24
14 25
15 4
15 7
15 9
15 10
15 13
15 14
15 18
15 19
15 21
15 23
15 24
15 25
16 5
16 8
16 13
16 18
16 22
17 6
17 10
17 11
17 12
17 14
17 19
17 20
17 21
17 25
17 26
17 28
18 8
18 9
18 10
18 13
18 14
18 15
18 16
18 19
18 22
18 23
18 24
18 27
19 10
19 11
19 14
19 15
19 17
19 18
19 21
19 23
19 24
19 25
19 26
19 29
20 11
20 12
20 17
20 21
20 26
20 28
21 10
21 11
21 14
21 15
21 17
21 19
21 20
21 24
21 25
21 26
21 28
21 29
21 31
21 32
22 13
22 16
22 18
22 23
22 24
22 27
22 30
23 13
23 15
23 18
23 19
23 22
23 24
23 25
23 27
23 29
23 33
24 14
24 15
24 18
24 19
24 21
24 22
24 23
24 25
24 27
24 29
24 33
25 14
25 15
25 17
25 19
25 21
25 23
25 24
25 26
25 28
25 29
25 31
25 32
26 17
26 19
26 20
26 21
26 25
26 28
26 29
26 31
26 32
27 18
27 22
27 23
27 24
27 29
27 30
27 33
27 34
27 36
28 17
28 20
28 21
28 25
28 26
28 31
28 32
29 19
29 21
29 23
29 24
29 25
29 26
29 27
29 31
29 32
29 33
29 35
30 22
30 27
30 34
30 36
30 39
31 21
31 25
31 26
31 28
31 29
31 32
31 33
31 35
31 38
31 41
32 21
32 25
32 26
32 28
32 29
32 31
32 35
32 38
33 23
33 24
33 27
33 29
33 31
33 35
33 36
33 37
33 40
33 42
33 44
34 27
34 30
34 36
34 39
34 45
35 29
35 31
35 32
35 33
35 36
35 37
35 38
35 40
35 41
35 42
35 44
36 27
36 30
36 33
36 34
36 35
36 37
36 39
36 42
36 44
36 45
36 46
37 33
37 35
37 36
37 40
37 41
37 42
37 44
37 45
37 49
38 31
38 32
38 35
38 40
38 41
38 43
38 47
38 48
39 30
39 34
39 36
39 42
39 45
39 46
40 33
40 35
40 37
40 38
40 41
40 42
40 44
40 48
40 49
41 31
41 35
41 37
41 38
41 40
41 44
41 47
41 48
41 49
42 33
42 35
42 36
42 37
42 39
42 40
42 44
42 45
42 46
42 49
43 38
43 47
43 48
44 33
44 35
44 36
44 37
44 40
44 41
44 42
44 45
44 49
45 34
45 36
45 37
45 39
45 42
45 44
45 46
46 36
46 39
46 42
46 45
47 38
47 41
47 43
47 48
48 38
48 40
48 41
48 43
48 47
48 49
49 37
49 40
49 41
49 42
49 44
49 48
