1 2
1 3
1 5
1 6
1 7
1 8
1 10
1 15
1 16
1 17
2 1
2 3
2 5
2 6
2 7
2 10
2 11
2 15
2 16
3 1
3 2
3 5
3 6
3 7
3 8
3 10
3 11
3 12
3 15
3 16
3 17
3 20
4 5
4 8
4 9
4 10
4 12
4 13
4 14
4 17
4 18
4 19
4 21
5 1
5 2
5 3
5 4
5 6
5 7
5 8
5 10
5 12
5 13
5 15
5 16
5 17
5 19
5 20
5 23
6 1
6 2
6 3
6 5
6 7
6 10
6 11
6 15
6 16
6 17
6 20
6 22
6 23
7 1
7 2
7 3
7 5
7 6
7 8
7 10
7 11
7 12
7 15
7 16
7 17
7 19
7 20
7 23
8 1
8 3
8 4
8 5
8 7
8 9
8 10
8 12
8 13
8 14
8 16
8 17
8 18
8 19
8 24
8 25
9 4
9 8
9 12
9 13
9 14
9 18
9 21
9 25
10 1
10 2
10 3
10 4
10 5
10 6
10 7
10 8
10 12
10 13
10 15
10 16
10 17
10 18
10 19
10 20
10 23
10 24
10 26
10 27
10 29
11 2
11 3
11 6
11 7
11 15
11 16
11 20
11 22
11 26
12 3
12 4
12 5
12 7
12 8
12 9
12 10
12 13
12 14
12 16
12 17
12 18
12 19
12 21
12 23
12 24
12 25
12 27
13 4
13 5
13 8
13 9
13 10
13 12
13 14
13 17
13 18
13 19
13 21
13 24
13 25
13 27
13 28
13 31
14 4
14 8
14 9
14 12
14 13
14 18
14 19
14 21
14 24
14 25
14 28
15 1
15 2
15 3
15 5
15 6
15 7
15 10
15 11
15 16
15 17
15 20
15 22
15 23
15 26
15 30
15 32
16 1
16 2
16 3
16 5
16 6
16 7
16 8
16 10
16 11
16 12
16 15
16 17
16 19
16 20
16 22
16 23
16 26
16 29
16 30
17 1
17 3
17 4
17 5
17 6
17 7
17 8
17 10
17 12
17 13
17 15
17 16
17 18
17 19
17 20
17 23
17 24
17 25
17 26
17 27
17 29
17 30
17 33
18 4
18 8
18 9
18 10
18 12
18 13
18 14
18 17
18 19
18 21
18 24
18 25
18 27
18 28
18 31
18 34
18 35
19 4
19 5
19 7
19 8
19 10
19 12
19 13
19 14
19 16
19 17
19 18
19 20
19 21
19 23
19 24
19 25
19 27
19 28
19 29
19 30
19 31
19 33
19 34
20 3
20 5
20 6
20 7
20 10
20 11
20 15
20 16
20 17
20 19
20 22
20 23
20 26
20 29
20 30
20 32
20 33
20 36
20 37
21 4
21 9
21 12
21 13
21 14
21 18
21 19
21 24
21 25
21 27
21 28
21 31
21 35
21 38
22 6
22 11
22 15
22 16
22 20
22 23
22 26
22 30
22 32
22 36
22 37
23 5
23 6
23 7
23 10
23 12
23 15
23 16
23 17
23 19
23 20
23 22
23 24
23 26
23 27
23 29
23 30
23 32
23 33
23 34
23 36
23 37
23 41
24 8
24 10
24 12
24 13
24 14
24 17
24 18
24 19
24 21
24 23
24 25
24 27
24 28
24 29
24 31
24 33
24 34
24 35
24 39
24 40
25 8
25 9
25 12
25 13
25 14
25 17
25 18
25 19
25 21
25 24
25 27
25 28
25 29
25 31
25 33
25 34
25 35
25 38
25 39
25 40
25 42
26 10
26 11
26 15
26 16
26 17
26 20
26 22
26 23
26 29
26 30
26 32
26 33
26 36
26 37
26 41
26 44
27 10
27 12
27 13
27 17
27 18
27 19
27 21
27 23
27 24
27 25
27 28
27 29
27 30
27 31
27 33
27 34
27 35
27 38
27 39
27 40
27 43
27 45
28 13
28 14
28 18
28 19
28 21
28 24
28 25
28 27
28 31
28 34
28 35
28 38
28 39
28 40
28 42
29 10
29 16
29 17
29 19
29 20
29 23
29 24
29 25
29 26
29 27
29 30
29 31
29 32
29 33
29 34
29 36
29 37
29 39
29 41
29 43
30 15
30 16
30 17
30 19
30 20
30 22
30 23
30 26
30 27
30 29
30 32
30 33
30 34
30 36
30 37
30 41
30 43
30 44
30 46
30 47
31 13
31 18
31 19
31 21
31 24
31 25
31 27
31 28
31 29
31 33
31 34
31 35
31 38
31 39
31 40
31 42
31 43
31 45
31 50
32 15
32 20
32 22
32 23
32 26
32 29
32 30
32 33
32 36
32 37
32 41
32 44
32 46
33 17
33 19
33 20
33 23
33 24
33 25
33 26
33 27
33 29
33 30
33 31
33 32
33 34
33 36
33 37
33 39
33 41
33 43
33 44
33 45
33 47
33 49
33 51
34 18
34 19
34 23
34 24
34 25
34 27
34 28
34 29
34 30
34 31
34 33
34 35
34 37
34 38
34 39
34 40
34 41
34 42
34 43
34 45
34 49
34 50
34 51
35 18
35 21
35 24
35 25
35 27
35 28
35 31
35 34
35 38
35 39
35 40
35 42
35 45
35 48
35 50
36 20
36 22
36 23
36 26
36 29
36 30
36 32
36 33
36 37
36 41
36 43
36 44
36 46
36 47
36 52
37 20
37 22
37 23
37 26
37 29
37 30
37 32
37 33
37 34
37 36
37 41
37 43
37 44
37 46
37 47
37 49
37 51
37 52
37 53
38 21
38 25
38 27
38 28
38 31
38 34
38 35
38 39
38 40
38 42
38 45
38 48
38 50
39 24
39 25
39 27
39 28
39 29
39 31
39 33
39 34
39 35
39 38
39 40
39 42
39 43
39 45
39 48
39 49
39 50
39 51
39 54
39 55
40 24
40 25
40 27
40 28
40 31
40 34
40 35
40 38
40 39
40 42
40 43
40 45
40 48
40 49
40 50
40 54
40 55
41 23
41 26
41 29
41 30
41 32
41 33
41 34
41 36
41 37
41 43
41 44
41 46
41 47
41 49
41 51
41 52
41 53
41 57
41 58
42 25
42 28
42 31
42 34
42 35
42 38
42 39
42 40
42 45
42 48
42 50
42 55
42 59
43 27
43 29
43 30
43 31
43 33
43 34
43 36
43 37
43 39
43 40
43 41
43 44
43 45
43 46
43 47
43 49
43 50
43 51
43 52
43 53
43 54
43 56
43 58
44 26
44 30
44 32
44 33
44 36
44 37
44 41
44 43
44 46
44 47
44 51
44 52
44 53
44 57
44 58
45 27
45 31
45 33
45 34
45 35
45 38
45 39
45 40
45 42
45 43
45 47
45 48
45 49
45 50
45 51
45 54
45 55
45 56
45 60
45 61
45 62
46 30
46 32
46 36
46 37
46 41
46 43
46 44
46 47
46 51
46 52
46 53
46 57
46 58
46 63
47 30
47 33
47 36
47 37
47 41
47 43
47 44
47 45
47 46
47 49
47 51
47 52
47 53
47 54
47 56
47 57
47 58
47 61
47 63
48 35
48 38
48 39
48 40
48 42
48 45
48 50
48 54
48 55
48 59
48 62
49 33
49 34
49 37
49 39
49 40
49 41
49 43
49 45
49 47
49 50
49 51
49 52
49 53
49 54
49 55
49 56
49 58
49 60
49 61
49 62
49 63
50 31
50 34
50 35
50 38
50 39
50 40
50 42
50 43
50 45
50 48
50 49
50 51
50 54
50 55
50 56
50 59
50 60
50 61
50 62
51 33
51 34
51 37
51 39
51 41
51 43
51 44
51 45
51 46
51 47
51 49
51 50
51 52
51 53
51 54
51 55
51 56
51 57
51 58
51 60
51 61
51 63
52 36
52 37
52 41
52 43
52 44
52 46
52 47
52 49
52 51
52 53
52 56
52 57
52 58
52 63
53 37
53 41
53 43
53 44
53 46
53 47
53 49
53 51
53 52
53 54
53 56
53 57
53 58
53 60
53 61
53 63
54 39
54 40
54 43
54 45
54 47
54 48
54 49
54 50
54 51
54 53
54 55
54 56
54 58
54 59
54 60
54 61
54 62
54 63
55 39
55 40
55 42
55 45
55 48
55 49
55 50
55 51
55 54
55 56
55 59
55 60
55 61
55 62
56 43
56 45
56 47
56 49
56 50
56 51
56 52
56 53
56 54
56 55
56 57
56 58
56 60
56 61
56 62
56 63
57 41
57 44
57 46
57 47
57 51
57 52
57 53
57 56
57 58
57 63
58 41
58 43
58 44
58 46
58 47
58 49
58 51
58 52
58 53
58 54
58 56
58 57
58 60
58 61
58 63
59 42
59 48
59 50
59 54
59 55
59 60
59 62
60 45
60 49
60 50
60 51
60 53
60 54
60 55
60 56
60 58
60 59
60 61
60 62
60 63
61 45
61 47
61 49
61 50
61 51
61 53
61 54
61 55
61 56
61 58
61 60
61 62
61 63
62 45
62 48
62 49
62 50
62 54
62 55
62 56
62 59
62 60
62 61
63 46
63 47
63 49
63 51
63 52
63 53
63 54
63 56
63 57
63 58
63 60
63 61
