1 2
1 3
1 8
1 9
1 10
2 1
2 3
2 5
2 6
2 8
2 9
2 13
2 14
2 15
2 16
3 1
3 2
3 5
3 8
3 9
3 10
3 14
3 15
4 5
4 6
4 7
4 11
4 12
4 17
5 2
5 3
5 4
5 6
5 7
5 8
5 9
5 13
5 14
5 16
5 17
5 19
6 2
6 4
6 5
6 7
6 9
6 11
6 12
6 13
6 14
6 16
6 17
6 19
6 20
7 4
7 5
7 6
7 11
7 12
7 13
7 16
7 17
7 19
7 20
8 1
8 2
8 3
8 5
8 9
8 10
8 14
8 15
8 16
8 18
8 22
9 1
9 2
9 3
9 5
9 6
9 8
9 10
9 13
9 14
9 15
9 16
9 18
9 19
9 21
9 22
10 1
10 3
10 8
10 9
10 14
10 15
10 18
10 22
11 4
11 6
11 7
11 12
11 13
11 17
11 20
12 4
12 6
12 7
12 11
12 13
12 17
12 19
12 20
12 23
12 26
13 2
13 5
13 6
13 7
13 9
13 11
13 12
13 14
13 15
13 16
13 17
13 19
13 20
13 21
13 23
13 26
13 28
14 2
14 3
14 5
14 6
14 8
14 9
14 10
14 13
14 15
14 16
14 17
14 18
14 19
14 21
14 22
14 24
14 27
14 28
15 2
15 3
15 8
15 9
15 10
15 13
15 14
15 16
15 18
15 19
15 21
15 22
15 24
15 25
15 27
16 2
16 5
16 6
16 7
16 8
16 9
16 13
16 14
16 15
16 17
16 19
16 20
16 21
16 22
16 23
16 24
16 28
17 4
17 5
17 6
17 7
17 11
17 12
17 13
17 14
17 16
17 19
17 20
17 21
17 23
17 26
17 28
17 29
18 8
18 9
18 10
18 14
18 15
18 22
18 24
18 25
18 27
18 32
19 5
19 6
19 7
19 9
19 12
19 13
19 14
19 15
19 16
19 17
19 20
19 21
19 23
19 24
19 26
19 28
19 29
19 31
19 33
20 6
20 7
20 11
20 12
20 13
20 16
20 17
20 19
20 23
20 26
20 29
20 34
21 9
21 13
21 14
21 15
21 16
21 17
21 19
21 22
21 23
21 24
21 26
21 27
21 28
21 29
21 30
21 31
21 33
22 8
22 9
22 10
22 14
22 15
22 16
22 18
22 21
22 24
22 25
22 27
22 28
22 30
22 31
22 32
22 35
22 37
23 12
23 13
23 16
23 17
23 19
23 20
23 21
23 24
23 26
23 28
23 29
23 31
23 33
23 34
23 36
24 14
24 15
24 16
24 18
24 19
24 21
24 22
24 23
24 25
24 27
24 28
24 30
24 31
24 32
24 33
24 35
24 37
25 15
25 18
25 22
25 24
25 27
25 30
25 32
25 35
25 38
26 12
26 13
26 17
26 19
26 20
26 21
26 23
26 28
26 29
26 33
26 34
26 36
26 39
26 41
27 14
27 15
27 18
27 21
27 22
27 24
27 25
27 28
27 30
27 31
27 32
27 35
27 37
27 38
28 13
28 14
28 16
28 17
28 19
28 21
28 22
28 23
28 24
28 26
28 27
28 29
28 30
28 31
28 33
28 35
28 36
28 37
28 40
29 17
29 19
29 20
29 21
29 23
29 26
29 28
29 31
29 33
29 34
29 36
29 39
29 41
30 21
30 22
30 24
30 25
30 27
30 28
30 31
30 32
30 33
30 35
30 36
30 37
30 38
30 40
30 43
30 44
31 19
31 21
31 22
31 23
31 24
31 27
31 28
31 29
31 30
31 32
31 33
31 35
31 36
31 37
31 40
31 43
31 46
32 18
32 22
32 24
32 25
32 27
32 30
32 31
32 35
32 37
32 38
32 42
32 44
33 19
33 21
33 23
33 24
33 26
33 28
33 29
33 30
33 31
33 34
33 36
33 37
33 39
33 40
33 41
33 43
33 45
33 46
34 20
34 23
34 26
34 29
34 33
34 36
34 39
34 41
35 22
35 24
35 25
35 27
35 28
35 30
35 31
35 32
35 37
35 38
35 40
35 42
35 44
35 46
36 23
36 26
36 28
36 29
36 30
36 31
36 33
36 34
36 37
36 39
36 40
36 41
36 43
36 45
36 46
36 48
36 50
37 22
37 24
37 27
37 28
37 30
37 31
37 32
37 33
37 35
37 36
37 38
37 40
37 42
37 43
37 44
37 46
37 48
38 25
38 27
38 30
38 32
38 35
38 37
38 42
38 44
38 47
38 51
39 26
39 29
39 33
39 34
39 36
39 40
39 41
39 43
39 45
39 46
39 48
39 49
39 50
40 28
40 30
40 31
40 33
40 35
40 36
40 37
40 39
40 43
40 44
40 45
40 46
40 48
40 50
41 26
41 29
41 33
41 34
41 36
41 39
41 43
41 45
41 48
41 49
41 50
42 32
42 35
42 37
42 38
42 44
42 47
42 51
43 30
43 31
43 33
43 36
43 37
43 39
43 40
43 41
43 44
43 45
43 46
43 48
43 49
43 50
44 30
44 32
44 35
44 37
44 38
44 40
44 42
44 43
44 46
44 47
44 48
44 51
45 33
45 36
45 39
45 40
45 41
45 43
45 46
45 48
45 49
45 50
46 31
46 33
46 35
46 36
46 37
46 39
46 40
46 43
46 44
46 45
46 48
46 50
46 51
47 38
47 42
47 44
47 51
48 36
48 37
48 39
48 40
48 41
48 43
48 44
48 45
48 46
48 49
48 50
49 39
49 41
49 43
49 45
49 48
49 50
50 36
50 39
50 40
50 41
50 43
50 45
50 46
50 48
50 49
51 38
51 42
51 44
51 46
51 47
