1 2
1 3
1 4
1 7
1 8
1 10
1 12
2 1
2 4
2 5
2 6
2 9
2 10
2 11
3 1
3 4
3 7
3 8
3 10
3 12
3 14
4 1
4 2
4 3
4 5
4 6
4 7
4 10
4 11
4 12
4 15
5 2
5 4
5 6
5 9
5 10
5 11
5 13
5 15
6 2
6 4
6 5
6 9
6 11
6 13
6 17
7 1
7 3
7 4
7 8
7 10
7 12
7 14
7 16
8 1
8 3
8 7
8 10
8 12
8 14
8 16
8 18
9 2
9 5
9 6
9 13
9 17
10 1
10 2
10 3
10 4
10 5
10 7
10 8
10 11
10 12
10 13
10 14
10 15
10 16
10 20
11 2
11 4
11 5
11 6
11 10
11 12
11 13
11 15
11 16
11 19
12 1
12 3
12 4
12 7
12 8
12 10
12 11
12 14
12 15
12 16
12 18
12 20
13 5
13 6
13 9
13 10
13 11
13 15
13 17
13 19
13 21
13 22
14 3
14 7
14 8
14 10
14 12
14 16
14 18
14 20
14 23
14 25
15 4
15 5
15 10
15 11
15 12
15 13
15 16
15 17
15 19
15 20
15 21
15 24
16 7
16 8
16 10
16 11
16 12
16 14
16 15
16 18
16 19
16 20
16 23
16 24
16 25
17 6
17 9
17 13
17 15
17 19
17 21
17 22
18 8
18 12
18 14
18 16
18 20
18 23
18 25
18 28
19 11
19 13
19 15
19 16
19 17
19 20
19 21
19 22
19 23
19 24
19 26
19 27
19 29
19 30
20 10
20 12
20 14
20 15
20 16
20 18
20 19
20 21
20 23
20 24
20 25
20 26
20 28
20 29
20 30
21 13
21 15
21 17
21 19
21 20
21 22
21 24
21 26
21 27
21 29
21 30
21 32
21 34
22 13
22 17
22 19
22 21
22 26
22 27
22 30
22 32
23 14
23 16
23 18
23 19
23 20
23 24
23 25
23 26
23 28
23 29
23 30
23 31
23 33
23 35
24 15
24 16
24 19
24 20
24 21
24 23
24 25
24 26
24 27
24 28
24 29
24 30
24 33
24 34
24 35
25 14
25 16
25 18
25 20
25 23
25 24
25 28
25 29
25 31
25 33
25 36
26 19
26 20
26 21
26 22
26 23
26 24
26 27
26 29
26 30
26 32
26 34
26 35
27 19
27 21
27 22
27 24
27 26
27 30
27 32
27 34
27 37
28 18
28 20
28 23
28 24
28 25
28 29
28 30
28 31
28 33
28 35
28 36
28 39
29 19
29 20
29 21
29 23
29 24
29 25
29 26
29 28
29 30
29 31
29 33
29 34
29 35
29 36
29 38
30 19
30 20
30 21
30 22
30 23
30 24
30 26
30 27
30 28
30 29
30 32
30 33
30 34
30 35
30 38
31 23
31 25
31 28
31 29
31 33
31 36
31 39
32 21
32 22
32 26
32 27
32 30
32 34
32 37
33 23
33 24
33 25
33 28
33 29
33 30
33 31
33 35
33 36
33 38
33 39
34 21
34 24
34 26
34 27
34 29
34 30
34 32
34 35
34 37
34 38
35 23
35 24
35 26
35 28
35 29
35 30
35 33
35 34
35 36
35 38
35 39
36 25
36 28
36 29
36 31
36 33
36 35
36 39
37 27
37 32
37 34
37 38
38 29
38 30
38 33
38 34
38 35
38 37
39 28
39 31
39 33
39 35
39 36
