1 7
1 8
2 4
2 6
2 9
2 10
3 5
3 7
3 11
4 2
4 5
4 6
4 10
5 3
5 4
5 11
6 2
6 4
6 9
6 10
6 12
7 1
7 3
7 8
7 11
7 13
7 16
8 1
8 7
8 16
9 2
9 6
9 10
9 14
10 2
10 4
10 6
10 9
10 12
10 14
10 15
11 3
11 5
11 7
11 12
11 13
11 16
12 6
12 10
12 11
12 13
12 14
12 15
12 19
12 20
13 7
13 11
13 12
13 16
13 18
13 19
14 9
14 10
14 12
14 15
14 17
14 22
15 10
15 12
15 14
15 17
15 19
15 20
16 7
16 8
16 11
16 13
16 18
16 21
16 23
17 14
17 15
17 20
17 22
17 24
18 13
18 16
18 19
18 20
18 21
19 12
19 13
19 15
19 18
19 20
19 21
19 24
20 12
20 15
20 17
20 18
20 19
20 22
20 24
20 26
21 16
21 18
21 19
21 23
21 25
21 27
22 14
22 17
22 20
22 24
22 28
23 16
23 21
23 25
24 17
24 19
24 20
24 22
24 26
24 29
25 21
25 23
25 27
25 30
25 31
25 32
25 33
26 20
26 24
26 27
26 29
26 31
26 34
26 35
27 21
27 25
27 26
27 30
27 31
27 32
27 33
27 34
27 36
28 22
28 29
29 24
29 26
29 28
29 35
30 25
30 27
30 31
30 32
30 33
30 34
30 36
30 39
31 25
31 26
31 27
31 30
31 32
31 33
31 34
31 36
31 37
32 25
32 27
32 30
32 31
32 33
32 36
32 39
33 25
33 27
33 30
33 31
33 32
33 34
33 36
33 37
33 39
34 26
34 27
34 30
34 31
34 33
34 35
34 36
34 37
35 26
35 29
35 34
35 37
35 38
36 27
36 30
36 31
36 32
36 33
36 34
36 37
36 39
37 31
37 33
37 34
37 35
37 36
37 39
38 35
39 30
39 32
39 33
39 36
39 37
