1 2
1 3
1 5
1 6
1 7
1 10
2 1
2 3
2 6
2 7
2 11
2 15
3 1
3 2
3 5
3 6
3 7
3 10
3 16
4 8
4 9
4 12
4 13
5 1
5 3
5 7
5 8
5 10
5 12
5 16
5 17
6 1
6 2
6 3
6 7
6 11
6 15
6 16
7 1
7 2
7 3
7 5
7 6
7 10
7 15
7 16
7 17
7 20
8 4
8 5
8 10
8 12
8 13
8 17
8 19
9 4
9 13
9 14
9 21
10 1
10 3
10 5
10 7
10 8
10 12
10 16
10 17
10 19
10 20
10 23
11 2
11 6
11 15
11 16
11 22
12 4
12 5
12 8
12 10
12 13
12 17
12 18
12 19
12 24
13 4
13 8
13 9
13 12
13 14
13 18
13 19
13 21
13 24
13 25
14 9
14 13
14 18
14 21
15 2
15 6
15 7
15 11
15 16
15 20
15 22
15 26
16 3
16 5
16 6
16 7
16 10
16 11
16 15
16 17
16 20
16 23
16 26
17 5
17 7
17 8
17 10
17 12
17 16
17 19
17 20
17 23
17 24
18 12
18 13
18 14
18 19
18 21
18 24
18 25
18 27
18 28
18 31
19 8
19 10
19 12
19 13
19 17
19 18
19 23
19 24
19 25
19 27
19 29
20 7
20 10
20 15
20 16
20 17
20 22
20 23
20 26
20 29
20 30
21 9
21 13
21 14
21 18
21 24
21 25
21 28
21 31
22 11
22 15
22 20
22 26
22 32
23 10
23 16
23 17
23 19
23 20
23 26
23 29
23 30
23 33
24 12
24 13
24 17
24 18
24 19
24 21
24 25
24 27
24 28
24 31
24 34
25 13
25 18
25 19
25 21
25 24
25 27
25 28
25 31
25 35
26 15
26 16
26 20
26 22
26 23
26 29
26 30
26 32
26 36
26 37
27 18
27 19
27 24
27 25
27 29
27 31
27 33
27 34
27 39
28 18
28 21
28 24
28 25
28 31
28 35
28 38
29 19
29 20
29 23
29 26
29 27
29 30
29 33
29 34
29 37
30 20
30 23
30 26
30 29
30 32
30 33
30 36
30 37
30 41
31 18
31 21
31 24
31 25
31 27
31 28
31 34
31 35
31 38
31 39
31 40
32 22
32 26
32 30
32 36
32 37
32 41
32 44
33 23
33 27
33 29
33 30
33 34
33 37
33 41
33 43
34 24
34 27
34 29
34 31
34 33
34 39
34 40
34 43
34 45
35 25
35 28
35 31
35 38
35 39
35 40
35 42
36 26
36 30
36 32
36 37
36 41
36 44
36 46
37 26
37 29
37 30
37 32
37 33
37 36
37 41
37 43
37 44
37 47
38 28
38 31
38 35
38 39
38 40
38 42
38 48
39 27
39 31
39 34
39 35
39 38
39 40
39 42
39 43
39 45
39 49
39 50
40 31
40 34
40 35
40 38
40 39
40 42
40 45
40 48
40 50
41 30
41 32
41 33
41 36
41 37
41 43
41 44
41 46
41 47
41 52
41 53
42 35
42 38
42 39
42 40
42 48
42 50
43 33
43 34
43 37
43 39
43 41
43 45
43 47
43 49
43 51
44 32
44 36
44 37
44 41
44 46
44 47
44 52
45 34
45 39
45 40
45 43
45 49
45 50
45 51
45 54
45 55
46 36
46 41
46 44
46 47
46 52
46 53
46 57
47 37
47 41
47 43
47 44
47 46
47 49
47 51
47 52
47 53
47 56
47 57
47 58
48 38
48 40
48 42
48 50
48 55
48 59
49 39
49 43
49 45
49 47
49 50
49 51
49 53
49 54
49 55
49 56
49 60
50 39
50 40
50 42
50 45
50 48
50 49
50 54
50 55
50 60
51 43
51 45
51 47
51 49
51 53
51 54
51 56
51 58
51 61
52 41
52 44
52 46
52 47
52 53
52 57
52 58
53 41
53 46
53 47
53 49
53 51
53 52
53 56
53 57
53 58
53 63
54 45
54 49
54 50
54 51
54 55
54 56
54 60
54 61
54 62
55 45
55 48
55 49
55 50
55 54
55 59
55 60
55 62
56 47
56 49
56 51
56 53
56 54
56 58
56 60
56 61
56 63
57 46
57 47
57 52
57 53
57 58
57 63
58 47
58 51
58 52
58 53
58 56
58 57
58 61
58 63
59 48
59 55
59 62
60 49
60 50
60 54
60 55
60 56
60 61
60 62
61 51
61 54
61 56
61 58
61 60
61 63
62 54
62 55
62 59
62 60
63 53
63 56
63 57
63 58
63 61
