1 2
1 7
1 8
2 1
2 4
2 6
2 7
2 8
2 9
2 12
3 4
3 5
3 6
3 9
3 10
3 11
3 14
4 2
4 3
4 6
4 7
4 8
4 9
4 12
5 3
5 10
5 11
6 2
6 3
6 4
6 9
6 10
6 14
7 1
7 2
7 4
7 8
7 12
7 13
7 16
8 1
8 2
8 4
8 7
8 9
8 12
8 13
8 16
8 20
9 2
9 3
9 4
9 6
9 8
9 10
9 12
9 14
9 18
9 19
9 22
10 3
10 5
10 6
10 9
10 11
10 14
10 17
10 19
10 23
11 3
11 5
11 10
11 14
11 17
11 19
11 23
12 2
12 4
12 7
12 8
12 9
12 13
12 16
12 18
12 20
12 22
12 24
12 25
13 7
13 8
13 12
13 15
13 16
13 20
13 21
13 24
14 3
14 6
14 9
14 10
14 11
14 17
14 18
14 19
14 22
14 23
15 13
15 16
15 20
15 21
15 24
15 28
16 7
16 8
16 12
16 13
16 15
16 20
16 21
16 22
16 24
16 25
17 10
17 11
17 14
17 19
17 23
17 29
18 9
18 12
18 14
18 19
18 20
18 22
18 25
18 26
18 27
18 31
19 9
19 10
19 11
19 14
19 17
19 18
19 22
19 23
19 26
19 27
19 32
20 8
20 12
20 13
20 15
20 16
20 18
20 21
20 22
20 24
20 25
20 30
20 33
21 13
21 15
21 16
21 20
21 24
21 25
21 28
21 30
22 9
22 12
22 14
22 16
22 18
22 19
22 20
22 24
22 25
22 26
22 27
22 31
22 33
23 10
23 11
23 14
23 17
23 19
23 26
23 27
23 29
23 32
23 34
24 12
24 13
24 15
24 16
24 20
24 21
24 22
24 25
24 28
24 30
24 33
24 35
24 36
25 12
25 16
25 18
25 20
25 21
25 22
25 24
25 26
25 28
25 30
25 31
25 33
25 35
26 18
26 19
26 22
26 23
26 25
26 27
26 31
26 32
26 33
26 37
26 38
27 18
27 19
27 22
27 23
27 26
27 31
27 32
27 33
27 37
27 38
27 39
28 15
28 21
28 24
28 25
28 30
28 35
28 36
29 17
29 23
29 32
29 34
29 39
29 41
30 20
30 21
30 24
30 25
30 28
30 33
30 35
30 36
31 18
31 22
31 25
31 26
31 27
31 32
31 33
31 35
31 37
31 38
31 40
31 42
31 44
32 19
32 23
32 26
32 27
32 29
32 31
32 34
32 37
32 39
32 41
32 42
33 20
33 22
33 24
33 25
33 26
33 27
33 30
33 31
33 35
33 36
33 37
33 38
33 40
33 43
34 23
34 29
34 32
34 39
34 41
34 46
35 24
35 25
35 28
35 30
35 31
35 33
35 36
35 38
35 40
35 43
35 45
35 48
36 24
36 28
36 30
36 33
36 35
36 43
36 45
37 26
37 27
37 31
37 32
37 33
37 38
37 39
37 40
37 42
37 44
37 46
37 47
38 26
38 27
38 31
38 33
38 35
38 37
38 39
38 40
38 42
38 43
38 44
38 47
38 50
39 27
39 29
39 32
39 34
39 37
39 38
39 41
39 42
39 44
39 46
39 47
39 51
40 31
40 33
40 35
40 37
40 38
40 42
40 43
40 44
40 45
40 48
40 50
40 53
41 29
41 32
41 34
41 39
41 42
41 46
41 47
41 51
42 31
42 32
42 37
42 38
42 39
42 40
42 41
42 44
42 46
42 47
42 50
42 51
42 53
42 54
43 33
43 35
43 36
43 38
43 40
43 45
43 48
43 49
43 50
43 52
44 31
44 37
44 38
44 39
44 40
44 42
44 46
44 47
44 48
44 50
44 51
44 53
44 54
45 35
45 36
45 40
45 43
45 48
45 49
45 50
45 52
45 55
46 34
46 37
46 39
46 41
46 42
46 44
46 47
46 51
46 54
46 56
46 58
47 37
47 38
47 39
47 41
47 42
47 44
47 46
47 50
47 51
47 53
47 54
47 58
48 35
48 40
48 43
48 44
48 45
48 49
48 50
48 52
48 53
48 55
48 57
49 43
49 45
49 48
49 52
49 55
50 38
50 40
50 42
50 43
50 44
50 45
50 47
50 48
50 52
50 53
50 54
50 57
51 39
51 41
51 42
51 44
51 46
51 47
51 53
51 54
51 56
51 58
52 43
52 45
52 48
52 49
52 50
52 53
52 55
52 57
53 40
53 42
53 44
53 47
53 48
53 50
53 51
53 52
53 54
53 57
53 58
54 42
54 44
54 46
54 47
54 50
54 51
54 53
54 57
54 58
55 45
55 48
55 49
55 52
56 46
56 51
56 58
57 48
57 50
57 52
57 53
57 54
58 46
58 47
58 51
58 53
58 54
58 56
