1 2
1 5
1 7
1 10
1 13
1 14
1 18
2 1
2 4
2 5
2 6
2 7
2 8
2 10
2 11
2 12
2 13
2 15
2 17
2 20
3 4
3 6
3 9
3 11
3 16
3 17
3 19
4 2
4 3
4 6
4 8
4 9
4 11
4 12
4 15
4 16
4 17
4 19
4 22
4 24
5 1
5 2
5 6
5 7
5 8
5 10
5 12
5 13
5 14
5 15
5 21
5 23
6 2
6 3
6 4
6 5
6 8
6 9
6 10
6 11
6 12
6 13
6 15
6 16
6 17
6 20
6 22
6 24
7 1
7 2
7 5
7 8
7 10
7 13
7 14
7 15
7 18
7 21
7 23
7 25
7 26
8 2
8 4
8 5
8 6
8 7
8 10
8 11
8 12
8 13
8 14
8 15
8 17
8 20
8 22
8 23
8 27
9 3
9 4
9 6
9 11
9 12
9 16
9 17
9 19
9 22
9 24
10 1
10 2
10 5
10 6
10 7
10 8
10 12
10 13
10 14
10 15
10 18
10 20
10 21
10 23
10 25
10 26
10 27
11 2
11 3
11 4
11 6
11 8
11 9
11 12
11 15
11 16
11 17
11 19
11 20
11 22
11 24
11 30
12 2
12 4
12 5
12 6
12 8
12 9
12 10
12 11
12 13
12 15
12 16
12 17
12 19
12 20
12 22
12 23
12 24
12 27
12 28
12 30
13 1
13 2
13 5
13 6
13 7
13 8
13 10
13 12
13 14
13 15
13 18
13 20
13 21
13 22
13 23
13 25
13 26
13 27
13 28
13 31
13 32
14 1
14 5
14 7
14 8
14 10
14 13
14 15
14 18
14 21
14 23
14 25
14 26
14 29
14 32
15 2
15 4
15 5
15 6
15 7
15 8
15 10
15 11
15 12
15 13
15 14
15 17
15 20
15 21
15 22
15 23
15 24
15 26
15 27
15 28
15 30
15 31
16 3
16 4
16 6
16 9
16 11
16 12
16 17
16 19
16 22
16 24
16 30
16 33
17 2
17 3
17 4
17 6
17 8
17 9
17 11
17 12
17 15
17 16
17 19
17 20
17 22
17 24
17 28
17 30
17 35
18 1
18 7
18 10
18 13
18 14
18 21
18 23
18 25
18 26
18 29
18 32
18 34
19 3
19 4
19 9
19 11
19 12
19 16
19 17
19 22
19 24
19 28
19 30
19 33
19 35
19 38
20 2
20 6
20 8
20 10
20 11
20 12
20 13
20 15
20 17
20 21
20 22
20 23
20 24
20 26
20 27
20 28
20 30
20 31
20 32
20 35
20 36
20 37
20 39
20 41
21 5
21 7
21 10
21 13
21 14
21 15
21 18
21 20
21 23
21 25
21 26
21 27
21 29
21 31
21 32
21 34
21 37
22 4
22 6
22 8
22 9
22 11
22 12
22 13
22 15
22 16
22 17
22 19
22 20
22 23
22 24
22 27
22 28
22 30
22 31
22 35
22 36
22 38
22 39
22 40
22 41
23 5
23 7
23 8
23 10
23 12
23 13
23 14
23 15
23 18
23 20
23 21
23 22
23 25
23 26
23 27
23 28
23 29
23 31
23 32
23 34
23 36
23 37
23 39
23 42
24 4
24 6
24 9
24 11
24 12
24 15
24 16
24 17
24 19
24 20
24 22
24 28
24 30
24 33
24 35
24 36
24 38
24 40
25 7
25 10
25 13
25 14
25 18
25 21
25 23
25 26
25 27
25 29
25 31
25 32
25 34
25 37
25 45
26 7
26 10
26 13
26 14
26 15
26 18
26 20
26 21
26 23
26 25
26 27
26 28
26 29
26 31
26 32
26 34
26 36
26 37
26 39
26 42
26 44
26 45
27 8
27 10
27 12
27 13
27 15
27 20
27 21
27 22
27 23
27 25
27 26
27 28
27 30
27 31
27 32
27 34
27 35
27 36
27 37
27 39
27 40
27 41
27 42
27 44
27 46
28 12
28 13
28 15
28 17
28 19
28 20
28 22
28 23
28 24
28 26
28 27
28 30
28 31
28 32
28 35
28 36
28 37
28 38
28 39
28 40
28 41
28 42
28 46
29 14
29 18
29 21
29 23
29 25
29 26
29 32
29 34
29 45
30 11
30 12
30 15
30 16
30 17
30 19
30 20
30 22
30 24
30 27
30 28
30 33
30 35
30 36
30 38
30 39
30 40
30 41
30 43
30 47
31 13
31 15
31 20
31 21
31 22
31 23
31 25
31 26
31 27
31 28
31 32
31 34
31 36
31 37
31 39
31 40
31 41
31 42
31 44
31 45
31 46
31 50
31 51
32 13
32 14
32 18
32 20
32 21
32 23
32 25
32 26
32 27
32 28
32 29
32 31
32 34
32 36
32 37
32 39
32 42
32 44
32 45
32 50
32 52
33 16
33 19
33 24
33 30
33 35
33 38
33 40
33 43
33 47
33 49
34 18
34 21
34 23
34 25
34 26
34 27
34 29
34 31
34 32
34 37
34 39
34 42
34 44
34 45
34 50
34 52
35 17
35 19
35 20
35 22
35 24
35 27
35 28
35 30
35 33
35 36
35 38
35 39
35 40
35 41
35 43
35 46
35 47
35 48
35 49
35 53
36 20
36 22
36 23
36 24
36 26
36 27
36 28
36 30
36 31
36 32
36 35
36 37
36 38
36 39
36 40
36 41
36 42
36 43
36 44
36 46
36 47
36 48
36 51
36 53
37 20
37 21
37 23
37 25
37 26
37 27
37 28
37 31
37 32
37 34
37 36
37 39
37 40
37 41
37 42
37 44
37 45
37 46
37 50
37 51
37 52
37 54
38 19
38 22
38 24
38 28
38 30
38 33
38 35
38 36
38 39
38 40
38 41
38 43
38 46
38 47
38 48
38 49
38 53
39 20
39 22
39 23
39 26
39 27
39 28
39 30
39 31
39 32
39 34
39 35
39 36
39 37
39 38
39 40
39 41
39 42
39 43
39 44
39 45
39 46
39 47
39 48
39 50
39 51
39 53
39 54
40 22
40 24
40 27
40 28
40 30
40 31
40 33
40 35
40 36
40 37
40 38
40 39
40 41
40 42
40 43
40 46
40 47
40 48
40 49
40 51
40 53
40 55
41 20
41 22
41 27
41 28
41 30
41 31
41 35
41 36
41 37
41 38
41 39
41 40
41 42
41 43
41 44
41 46
41 47
41 48
41 49
41 50
41 51
41 53
41 55
41 58
42 23
42 26
42 27
42 28
42 31
42 32
42 34
42 36
42 37
42 39
42 40
42 41
42 44
42 45
42 46
42 48
42 50
42 51
42 52
42 53
42 54
42 58
43 30
43 33
43 35
43 36
43 38
43 39
43 40
43 41
43 46
43 47
43 48
43 49
43 53
43 55
43 57
44 26
44 27
44 31
44 32
44 34
44 36
44 37
44 39
44 41
44 42
44 45
44 46
44 50
44 51
44 52
44 54
44 56
44 59
45 25
45 26
45 29
45 31
45 32
45 34
45 37
45 39
45 42
45 44
45 50
45 51
45 52
45 54
45 56
45 59
45 61
46 27
46 28
46 31
46 35
46 36
46 37
46 38
46 39
46 40
46 41
46 42
46 43
46 44
46 47
46 48
46 49
46 50
46 51
46 53
46 54
46 55
46 58
46 60
46 63
47 30
47 33
47 35
47 36
47 38
47 39
47 40
47 41
47 43
47 46
47 48
47 49
47 51
47 53
47 55
47 57
47 58
47 60
47 62
48 35
48 36
48 38
48 39
48 40
48 41
48 42
48 43
48 46
48 47
48 49
48 50
48 51
48 53
48 54
48 55
48 57
48 58
48 60
48 62
48 63
48 66
48 67
49 33
49 35
49 38
49 40
49 41
49 43
49 46
49 47
49 48
49 53
49 55
49 57
49 60
49 62
49 67
50 31
50 32
50 34
50 37
50 39
50 41
50 42
50 44
50 45
50 46
50 48
50 51
50 52
50 53
50 54
50 56
50 58
50 59
50 61
50 63
50 64
50 65
51 31
51 36
51 37
51 39
51 40
51 41
51 42
51 44
51 45
51 46
51 47
51 48
51 50
51 52
51 53
51 54
51 55
51 56
51 58
51 59
51 60
51 63
51 64
51 65
51 66
52 32
52 34
52 37
52 42
52 44
52 45
52 50
52 51
52 54
52 56
52 58
52 59
52 61
52 63
52 64
52 65
53 35
53 36
53 38
53 39
53 40
53 41
53 42
53 43
53 46
53 47
53 48
53 49
53 50
53 51
53 54
53 55
53 57
53 58
53 60
53 62
53 63
53 64
53 66
53 67
54 37
54 39
54 42
54 44
54 45
54 46
54 48
54 50
54 51
54 52
54 53
54 56
54 58
54 59
54 60
54 61
54 63
54 64
54 65
54 66
55 40
55 41
55 43
55 46
55 47
55 48
55 49
55 51
55 53
55 57
55 58
55 60
55 62
55 63
55 66
55 67
56 44
56 45
56 50
56 51
56 52
56 54
56 59
56 61
56 63
56 64
56 65
57 43
57 47
57 48
57 49
57 53
57 55
57 60
57 62
57 67
58 41
58 42
58 46
58 47
58 48
58 50
58 51
58 52
58 53
58 54
58 55
58 59
58 60
58 62
58 63
58 64
58 65
58 66
58 67
59 44
59 45
59 50
59 51
59 52
59 54
59 56
59 58
59 61
59 63
59 64
59 65
59 66
60 46
60 47
60 48
60 49
60 51
60 53
60 54
60 55
60 57
60 58
60 62
60 63
60 64
60 66
60 67
61 45
61 50
61 52
61 54
61 56
61 59
61 64
61 65
62 47
62 48
62 49
62 53
62 55
62 57
62 58
62 60
62 66
62 67
63 46
63 48
63 50
63 51
63 52
63 53
63 54
63 55
63 56
63 58
63 59
63 60
63 64
63 65
63 66
63 67
64 50
64 51
64 52
64 53
64 54
64 56
64 58
64 59
64 60
64 61
64 63
64 65
64 66
65 50
65 51
65 52
65 54
65 56
65 58
65 59
65 61
65 63
65 64
66 48
66 51
66 53
66 54
66 55
66 58
66 59
66 60
66 62
66 63
66 64
66 67
67 48
67 49
67 53
67 55
67 57
67 58
67 60
67 62
67 63
67 66
