1 3
1 8
1 10
2 3
2 5
2 9
3 1
3 2
3 8
3 9
4 7
4 11
5 2
5 6
5 9
6 5
6 7
6 13
7 4
7 6
7 11
7 12
7 13
7 17
8 1
8 3
8 9
8 10
8 14
8 15
9 2
9 3
9 5
9 8
9 14
9 15
9 16
10 1
10 8
10 15
10 18
11 4
11 7
11 12
11 20
12 7
12 11
12 17
12 20
13 6
13 7
13 14
13 16
13 17
13 19
14 8
14 9
14 13
14 15
14 16
14 19
14 21
15 8
15 9
15 10
15 14
15 18
15 22
16 9
16 13
16 14
16 19
16 21
17 7
17 12
17 13
17 19
17 20
17 23
18 10
18 15
18 22
18 25
19 13
19 14
19 16
19 17
19 21
19 23
19 28
20 11
20 12
20 17
20 23
20 26
21 14
21 16
21 19
21 24
21 28
21 31
22 15
22 18
22 24
22 25
22 27
22 30
23 17
23 19
23 20
23 26
23 28
23 29
23 33
24 21
24 22
24 27
24 28
24 30
24 31
25 18
25 22
25 27
25 32
26 20
26 23
26 29
26 34
27 22
27 24
27 25
27 30
27 32
27 35
28 19
28 21
28 23
28 24
28 30
28 31
28 33
29 23
29 26
29 33
29 34
29 36
30 22
30 24
30 27
30 28
30 31
30 35
30 37
31 21
31 24
31 28
31 30
31 33
31 37
31 40
32 25
32 27
32 35
32 38
33 23
33 28
33 29
33 31
33 36
34 26
34 29
34 41
35 27
35 30
35 32
35 37
35 38
36 29
36 33
36 39
36 40
36 41
36 43
36 45
37 30
37 31
37 35
37 40
37 44
38 32
38 35
38 42
38 44
39 36
39 41
39 43
39 45
40 31
40 36
40 37
40 43
40 46
40 48
41 34
41 36
41 39
41 45
41 49
42 38
42 44
42 47
43 36
43 39
43 40
43 45
43 46
43 48
43 50
44 37
44 38
44 42
44 47
44 51
45 36
45 39
45 41
45 43
45 46
45 48
45 49
45 50
46 40
46 43
46 45
46 48
46 50
47 42
47 44
47 51
48 40
48 43
48 45
48 46
48 50
49 41
49 45
50 43
50 45
50 46
50 48
51 44
51 47
