1 2
1 3
1 4
1 5
1 6
1 8
1 9
2 1
2 4
2 5
2 7
2 11
3 1
3 6
3 8
3 10
3 12
4 1
4 2
4 5
4 6
4 8
4 9
4 10
4 11
5 1
5 2
5 4
5 7
5 8
5 9
5 11
5 13
5 14
6 1
6 3
6 4
6 8
6 9
6 10
6 12
7 2
7 5
7 11
7 13
8 1
8 3
8 4
8 5
8 6
8 9
8 10
8 12
8 15
8 17
9 1
9 4
9 5
9 6
9 8
9 10
9 11
9 12
9 14
9 15
10 3
10 4
10 6
10 8
10 9
10 12
10 15
10 16
10 17
11 2
11 4
11 5
11 7
11 9
11 13
11 14
11 15
11 19
11 21
12 3
12 6
12 8
12 9
12 10
12 15
12 16
12 17
12 20
13 5
13 7
13 11
13 14
13 18
13 19
13 21
13 24
14 5
14 9
14 11
14 13
14 15
14 18
14 19
14 21
14 22
14 24
14 26
15 8
15 9
15 10
15 11
15 12
15 14
15 17
15 20
15 21
15 22
15 23
15 25
16 10
16 12
16 17
16 20
16 23
16 27
17 8
17 10
17 12
17 15
17 16
17 20
17 23
17 25
17 27
18 13
18 14
18 19
18 21
18 24
19 11
19 13
19 14
19 18
19 21
19 22
19 24
19 26
20 12
20 15
20 16
20 17
20 23
20 25
20 27
20 28
21 11
21 13
21 14
21 15
21 18
21 19
21 22
21 24
21 25
21 26
21 30
22 14
22 15
22 19
22 21
22 25
22 26
23 15
23 16
23 17
23 20
23 25
23 27
23 28
23 32
24 13
24 14
24 18
24 19
24 21
24 26
24 29
24 30
25 15
25 17
25 20
25 21
25 22
25 23
25 26
25 27
25 28
25 31
26 14
26 19
26 21
26 22
26 24
26 25
26 29
26 30
26 31
27 16
27 17
27 20
27 23
27 25
27 28
27 32
27 34
28 20
28 23
28 25
28 27
28 31
28 32
28 34
28 36
29 24
29 26
29 30
29 33
30 21
30 24
30 26
30 29
30 31
30 33
30 35
31 25
31 26
31 28
31 30
31 34
31 35
31 36
32 23
32 27
32 28
32 34
32 36
33 29
33 30
33 35
34 27
34 28
34 31
34 32
34 36
35 30
35 31
35 33
36 28
36 31
36 32
36 34
