1 2
1 4
1 8
1 9
2 1
2 4
2 6
2 8
2 9
2 13
3 5
3 10
3 11
3 12
4 1
4 2
4 6
4 7
4 8
4 9
5 3
5 7
5 10
5 11
5 12
5 18
6 2
6 4
6 7
6 8
6 10
6 13
6 15
6 16
6 17
6 19
7 4
7 5
7 6
7 10
7 15
7 16
7 18
7 19
8 1
8 2
8 4
8 6
8 9
8 13
8 14
8 16
8 17
9 1
9 2
9 4
9 8
9 13
9 14
9 17
10 3
10 5
10 6
10 7
10 11
10 12
10 15
10 16
10 18
10 19
10 20
11 3
11 5
11 10
11 12
11 15
11 18
11 20
11 26
12 3
12 5
12 10
12 11
12 18
12 20
12 26
13 2
13 6
13 8
13 9
13 14
13 16
13 17
13 21
13 22
13 25
14 8
14 9
14 13
14 17
14 21
14 22
14 27
14 28
15 6
15 7
15 10
15 11
15 16
15 17
15 18
15 19
15 23
15 24
15 25
15 26
15 29
16 6
16 7
16 8
16 10
16 13
16 15
16 17
16 19
16 21
16 23
16 24
16 25
17 6
17 8
17 9
17 13
17 14
17 15
17 16
17 19
17 21
17 22
17 23
17 25
18 5
18 7
18 10
18 11
18 12
18 15
18 19
18 20
18 23
18 24
18 26
19 6
19 7
19 10
19 15
19 16
19 17
19 18
19 21
19 23
19 24
19 25
19 29
19 30
20 10
20 11
20 12
20 18
20 24
20 26
20 33
21 13
21 14
21 16
21 17
21 19
21 22
21 23
21 25
21 27
21 28
21 30
21 35
22 13
22 14
22 17
22 21
22 25
22 27
22 28
23 15
23 16
23 17
23 18
23 19
23 21
23 24
23 25
23 26
23 29
23 30
23 31
23 32
23 34
24 15
24 16
24 18
24 19
24 20
24 23
24 25
24 26
24 29
24 30
24 31
24 32
24 33
24 34
25 13
25 15
25 16
25 17
25 19
25 21
25 22
25 23
25 24
25 28
25 29
25 30
25 32
25 35
26 11
26 12
26 15
26 18
26 20
26 23
26 24
26 29
26 31
26 33
26 34
27 14
27 21
27 22
27 28
27 35
27 36
27 39
28 14
28 21
28 22
28 25
28 27
28 30
28 32
28 35
28 36
28 39
29 15
29 19
29 23
29 24
29 25
29 26
29 30
29 31
29 32
29 33
29 34
29 35
29 37
29 38
30 19
30 21
30 23
30 24
30 25
30 28
30 29
30 31
30 32
30 35
30 36
30 37
30 38
31 23
31 24
31 26
31 29
31 30
31 32
31 33
31 34
31 37
32 23
32 24
32 25
32 28
32 29
32 30
32 31
32 34
32 35
32 36
32 37
32 38
32 44
32 45
33 20
33 24
33 26
33 29
33 31
33 34
33 37
33 40
33 43
34 23
34 24
34 26
34 29
34 31
34 32
34 33
34 37
34 40
34 43
34 46
35 21
35 25
35 27
35 28
35 29
35 30
35 32
35 36
35 37
35 38
35 41
35 42
35 45
36 27
36 28
36 30
36 32
36 35
36 38
36 39
36 41
36 42
36 47
37 29
37 30
37 31
37 32
37 33
37 34
37 35
37 38
37 43
37 44
37 45
37 46
38 29
38 30
38 32
38 35
38 36
38 37
38 41
38 42
38 44
38 45
38 46
38 49
39 27
39 28
39 36
39 41
39 42
39 47
40 33
40 34
40 43
40 46
40 48
40 50
40 52
41 35
41 36
41 38
41 39
41 42
41 44
41 45
41 47
41 49
41 53
42 35
42 36
42 38
42 39
42 41
42 45
42 47
42 49
42 53
43 33
43 34
43 37
43 40
43 44
43 46
43 48
43 50
43 51
43 52
44 32
44 37
44 38
44 41
44 43
44 45
44 46
44 48
44 49
44 50
44 51
45 32
45 35
45 37
45 38
45 41
45 42
45 44
45 46
45 49
45 50
45 51
46 34
46 37
46 38
46 40
46 43
46 44
46 45
46 48
46 50
46 51
47 36
47 39
47 41
47 42
47 49
47 53
48 40
48 43
48 44
48 46
48 50
48 51
48 52
49 38
49 41
49 42
49 44
49 45
49 47
49 51
49 53
50 40
50 43
50 44
50 45
50 46
50 48
50 51
50 52
51 43
51 44
51 45
51 46
51 48
51 49
51 50
52 40
52 43
52 48
52 50
53 41
53 42
53 47
53 49
