1 3
1 8
2 3
2 4
2 6
2 7
2 11
2 12
3 1
3 2
3 7
3 8
3 12
3 13
4 2
4 5
4 6
4 9
4 10
4 11
4 14
5 4
5 6
5 9
5 10
6 2
6 4
6 5
6 7
6 9
6 10
6 11
6 14
7 2
7 3
7 6
7 11
7 12
7 13
8 1
8 3
8 13
8 15
8 17
9 4
9 5
9 6
9 10
9 11
9 14
9 16
10 4
10 5
10 6
10 9
10 11
10 14
10 16
10 19
11 2
11 4
11 6
11 7
11 9
11 10
11 12
11 13
11 14
11 18
11 19
11 22
12 2
12 3
12 7
12 11
12 13
12 14
12 15
12 18
12 21
13 3
13 7
13 8
13 11
13 12
13 15
13 17
13 18
13 21
14 4
14 6
14 9
14 10
14 11
14 12
14 16
14 18
14 19
14 22
14 23
15 8
15 12
15 13
15 17
15 21
16 9
16 10
16 14
16 19
16 20
16 22
16 23
16 26
17 8
17 13
17 15
17 21
17 24
17 25
17 27
18 11
18 12
18 13
18 14
18 19
18 21
18 22
18 24
18 27
18 31
19 10
19 11
19 14
19 16
19 18
19 20
19 22
19 23
19 28
19 29
19 30
19 31
20 16
20 19
20 23
20 26
20 29
20 30
21 12
21 13
21 15
21 17
21 18
21 22
21 24
21 25
21 27
21 31
21 32
22 11
22 14
22 16
22 18
22 19
22 21
22 23
22 24
22 28
22 29
22 31
22 33
23 14
23 16
23 19
23 20
23 22
23 26
23 28
23 29
23 30
23 31
23 33
24 17
24 18
24 21
24 22
24 25
24 27
24 31
24 32
25 17
25 21
25 24
25 27
25 32
25 35
26 16
26 20
26 23
26 29
26 30
26 34
26 36
27 17
27 18
27 21
27 24
27 25
27 31
27 32
27 35
28 19
28 22
28 23
28 29
28 30
28 31
28 33
28 37
28 38
29 19
29 20
29 22
29 23
29 26
29 28
29 30
29 31
29 33
29 34
29 36
29 38
30 19
30 20
30 23
30 26
30 28
30 29
30 33
30 34
30 36
30 38
31 18
31 19
31 21
31 22
31 23
31 24
31 27
31 28
31 29
31 32
31 33
31 37
32 21
32 24
32 25
32 27
32 31
32 35
32 37
32 39
33 22
33 23
33 28
33 29
33 30
33 31
33 36
33 37
33 38
33 40
33 44
34 26
34 29
34 30
34 36
34 40
34 43
34 45
35 25
35 27
35 32
35 39
35 41
35 46
36 26
36 29
36 30
36 33
36 34
36 38
36 40
36 43
36 45
37 28
37 31
37 32
37 33
37 38
37 39
37 42
37 44
37 50
38 28
38 29
38 30
38 33
38 36
38 37
38 40
38 42
38 43
38 44
38 47
38 48
39 32
39 35
39 37
39 41
39 42
39 44
39 46
39 49
39 50
40 33
40 34
40 36
40 38
40 43
40 44
40 45
40 47
40 48
41 35
41 39
41 46
41 49
42 37
42 38
42 39
42 44
42 46
42 47
42 50
43 34
43 36
43 38
43 40
43 45
43 47
43 48
44 33
44 37
44 38
44 39
44 40
44 42
44 47
44 48
44 50
45 34
45 36
45 40
45 43
45 48
46 35
46 39
46 41
46 42
46 49
47 38
47 40
47 42
47 43
47 44
47 48
47 50
48 38
48 40
48 43
48 44
48 45
48 47
49 39
49 41
49 46
50 37
50 39
50 42
50 44
50 47
