1 6
1 7
2 3
2 4
2 9
3 2
3 4
3 5
3 8
3 9
3 13
4 2
4 3
4 7
4 9
4 10
5 3
5 8
6 1
6 7
6 11
6 12
7 1
7 4
7 6
7 10
7 11
7 14
8 3
8 5
8 9
8 13
8 16
9 2
9 3
9 4
9 8
9 13
9 15
9 18
10 4
10 7
10 11
10 14
10 15
11 6
11 7
11 10
11 12
11 14
11 17
12 6
12 11
12 17
12 20
13 3
13 8
13 9
13 16
13 18
14 7
14 10
14 11
14 15
14 19
14 21
15 9
15 10
15 14
15 18
15 19
15 24
16 8
16 13
16 22
17 11
17 12
17 20
17 21
17 26
18 9
18 13
18 15
18 22
18 23
18 24
19 14
19 15
19 21
19 24
19 25
19 29
20 12
20 17
20 21
20 26
20 28
21 14
21 17
21 19
21 20
21 25
21 26
22 16
22 18
22 23
22 27
22 30
23 18
23 22
23 24
23 27
24 15
24 18
24 19
24 23
24 25
24 27
24 29
25 19
25 21
25 24
25 26
25 29
25 31
26 17
26 20
26 21
26 25
26 28
26 31
26 32
27 22
27 23
27 24
27 30
27 33
28 20
28 26
28 32
29 19
29 24
29 25
29 31
29 33
29 35
30 22
30 27
30 34
31 25
31 26
31 29
31 32
31 35
31 38
32 26
32 28
32 31
32 38
33 27
33 29
33 35
33 36
33 37
34 30
34 36
34 39
35 29
35 31
35 33
35 37
35 40
35 41
36 33
36 34
36 37
36 39
36 42
36 44
36 45
37 33
37 35
37 36
37 40
37 42
37 44
38 31
38 32
38 41
38 47
39 34
39 36
39 45
39 46
40 35
40 37
40 41
40 44
40 49
41 35
41 38
41 40
41 48
42 36
42 37
42 44
42 45
43 47
44 36
44 37
44 40
44 42
44 45
44 49
45 36
45 39
45 42
45 44
45 46
46 39
46 45
47 38
47 43
47 48
48 41
48 47
49 40
49 44
