1 3
1 4
1 7
2 4
2 5
2 6
3 1
3 7
3 8
3 10
3 12
4 1
4 2
4 5
4 7
4 10
4 11
5 2
5 4
5 6
5 10
5 11
5 13
6 2
6 5
6 9
6 11
6 13
7 1
7 3
7 4
7 8
7 10
7 12
7 14
8 3
8 7
8 12
8 14
9 6
10 3
10 4
10 5
10 7
10 11
10 12
10 15
10 16
11 4
11 5
11 6
11 10
11 13
11 15
12 3
12 7
12 8
12 10
12 14
12 16
13 5
13 6
13 11
13 15
13 17
13 19
13 21
14 7
14 8
14 12
14 16
14 18
15 10
15 11
15 13
15 19
15 20
15 21
16 10
16 12
16 14
16 18
16 20
16 23
17 13
17 21
17 22
18 14
18 16
18 25
19 13
19 15
19 20
19 21
19 22
19 24
19 26
20 15
20 16
20 19
20 23
20 24
20 25
20 29
21 13
21 15
21 17
21 19
21 22
21 24
21 26
21 27
21 30
22 17
22 19
22 21
22 26
22 27
22 32
23 16
23 20
23 24
23 25
23 28
23 29
23 31
24 19
24 20
24 21
24 23
24 26
24 29
24 30
25 18
25 20
25 23
25 28
25 31
25 33
26 19
26 21
26 22
26 24
26 27
26 29
26 30
26 34
27 21
27 22
27 26
27 30
27 32
27 34
28 23
28 25
28 29
28 31
28 33
28 36
29 20
29 23
29 24
29 26
29 28
29 30
29 33
29 35
30 21
30 24
30 26
30 27
30 29
30 34
30 35
31 23
31 25
31 28
31 33
31 36
32 22
32 27
32 34
32 37
33 25
33 28
33 29
33 31
33 35
33 36
33 39
34 26
34 27
34 30
34 32
34 35
34 37
34 38
35 29
35 30
35 33
35 34
35 38
36 28
36 31
36 33
36 39
37 32
37 34
37 38
38 34
38 35
38 37
39 33
39 36
