1 3
1 8
2 4
2 6
2 7
3 1
3 7
4 2
4 5
4 6
4 9
4 10
5 4
5 6
5 9
5 10
6 2
6 4
6 5
6 7
6 10
6 11
6 14
7 2
7 3
7 6
7 11
7 12
7 13
8 1
8 13
8 15
9 4
9 5
9 10
9 14
9 16
10 4
10 5
10 6
10 9
10 11
10 14
10 16
11 6
11 7
11 10
11 12
11 14
12 7
12 11
12 13
12 18
13 7
13 8
13 12
13 15
13 18
13 21
14 6
14 9
14 10
14 11
14 16
14 19
15 8
15 13
15 17
16 9
16 10
16 14
16 19
16 20
16 23
17 15
17 21
17 25
17 27
18 12
18 13
18 21
18 22
18 24
18 31
19 14
19 16
19 22
19 23
19 28
19 29
20 16
20 23
20 26
20 30
21 13
21 17
21 18
21 24
21 25
21 27
22 18
22 19
22 23
22 24
22 28
22 31
23 16
23 19
23 20
23 22
23 26
23 28
23 29
23 30
24 18
24 21
24 22
24 25
24 27
24 31
24 32
25 17
25 21
25 24
25 27
25 35
26 20
26 23
26 29
26 30
26 34
26 36
27 17
27 21
27 24
27 25
27 32
27 35
28 19
28 22
28 23
28 29
28 30
28 31
28 33
29 19
29 23
29 26
29 28
29 30
29 33
29 36
30 20
30 23
30 26
30 28
30 29
30 33
30 34
30 36
31 18
31 22
31 24
31 28
31 32
31 33
31 37
32 24
32 27
32 31
32 35
32 37
32 39
33 28
33 29
33 30
33 31
33 36
33 37
33 38
34 26
34 30
34 36
34 43
34 45
35 25
35 27
35 32
35 41
36 26
36 29
36 30
36 33
36 34
36 38
36 40
36 43
36 45
37 31
37 32
37 33
37 38
37 39
37 42
37 44
38 33
38 36
38 37
38 40
38 44
38 47
39 32
39 37
39 41
39 42
39 46
40 36
40 38
40 43
40 45
40 47
40 48
41 35
41 39
41 46
41 49
42 37
42 39
42 44
42 50
43 34
43 36
43 40
43 45
43 48
44 37
44 38
44 42
44 47
44 50
45 34
45 36
45 40
45 43
45 48
46 39
46 41
46 49
47 38
47 40
47 44
47 48
47 50
48 40
48 43
48 45
48 47
49 41
49 46
50 42
50 44
50 47
