1 2
1 3
1 5
2 1
2 5
3 1
3 4
3 7
4 3
4 6
4 7
5 1
5 2
6 4
6 7
6 8
7 3
7 4
7 6
7 9
7 11
8 6
9 7
9 12
10 12
10 13
11 7
11 16
11 17
12 9
12 10
12 13
12 18
13 10
13 12
14 15
15 14
15 17
15 22
15 23
16 11
16 17
16 19
16 21
17 11
17 15
17 16
17 21
17 22
18 12
18 19
18 20
19 16
19 18
19 24
19 26
20 18
21 16
21 17
21 22
21 24
21 27
22 15
22 17
22 21
22 23
22 25
22 28
23 15
23 22
23 25
24 19
24 21
24 26
24 27
24 31
25 22
25 23
25 28
26 19
26 24
26 27
26 31
27 21
27 24
27 26
27 28
27 31
28 22
28 25
28 27
28 32
29 30
30 29
31 24
31 26
31 27
31 34
32 28
32 33
32 34
33 32
33 36
34 31
34 32
34 39
34 40
35 38
35 39
36 33
37 38
38 35
38 37
39 34
39 35
39 40
40 34
40 39
