1 2
1 3
1 6
1 7
1 9
1 10
1 11
1 13
1 14
1 18
1 21
2 1
2 3
2 9
2 10
2 11
2 13
2 18
2 22
3 1
3 2
3 5
3 6
3 7
3 9
3 10
3 13
3 14
3 15
3 19
3 20
4 5
4 7
4 8
4 12
4 15
4 16
4 17
5 3
5 4
5 6
5 7
5 8
5 12
5 14
5 15
5 16
5 17
6 1
6 3
6 5
6 7
6 8
6 9
6 10
6 13
6 14
6 15
6 17
6 19
6 20
6 23
7 1
7 3
7 4
7 5
7 6
7 8
7 9
7 12
7 14
7 15
7 16
7 17
7 19
7 23
8 4
8 5
8 6
8 7
8 12
8 14
8 15
8 16
8 17
8 19
8 23
8 24
8 25
9 1
9 2
9 3
9 6
9 7
9 10
9 11
9 13
9 14
9 15
9 18
9 19
9 20
9 21
9 23
9 26
9 27
10 1
10 2
10 3
10 6
10 9
10 11
10 13
10 14
10 18
10 20
10 21
10 22
10 26
10 28
11 1
11 2
11 9
11 10
11 13
11 18
11 20
11 21
11 22
11 26
11 28
12 4
12 5
12 7
12 8
12 15
12 16
12 17
12 23
12 24
12 25
13 1
13 2
13 3
13 6
13 9
13 10
13 11
13 14
13 15
13 18
13 19
13 20
13 21
13 22
13 26
13 27
13 28
14 1
14 3
14 5
14 6
14 7
14 8
14 9
14 10
14 13
14 15
14 17
14 18
14 19
14 20
14 21
14 23
14 25
14 27
14 29
15 3
15 4
15 5
15 6
15 7
15 8
15 9
15 12
15 13
15 14
15 16
15 17
15 19
15 20
15 23
15 24
15 25
15 27
15 29
15 30
16 4
16 5
16 7
16 8
16 12
16 15
16 17
16 23
16 24
16 25
16 30
16 32
16 33
17 4
17 5
17 6
17 7
17 8
17 12
17 14
17 15
17 16
17 19
17 23
17 24
17 25
17 27
17 29
17 30
17 32
17 33
18 1
18 2
18 9
18 10
18 11
18 13
18 14
18 19
18 20
18 21
18 22
18 26
18 28
18 34
18 35
18 37
19 3
19 6
19 7
19 8
19 9
19 13
19 14
19 15
19 17
19 18
19 20
19 21
19 23
19 25
19 26
19 27
19 29
19 30
19 31
19 36
20 3
20 6
20 9
20 10
20 11
20 13
20 14
20 15
20 18
20 19
20 21
20 22
20 23
20 26
20 27
20 28
20 29
20 31
20 34
20 36
20 38
21 1
21 9
21 10
21 11
21 13
21 14
21 18
21 19
21 20
21 22
21 23
21 26
21 27
21 28
21 31
21 34
21 35
21 37
21 38
22 2
22 10
22 11
22 13
22 18
22 20
22 21
22 26
22 28
22 34
22 35
22 37
23 6
23 7
23 8
23 9
23 12
23 14
23 15
23 16
23 17
23 19
23 20
23 21
23 24
23 25
23 26
23 27
23 29
23 30
23 31
23 33
23 36
23 40
24 8
24 12
24 15
24 16
24 17
24 23
24 25
24 29
24 30
24 32
24 33
24 41
25 8
25 12
25 14
25 15
25 16
25 17
25 19
25 23
25 24
25 27
25 29
25 30
25 32
25 33
25 36
25 40
25 41
25 42
26 9
26 10
26 11
26 13
26 18
26 19
26 20
26 21
26 22
26 23
26 27
26 28
26 29
26 31
26 34
26 35
26 36
26 37
26 38
26 39
27 9
27 13
27 14
27 15
27 17
27 19
27 20
27 21
27 23
27 25
27 26
27 29
27 30
27 31
27 33
27 34
27 36
27 38
27 39
27 40
27 42
27 43
28 10
28 11
28 13
28 18
28 20
28 21
28 22
28 26
28 31
28 34
28 35
28 37
28 38
28 44
29 14
29 15
29 17
29 19
29 20
29 23
29 24
29 25
29 26
29 27
29 30
29 31
29 32
29 33
29 34
29 36
29 38
29 39
29 40
29 41
29 42
29 43
30 15
30 16
30 17
30 19
30 23
30 24
30 25
30 27
30 29
30 31
30 32
30 33
30 36
30 39
30 40
30 41
30 42
30 43
31 19
31 20
31 21
31 23
31 26
31 27
31 28
31 29
31 30
31 34
31 36
31 37
31 38
31 39
31 40
31 42
31 43
31 45
32 16
32 17
32 24
32 25
32 29
32 30
32 33
32 40
32 41
32 42
32 46
33 16
33 17
33 23
33 24
33 25
33 27
33 29
33 30
33 32
33 36
33 40
33 41
33 42
33 43
33 46
34 18
34 20
34 21
34 22
34 26
34 27
34 28
34 29
34 31
34 35
34 36
34 37
34 38
34 39
34 43
34 44
34 45
35 18
35 21
35 22
35 26
35 28
35 34
35 37
35 38
35 44
35 45
35 47
36 19
36 20
36 23
36 25
36 26
36 27
36 29
36 30
36 31
36 33
36 34
36 37
36 38
36 39
36 40
36 41
36 42
36 43
36 45
36 49
37 18
37 21
37 22
37 26
37 28
37 31
37 34
37 35
37 36
37 38
37 39
37 44
37 45
37 47
37 50
38 20
38 21
38 26
38 27
38 28
38 29
38 31
38 34
38 35
38 36
38 37
38 39
38 40
38 42
38 43
38 44
38 45
38 47
38 49
38 50
38 52
39 26
39 27
39 29
39 30
39 31
39 34
39 36
39 37
39 38
39 40
39 42
39 43
39 44
39 45
39 49
39 50
39 52
40 23
40 25
40 27
40 29
40 30
40 31
40 32
40 33
40 36
40 38
40 39
40 41
40 42
40 43
40 45
40 46
40 48
40 49
40 51
40 52
41 24
41 25
41 29
41 30
41 32
41 33
41 36
41 40
41 42
41 43
41 46
41 48
41 51
42 25
42 27
42 29
42 30
42 31
42 32
42 33
42 36
42 38
42 39
42 40
42 41
42 43
42 45
42 46
42 48
42 49
42 51
42 52
43 27
43 29
43 30
43 31
43 33
43 34
43 36
43 38
43 39
43 40
43 41
43 42
43 45
43 46
43 48
43 49
43 50
43 51
43 52
44 28
44 34
44 35
44 37
44 38
44 39
44 45
44 47
44 50
44 53
44 54
45 31
45 34
45 35
45 36
45 37
45 38
45 39
45 40
45 42
45 43
45 44
45 47
45 49
45 50
45 52
45 54
46 32
46 33
46 40
46 41
46 42
46 43
46 48
46 49
46 51
47 35
47 37
47 38
47 44
47 45
47 50
47 52
47 53
47 54
48 40
48 41
48 42
48 43
48 46
48 49
48 51
48 52
49 36
49 38
49 39
49 40
49 42
49 43
49 45
49 46
49 48
49 50
49 51
49 52
50 37
50 38
50 39
50 43
50 44
50 45
50 47
50 49
50 52
50 53
50 54
51 40
51 41
51 42
51 43
51 46
51 48
51 49
51 52
52 38
52 39
52 40
52 42
52 43
52 45
52 47
52 48
52 49
52 50
52 51
52 54
53 44
53 47
53 50
53 54
54 44
54 45
54 47
54 50
54 52
54 53
