1 5
1 7
2 5
2 6
2 8
3 4
3 9
4 3
4 9
4 11
5 1
5 2
5 7
5 10
5 13
6 2
6 8
6 11
6 12
6 15
7 1
7 5
7 10
7 14
8 2
8 6
8 10
8 12
8 13
8 15
9 3
9 4
9 11
9 16
9 17
10 5
10 7
10 8
10 13
10 14
11 4
11 6
11 9
11 12
11 16
11 17
12 6
12 8
12 11
12 15
12 17
12 20
12 22
13 5
13 8
13 10
13 15
13 20
13 23
14 7
14 10
14 18
14 21
15 6
15 8
15 12
15 13
15 20
15 22
15 23
16 9
16 11
16 17
16 19
16 24
17 9
17 11
17 12
17 16
17 19
17 22
17 24
18 14
18 21
18 25
18 29
19 16
19 17
19 24
19 30
20 12
20 13
20 15
20 22
20 23
20 27
20 28
21 14
21 18
21 23
21 25
21 26
22 12
22 15
22 17
22 20
22 24
22 28
22 30
23 13
23 15
23 20
23 21
23 26
23 27
23 31
24 16
24 17
24 19
24 22
24 30
25 18
25 21
25 26
25 29
25 34
26 21
26 23
26 25
26 31
26 32
26 34
27 20
27 23
27 28
27 31
27 36
27 37
28 20
28 22
28 27
28 31
28 36
29 18
29 25
29 34
30 19
30 22
30 24
30 35
30 38
31 23
31 26
31 27
31 28
31 32
31 36
31 37
31 39
31 42
32 26
32 31
32 34
32 37
33 35
33 38
34 25
34 26
34 29
34 32
34 45
35 30
35 33
35 38
35 40
35 43
36 27
36 28
36 31
36 37
36 39
36 40
36 41
36 42
37 27
37 31
37 32
37 36
37 39
37 42
37 44
38 30
38 33
38 35
38 40
38 43
38 47
39 31
39 36
39 37
39 40
39 41
39 42
39 46
40 35
40 36
40 38
40 39
40 41
40 43
40 46
40 47
40 48
41 36
41 39
41 40
41 46
41 47
41 48
42 31
42 36
42 37
42 39
42 44
42 46
42 50
42 51
43 35
43 38
43 40
43 47
43 48
43 49
44 37
44 42
44 45
44 50
44 52
45 34
45 44
45 52
46 39
46 40
46 41
46 42
46 47
46 48
46 51
46 53
47 38
47 40
47 41
47 43
47 46
47 48
47 49
47 53
48 40
48 41
48 43
48 46
48 47
48 49
48 53
48 55
49 43
49 47
49 48
49 55
49 57
50 42
50 44
50 51
50 52
50 54
50 59
51 42
51 46
51 50
51 53
51 54
51 58
52 44
52 45
52 50
52 54
52 56
52 59
53 46
53 47
53 48
53 51
53 55
53 58
54 50
54 51
54 52
54 58
54 59
54 64
55 48
55 49
55 53
55 57
55 60
55 62
55 67
56 52
56 59
56 61
56 65
57 49
57 55
57 62
58 51
58 53
58 54
58 60
58 63
58 64
58 66
59 50
59 52
59 54
59 56
59 64
59 65
60 55
60 58
60 62
60 63
60 66
60 67
61 56
61 65
62 55
62 57
62 60
62 67
63 58
63 60
63 64
63 66
64 54
64 58
64 59
64 63
64 65
64 66
65 56
65 59
65 61
65 64
66 58
66 60
66 63
66 64
67 55
67 60
67 62
