1 3
1 4
2 5
2 7
3 1
3 4
3 5
4 1
4 3
4 6
5 2
5 3
5 7
6 4
7 2
7 5
7 10
8 9
9 8
9 10
9 15
10 7
10 9
10 12
10 15
11 13
11 14
11 16
11 18
12 10
12 13
12 17
13 11
13 12
13 16
13 17
13 18
14 11
14 16
15 9
15 10
15 19
15 20
15 21
16 11
16 13
16 14
16 18
17 12
17 13
17 18
17 21
17 22
18 11
18 13
18 16
18 17
18 22
18 24
19 15
19 20
19 23
20 15
20 19
20 21
20 23
21 15
21 17
21 20
21 22
21 23
21 26
22 17
22 18
22 21
22 24
23 19
23 20
23 21
23 26
23 27
24 18
24 22
24 25
24 28
25 24
25 28
26 21
26 23
26 29
27 23
28 24
28 25
28 31
29 26
29 30
29 31
29 33
29 35
30 29
30 32
31 28
31 29
31 33
31 35
32 30
32 34
33 29
33 31
33 35
34 32
35 29
35 31
35 33
