1 3
2 4
2 6
2 7
3 1
3 7
4 2
4 5
4 6
4 9
4 10
5 4
5 9
5 10
6 2
6 4
6 10
7 2
7 3
7 11
7 12
8 15
9 4
9 5
9 10
9 14
9 16
10 4
10 5
10 6
10 9
10 11
10 14
10 16
11 7
11 10
11 12
11 14
12 7
12 11
12 13
13 12
13 15
14 9
14 10
14 11
14 16
14 19
15 8
15 13
15 17
16 9
16 10
16 14
16 19
16 20
16 23
17 15
17 21
17 25
18 21
18 22
18 24
19 14
19 16
19 22
19 23
20 16
20 26
21 17
21 18
21 24
21 27
22 18
22 19
22 23
22 28
22 31
23 16
23 19
23 22
23 28
23 29
23 30
24 18
24 21
24 27
24 31
24 32
25 17
25 27
26 20
26 30
27 21
27 24
27 25
27 32
28 22
28 23
28 29
28 31
28 33
29 23
29 28
29 30
29 33
30 23
30 26
30 29
30 33
30 36
31 22
31 24
31 28
31 32
32 24
32 27
32 31
33 28
33 29
33 30
33 38
34 36
34 43
34 45
35 41
36 30
36 34
36 40
36 43
37 39
37 42
37 44
38 33
38 40
38 44
39 37
39 41
39 42
39 46
40 36
40 38
40 43
40 45
40 47
40 48
41 35
41 39
41 46
41 49
42 37
42 39
42 44
42 50
43 34
43 36
43 40
43 45
43 48
44 37
44 38
44 42
44 47
44 50
45 34
45 40
45 43
46 39
46 41
46 49
47 40
47 44
47 48
48 40
48 43
48 47
49 41
49 46
50 42
50 44
