1 2
1 4
1 7
1 8
1 10
1 11
1 12
1 15
1 16
2 1
2 4
2 7
2 8
2 10
2 11
2 16
3 5
3 6
3 7
3 9
3 10
3 12
3 13
3 14
3 15
3 17
4 1
4 2
4 7
4 8
4 10
4 11
4 16
5 3
5 6
5 7
5 9
5 12
5 13
5 14
5 17
5 18
6 3
6 5
6 9
6 13
6 14
6 17
7 1
7 2
7 3
7 4
7 5
7 9
7 10
7 11
7 12
7 14
7 15
7 19
8 1
8 2
8 4
8 10
8 11
8 16
8 21
8 22
9 3
9 5
9 6
9 7
9 10
9 12
9 13
9 14
9 15
9 17
9 18
9 19
10 1
10 2
10 3
10 4
10 7
10 8
10 9
10 11
10 12
10 15
10 16
10 19
10 20
11 1
11 2
11 4
11 7
11 8
11 10
11 12
11 15
11 16
11 19
11 20
11 21
11 22
11 24
11 28
12 1
12 3
12 5
12 7
12 9
12 10
12 11
12 13
12 14
12 15
12 17
12 18
12 19
12 20
12 26
12 27
13 3
13 5
13 6
13 9
13 12
13 14
13 17
13 18
13 23
13 25
14 3
14 5
14 6
14 7
14 9
14 12
14 13
14 15
14 17
14 18
14 19
14 23
14 25
14 27
15 1
15 3
15 7
15 9
15 10
15 11
15 12
15 14
15 16
15 18
15 19
15 20
15 22
15 26
15 27
15 28
16 1
16 2
16 4
16 8
16 10
16 11
16 15
16 20
16 21
16 22
16 24
16 28
17 3
17 5
17 6
17 9
17 12
17 13
17 14
17 18
17 19
17 23
17 25
17 27
18 5
18 9
18 12
18 13
18 14
18 15
18 17
18 19
18 23
18 25
18 26
18 27
18 30
18 31
18 33
19 7
19 9
19 10
19 11
19 12
19 14
19 15
19 17
19 18
19 20
19 23
19 26
19 27
19 28
19 29
19 31
19 34
20 10
20 11
20 12
20 15
20 16
20 19
20 21
20 22
20 24
20 26
20 28
20 29
20 32
21 8
21 11
21 16
21 20
21 22
21 24
21 28
21 32
22 8
22 11
22 15
22 16
22 20
22 21
22 24
22 26
22 28
22 29
22 32
23 13
23 14
23 17
23 18
23 19
23 25
23 27
23 30
23 31
23 33
24 11
24 16
24 20
24 21
24 22
24 26
24 28
24 29
24 32
25 13
25 14
25 17
25 18
25 23
25 27
25 30
25 31
25 33
25 37
26 12
26 15
26 18
26 19
26 20
26 22
26 24
26 27
26 28
26 29
26 31
26 32
26 34
26 35
27 12
27 14
27 15
27 17
27 18
27 19
27 23
27 25
27 26
27 29
27 30
27 31
27 33
27 34
27 37
27 38
28 11
28 15
28 16
28 19
28 20
28 21
28 22
28 24
28 26
28 29
28 32
28 34
28 35
28 36
29 19
29 20
29 22
29 24
29 26
29 27
29 28
29 31
29 32
29 34
29 35
29 36
30 18
30 23
30 25
30 27
30 31
30 33
30 37
30 38
31 18
31 19
31 23
31 25
31 26
31 27
31 29
31 30
31 33
31 34
31 35
31 37
31 38
31 42
31 43
31 44
32 20
32 21
32 22
32 24
32 26
32 28
32 29
32 34
32 35
32 36
32 39
32 40
32 41
32 45
33 18
33 23
33 25
33 27
33 30
33 31
33 34
33 37
33 38
33 42
33 43
34 19
34 26
34 27
34 28
34 29
34 31
34 32
34 33
34 35
34 36
34 37
34 38
34 42
34 44
34 45
34 47
35 26
35 28
35 29
35 31
35 32
35 34
35 36
35 38
35 39
35 40
35 42
35 44
35 45
35 47
35 48
36 28
36 29
36 32
36 34
36 35
36 39
36 40
36 41
36 44
36 45
36 47
36 48
37 25
37 27
37 30
37 31
37 33
37 34
37 38
37 42
37 43
37 44
37 46
38 27
38 30
38 31
38 33
38 34
38 35
38 37
38 42
38 43
38 44
38 46
38 47
39 32
39 35
39 36
39 40
39 41
39 45
39 48
40 32
40 35
40 36
40 39
40 41
40 45
40 47
40 48
41 32
41 36
41 39
41 40
41 45
41 48
42 31
42 33
42 34
42 35
42 37
42 38
42 43
42 44
42 45
42 46
42 47
43 31
43 33
43 37
43 38
43 42
43 44
43 46
43 47
44 31
44 34
44 35
44 36
44 37
44 38
44 42
44 43
44 45
44 47
44 48
45 32
45 34
45 35
45 36
45 39
45 40
45 41
45 42
45 44
45 47
45 48
46 37
46 38
46 42
46 43
47 34
47 35
47 36
47 38
47 40
47 42
47 43
47 44
47 45
47 48
48 35
48 36
48 39
48 40
48 41
48 44
48 45
48 47
