1 3
1 6
2 3
2 5
3 1
3 2
3 5
4 7
5 2
5 3
5 8
6 1
7 4
7 8
7 9
7 12
8 5
8 7
8 11
9 7
9 12
9 14
10 13
11 8
12 7
12 9
12 14
13 10
13 16
14 9
14 12
14 18
14 19
15 18
15 21
16 13
16 20
17 22
18 14
18 15
18 19
18 21
18 25
19 14
19 18
19 25
20 16
20 22
20 24
21 15
21 18
21 23
21 26
22 17
22 20
22 23
23 21
23 22
23 26
24 20
24 28
25 18
25 19
25 27
26 21
26 23
26 27
26 31
26 32
27 25
27 26
27 31
27 35
28 24
29 30
29 34
30 29
30 32
30 34
31 26
31 27
31 33
31 35
32 26
32 30
33 31
33 35
34 29
34 30
34 36
35 27
35 31
35 33
36 34
