1 4
1 8
2 4
2 5
2 7
3 6
3 8
4 1
4 2
4 5
4 8
4 9
5 2
5 4
5 9
5 11
6 3
6 8
6 10
6 12
7 2
7 13
8 1
8 3
8 4
8 6
8 9
8 10
8 12
9 4
9 5
9 8
9 10
9 11
9 15
10 6
10 8
10 9
10 12
10 15
10 17
11 5
11 9
11 13
11 14
12 6
12 8
12 10
12 16
12 17
13 7
13 11
13 14
13 18
13 19
14 11
14 13
14 19
14 21
14 22
15 9
15 10
15 17
15 22
16 12
16 17
16 20
17 10
17 12
17 15
17 16
17 20
17 23
18 13
18 19
18 24
19 13
19 14
19 18
19 21
19 24
20 16
20 17
20 23
20 27
21 14
21 19
21 22
21 24
21 26
22 14
22 15
22 21
22 25
22 26
23 17
23 20
23 25
23 27
23 28
24 18
24 19
24 21
24 29
25 22
25 23
25 26
25 28
25 31
26 21
26 22
26 25
26 30
27 20
27 23
27 28
27 32
28 23
28 25
28 27
28 31
28 32
28 34
29 24
29 30
29 33
30 26
30 29
30 33
30 35
31 25
31 28
32 27
32 28
32 34
32 36
33 29
33 30
34 28
34 32
34 36
35 30
36 32
36 34
