1 2
1 3
2 1
2 3
2 4
3 1
3 2
3 5
4 2
4 6
5 3
6 4
6 9
7 8
8 7
8 9
8 14
9 6
9 8
9 11
9 14
10 12
10 13
10 15
10 17
11 9
11 12
11 16
12 10
12 11
12 16
12 17
13 10
13 15
14 8
14 9
14 18
14 19
14 20
15 10
15 13
15 17
16 11
16 12
16 20
16 21
17 10
17 12
17 15
17 21
17 23
18 14
18 19
19 14
19 18
19 20
19 22
20 14
20 16
20 19
20 22
20 25
21 16
21 17
21 23
22 19
22 20
22 25
22 26
23 17
23 21
23 24
23 27
24 23
24 27
25 20
25 22
25 28
26 22
27 23
27 24
27 30
28 25
28 30
28 32
29 31
30 27
30 28
30 32
31 29
31 33
32 28
32 30
32 34
33 31
34 32
