1 2
1 3
1 5
1 6
1 10
2 1
2 3
2 4
2 5
2 7
2 8
2 11
3 1
3 2
3 5
3 6
3 8
3 10
3 11
4 2
4 5
4 7
4 8
4 9
4 12
5 1
5 2
5 3
5 4
5 6
5 7
5 8
5 10
5 11
6 1
6 3
6 5
6 10
6 11
6 13
7 2
7 4
7 5
7 8
7 9
7 11
7 12
7 14
8 2
8 3
8 4
8 5
8 7
8 9
8 10
8 11
8 12
8 15
8 17
9 4
9 7
9 8
9 12
9 14
9 18
9 19
10 1
10 3
10 5
10 6
10 8
10 11
10 13
10 16
10 17
11 2
11 3
11 5
11 6
11 7
11 8
11 10
11 12
11 13
11 15
11 16
11 17
12 4
12 7
12 8
12 9
12 11
12 14
12 15
12 18
12 19
13 6
13 10
13 11
13 16
13 17
13 20
13 22
14 7
14 9
14 12
14 15
14 18
14 19
14 25
15 8
15 11
15 12
15 14
15 17
15 18
15 21
15 22
15 23
15 25
15 26
16 10
16 11
16 13
16 17
16 20
16 22
16 23
16 24
17 8
17 10
17 11
17 13
17 15
17 16
17 20
17 21
17 22
17 23
18 9
18 12
18 14
18 15
18 19
18 21
18 23
18 25
18 26
18 27
19 9
19 12
19 14
19 18
19 21
19 25
19 27
20 13
20 16
20 17
20 22
20 23
20 24
20 28
20 29
21 15
21 17
21 18
21 19
21 22
21 23
21 25
21 26
21 27
21 30
21 31
21 32
22 13
22 15
22 16
22 17
22 20
22 21
22 23
22 24
22 26
22 28
22 29
22 30
22 34
23 15
23 16
23 17
23 18
23 20
23 21
23 22
23 26
23 27
23 29
23 30
23 31
23 32
23 34
24 16
24 20
24 22
24 28
24 29
25 14
25 15
25 18
25 19
25 21
25 26
25 27
25 31
25 33
25 35
26 15
26 18
26 21
26 22
26 23
26 25
26 27
26 29
26 30
26 31
26 32
26 33
26 34
26 35
27 18
27 19
27 21
27 23
27 25
27 26
27 30
27 31
27 32
27 33
27 35
28 20
28 22
28 24
28 29
28 30
28 34
28 36
29 20
29 22
29 23
29 24
29 26
29 28
29 30
29 32
29 34
29 36
30 21
30 22
30 23
30 26
30 27
30 28
30 29
30 31
30 32
30 34
30 36
31 21
31 23
31 25
31 26
31 27
31 30
31 32
31 33
31 35
32 21
32 23
32 26
32 27
32 29
32 30
32 31
32 34
32 35
32 36
33 25
33 26
33 27
33 31
33 35
34 22
34 23
34 26
34 28
34 29
34 30
34 32
34 36
35 25
35 26
35 27
35 31
35 32
35 33
36 28
36 29
36 30
36 32
36 34
