1 3
1 7
1 8
1 13
1 15
2 3
2 4
2 5
2 6
2 7
2 9
2 10
2 11
2 12
2 13
2 14
3 1
3 2
3 6
3 7
3 8
3 11
3 12
3 13
3 15
4 2
4 5
4 6
4 7
4 9
4 10
4 11
4 12
4 14
4 16
5 2
5 4
5 6
5 9
5 10
5 11
5 14
5 16
6 2
6 3
6 4
6 5
6 7
6 9
6 10
6 11
6 12
6 14
6 16
7 1
7 2
7 3
7 4
7 6
7 8
7 10
7 11
7 12
7 13
7 14
7 15
7 18
8 1
8 3
8 7
8 12
8 13
8 15
8 17
8 21
9 2
9 4
9 5
9 6
9 10
9 11
9 14
9 16
9 19
9 20
9 23
10 2
10 4
10 5
10 6
10 7
10 9
10 11
10 12
10 14
10 16
10 19
10 20
10 22
10 23
11 2
11 3
11 4
11 5
11 6
11 7
11 9
11 10
11 12
11 13
11 14
11 16
11 18
11 19
11 21
11 22
11 23
12 2
12 3
12 4
12 6
12 7
12 8
12 10
12 11
12 13
12 14
12 15
12 17
12 18
12 19
12 21
12 22
12 24
13 1
13 2
13 3
13 7
13 8
13 11
13 12
13 14
13 15
13 17
13 18
13 21
13 22
13 24
13 25
13 27
14 2
14 4
14 5
14 6
14 7
14 9
14 10
14 11
14 12
14 13
14 16
14 18
14 19
14 20
14 22
14 23
15 1
15 3
15 7
15 8
15 12
15 13
15 17
15 18
15 21
15 24
15 25
15 27
16 4
16 5
16 6
16 9
16 10
16 11
16 14
16 19
16 20
16 22
16 23
16 26
16 28
16 29
16 30
17 8
17 12
17 13
17 15
17 18
17 21
17 24
17 25
17 27
17 32
18 7
18 11
18 12
18 13
18 14
18 15
18 17
18 19
18 21
18 22
18 23
18 24
18 25
18 27
18 28
18 31
18 32
19 9
19 10
19 11
19 12
19 14
19 16
19 18
19 20
19 21
19 22
19 23
19 24
19 26
19 28
19 29
19 30
19 31
19 33
20 9
20 10
20 14
20 16
20 19
20 23
20 26
20 28
20 29
20 30
20 34
20 36
21 8
21 11
21 12
21 13
21 15
21 17
21 18
21 19
21 22
21 24
21 25
21 27
21 31
21 32
22 10
22 11
22 12
22 13
22 14
22 16
22 18
22 19
22 21
22 23
22 24
22 28
22 29
22 30
22 31
22 32
22 33
23 9
23 10
23 11
23 14
23 16
23 18
23 19
23 20
23 22
23 26
23 28
23 29
23 30
23 31
23 33
23 36
23 38
24 12
24 13
24 15
24 17
24 18
24 19
24 21
24 22
24 25
24 27
24 28
24 31
24 32
24 35
24 37
25 13
25 15
25 17
25 18
25 21
25 24
25 27
25 31
25 32
25 35
26 16
26 19
26 20
26 23
26 28
26 29
26 30
26 33
26 34
26 36
27 13
27 15
27 17
27 18
27 21
27 24
27 25
27 31
27 32
27 35
27 39
27 41
28 16
28 18
28 19
28 20
28 22
28 23
28 24
28 26
28 29
28 30
28 31
28 32
28 33
28 36
28 37
28 38
28 40
28 42
28 44
29 16
29 19
29 20
29 22
29 23
29 26
29 28
29 30
29 31
29 33
29 34
29 36
29 37
29 38
29 40
29 43
30 16
30 19
30 20
30 22
30 23
30 26
30 28
30 29
30 31
30 33
30 34
30 36
30 38
30 40
30 43
30 45
31 18
31 19
31 21
31 22
31 23
31 24
31 25
31 27
31 28
31 29
31 30
31 32
31 33
31 37
31 38
31 39
31 42
31 44
32 17
32 18
32 21
32 22
32 24
32 25
32 27
32 28
32 31
32 33
32 35
32 37
32 39
32 41
32 42
32 44
32 46
33 19
33 22
33 23
33 26
33 28
33 29
33 30
33 31
33 32
33 34
33 36
33 37
33 38
33 40
33 42
33 43
33 44
33 47
34 20
34 26
34 29
34 30
34 33
34 36
34 38
34 40
34 43
34 45
34 48
35 24
35 25
35 27
35 32
35 37
35 39
35 41
35 46
35 49
36 20
36 23
36 26
36 28
36 29
36 30
36 33
36 34
36 38
36 40
36 43
36 45
36 47
36 48
37 24
37 28
37 29
37 31
37 32
37 33
37 35
37 38
37 39
37 40
37 41
37 42
37 44
37 46
37 47
37 50
38 23
38 28
38 29
38 30
38 31
38 33
38 34
38 36
38 37
38 39
38 40
38 42
38 43
38 44
38 45
38 47
38 48
38 50
39 27
39 31
39 32
39 35
39 37
39 38
39 41
39 42
39 44
39 46
39 49
39 50
40 28
40 29
40 30
40 33
40 34
40 36
40 37
40 38
40 42
40 43
40 44
40 45
40 47
40 48
40 50
41 27
41 32
41 35
41 37
41 39
41 42
41 46
41 49
42 28
42 31
42 32
42 33
42 37
42 38
42 39
42 40
42 41
42 44
42 46
42 47
42 48
42 49
42 50
43 29
43 30
43 33
43 34
43 36
43 38
43 40
43 44
43 45
43 47
43 48
44 28
44 31
44 32
44 33
44 37
44 38
44 39
44 40
44 42
44 43
44 46
44 47
44 48
44 50
45 30
45 34
45 36
45 38
45 40
45 43
45 47
45 48
46 32
46 35
46 37
46 39
46 41
46 42
46 44
46 49
46 50
47 33
47 36
47 37
47 38
47 40
47 42
47 43
47 44
47 45
47 48
47 50
48 34
48 36
48 38
48 40
48 42
48 43
48 44
48 45
48 47
48 50
49 35
49 39
49 41
49 42
49 46
50 37
50 38
50 39
50 40
50 42
50 44
50 46
50 47
50 48
