1 2
1 3
1 8
1 9
1 10
1 11
1 12
1 16
2 1
2 3
2 5
2 8
2 9
2 10
2 11
2 14
2 16
2 17
3 1
3 2
3 4
3 6
3 8
3 9
3 10
3 12
3 16
3 18
4 3
4 6
4 7
4 12
4 13
4 15
5 2
5 8
5 9
5 11
5 14
5 17
5 22
6 3
6 4
6 7
6 10
6 12
6 13
6 15
6 18
6 19
6 20
7 4
7 6
7 13
7 15
7 19
8 1
8 2
8 3
8 5
8 9
8 10
8 11
8 14
8 16
8 17
8 22
8 23
9 1
9 2
9 3
9 5
9 8
9 10
9 11
9 12
9 14
9 16
9 17
9 18
9 21
9 23
10 1
10 2
10 3
10 6
10 8
10 9
10 12
10 16
10 17
10 18
10 20
10 21
11 1
11 2
11 5
11 8
11 9
11 14
11 16
11 17
11 22
11 23
11 25
12 1
12 3
12 4
12 6
12 9
12 10
12 13
12 16
12 17
12 18
12 20
12 21
13 4
13 6
13 7
13 12
13 15
13 18
13 19
13 20
13 24
13 28
14 2
14 5
14 8
14 9
14 11
14 16
14 17
14 22
14 23
14 25
14 29
15 4
15 6
15 7
15 13
15 19
15 20
15 24
15 28
16 1
16 2
16 3
16 8
16 9
16 10
16 11
16 12
16 14
16 17
16 18
16 20
16 21
16 23
16 26
16 27
17 2
17 5
17 8
17 9
17 10
17 11
17 12
17 14
17 16
17 18
17 21
17 22
17 23
17 25
17 26
17 27
17 29
18 3
18 6
18 9
18 10
18 12
18 13
18 16
18 17
18 20
18 21
18 23
18 24
18 26
18 27
18 30
19 6
19 7
19 13
19 15
19 20
19 24
19 28
19 30
19 31
20 6
20 10
20 12
20 13
20 15
20 16
20 18
20 19
20 21
20 24
20 26
20 28
20 30
21 9
21 10
21 12
21 16
21 17
21 18
21 20
21 23
21 26
21 27
21 30
21 33
22 5
22 8
22 11
22 14
22 17
22 23
22 25
22 27
22 29
22 32
23 8
23 9
23 11
23 14
23 16
23 17
23 18
23 21
23 22
23 25
23 26
23 27
23 29
23 32
23 33
23 37
24 13
24 15
24 18
24 19
24 20
24 28
24 30
24 31
24 36
25 11
25 14
25 17
25 22
25 23
25 27
25 29
25 32
25 33
25 37
26 16
26 17
26 18
26 20
26 21
26 23
26 27
26 30
26 32
26 33
26 34
26 35
27 16
27 17
27 18
27 21
27 22
27 23
27 25
27 26
27 29
27 32
27 33
27 35
27 37
27 40
27 41
28 13
28 15
28 19
28 20
28 24
28 30
28 31
28 34
28 36
28 38
28 39
29 14
29 17
29 22
29 23
29 25
29 27
29 32
29 33
29 37
29 40
30 18
30 19
30 20
30 21
30 24
30 26
30 28
30 31
30 34
30 36
30 38
30 39
31 19
31 24
31 28
31 30
31 36
31 39
32 22
32 23
32 25
32 26
32 27
32 29
32 33
32 35
32 37
32 40
32 41
32 43
33 21
33 23
33 25
33 26
33 27
33 29
33 32
33 34
33 35
33 37
33 40
33 41
33 42
33 43
33 46
34 26
34 28
34 30
34 33
34 35
34 36
34 38
34 41
34 42
34 44
35 26
35 27
35 32
35 33
35 34
35 37
35 38
35 40
35 41
35 42
35 43
35 46
36 24
36 28
36 30
36 31
36 34
36 38
36 39
36 42
36 44
36 47
36 48
37 23
37 25
37 27
37 29
37 32
37 33
37 35
37 40
37 41
37 43
37 45
37 46
37 49
38 28
38 30
38 34
38 35
38 36
38 39
38 41
38 42
38 44
38 46
38 48
38 51
39 28
39 30
39 31
39 36
39 38
39 44
39 47
39 48
39 52
39 54
40 27
40 29
40 32
40 33
40 35
40 37
40 41
40 43
40 45
40 49
40 50
40 53
41 27
41 32
41 33
41 34
41 35
41 37
41 38
41 40
41 42
41 43
41 45
41 46
41 49
41 51
41 53
41 56
42 33
42 34
42 35
42 36
42 38
42 41
42 43
42 44
42 46
42 48
42 51
42 56
42 57
43 32
43 33
43 35
43 37
43 40
43 41
43 42
43 45
43 46
43 49
43 50
43 51
43 53
43 56
43 60
44 34
44 36
44 38
44 39
44 42
44 46
44 47
44 48
44 51
44 52
44 54
44 59
45 37
45 40
45 41
45 43
45 49
45 50
45 53
45 55
45 60
46 33
46 35
46 37
46 38
46 41
46 42
46 43
46 44
46 48
46 49
46 51
46 53
46 56
46 57
46 60
46 61
46 63
47 36
47 39
47 44
47 48
47 52
47 54
47 58
47 59
48 36
48 38
48 39
48 42
48 44
48 46
48 47
48 51
48 52
48 54
48 57
48 58
48 59
49 37
49 40
49 41
49 43
49 45
49 46
49 50
49 53
49 55
49 56
49 60
49 61
49 62
50 40
50 43
50 45
50 49
50 53
50 55
50 60
50 62
51 38
51 41
51 42
51 43
51 44
51 46
51 48
51 53
51 54
51 56
51 57
51 59
51 61
51 63
52 39
52 44
52 47
52 48
52 54
52 58
52 59
53 40
53 41
53 43
53 45
53 46
53 49
53 50
53 51
53 55
53 56
53 57
53 60
53 61
53 62
53 63
54 39
54 44
54 47
54 48
54 51
54 52
54 57
54 58
54 59
55 45
55 49
55 50
55 53
55 60
55 61
55 62
56 41
56 42
56 43
56 46
56 49
56 51
56 53
56 57
56 60
56 61
56 63
57 42
57 46
57 48
57 51
57 53
57 54
57 56
57 59
57 60
57 61
57 63
58 47
58 48
58 52
58 54
58 59
59 44
59 47
59 48
59 51
59 52
59 54
59 57
59 58
59 63
60 43
60 45
60 46
60 49
60 50
60 53
60 55
60 56
60 57
60 61
60 62
60 63
61 46
61 49
61 51
61 53
61 55
61 56
61 57
61 60
61 62
61 63
62 49
62 50
62 53
62 55
62 60
62 61
63 46
63 51
63 53
63 56
63 57
63 59
63 60
63 61
