1 2
1 3
1 4
1 5
1 7
1 9
1 10
2 1
2 3
2 5
2 10
3 1
3 2
3 4
3 5
3 6
3 7
3 9
3 10
3 11
4 1
4 3
4 5
4 6
4 7
4 8
4 9
4 11
5 1
5 2
5 3
5 4
5 7
5 9
5 10
5 12
5 13
6 3
6 4
6 7
6 8
6 9
6 11
6 14
6 15
7 1
7 3
7 4
7 5
7 6
7 8
7 9
7 11
7 12
7 15
7 16
7 17
8 4
8 6
8 7
8 11
8 14
8 15
8 17
9 1
9 3
9 4
9 5
9 6
9 7
9 10
9 11
9 12
9 13
9 16
9 17
9 18
9 19
10 1
10 2
10 3
10 5
10 9
10 12
10 13
10 16
10 18
10 19
10 20
11 3
11 4
11 6
11 7
11 8
11 9
11 12
11 14
11 15
11 16
11 17
11 18
11 19
11 21
11 22
11 24
12 5
12 7
12 9
12 10
12 11
12 13
12 16
12 18
12 19
12 20
13 5
13 9
13 10
13 12
13 18
13 20
14 6
14 8
14 11
14 15
14 17
14 21
14 22
14 23
14 25
15 6
15 7
15 8
15 11
15 14
15 16
15 17
15 21
15 22
15 23
15 24
15 25
15 27
15 28
16 7
16 9
16 10
16 11
16 12
16 15
16 17
16 18
16 19
16 20
16 21
16 22
16 24
16 26
16 27
16 28
17 7
17 8
17 9
17 11
17 14
17 15
17 16
17 18
17 19
17 21
17 22
17 23
17 24
17 25
17 26
17 27
17 28
18 9
18 10
18 11
18 12
18 13
18 16
18 17
18 19
18 20
18 21
18 24
18 26
18 27
18 30
18 31
19 9
19 10
19 11
19 12
19 16
19 17
19 18
19 20
19 21
19 22
19 24
19 26
19 27
19 28
19 30
19 31
20 10
20 12
20 13
20 16
20 18
20 19
20 26
20 29
20 30
21 11
21 14
21 15
21 16
21 17
21 18
21 19
21 22
21 23
21 24
21 25
21 26
21 27
21 28
21 31
21 32
22 11
22 14
22 15
22 16
22 17
22 19
22 21
22 23
22 24
22 25
22 26
22 27
22 28
22 31
22 32
22 33
23 14
23 15
23 17
23 21
23 22
23 24
23 25
23 27
23 28
23 32
23 33
24 11
24 15
24 16
24 17
24 18
24 19
24 21
24 22
24 23
24 25
24 26
24 27
24 28
24 30
24 31
24 32
24 34
25 14
25 15
25 17
25 21
25 22
25 23
25 24
25 27
25 28
25 32
25 33
25 36
26 16
26 17
26 18
26 19
26 20
26 21
26 22
26 24
26 27
26 28
26 30
26 31
26 32
26 34
26 35
27 15
27 16
27 17
27 18
27 19
27 21
27 22
27 23
27 24
27 25
27 26
27 28
27 31
27 32
27 33
27 34
28 15
28 16
28 17
28 19
28 21
28 22
28 23
28 24
28 25
28 26
28 27
28 31
28 32
28 33
28 34
28 36
28 40
29 20
29 30
29 35
29 37
29 38
30 18
30 19
30 20
30 24
30 26
30 29
30 31
30 35
30 37
30 38
31 18
31 19
31 21
31 22
31 24
31 26
31 27
31 28
31 30
31 32
31 34
31 35
31 39
31 40
32 21
32 22
32 23
32 24
32 25
32 26
32 27
32 28
32 31
32 33
32 34
32 36
32 39
32 40
33 22
33 23
33 25
33 27
33 28
33 32
33 34
33 36
33 40
34 24
34 26
34 27
34 28
34 31
34 32
34 33
34 35
34 36
34 39
34 40
35 26
35 29
35 30
35 31
35 34
35 37
35 38
35 39
35 40
36 25
36 28
36 32
36 33
36 34
36 40
37 29
37 30
37 35
37 38
38 29
38 30
38 35
38 37
38 39
39 31
39 32
39 34
39 35
39 38
39 40
40 28
40 31
40 32
40 33
40 34
40 35
40 36
40 39
