1 2
1 9
2 1
2 4
2 8
3 5
4 2
4 6
4 8
5 3
5 10
6 4
6 7
6 8
7 6
7 10
7 15
8 2
8 4
8 6
8 9
8 13
8 17
9 1
9 8
9 13
9 14
10 5
10 7
10 11
10 15
10 18
11 10
11 12
11 18
11 20
12 11
12 18
12 20
13 8
13 9
13 14
13 17
13 21
14 9
14 13
14 22
15 7
15 10
15 16
15 18
15 19
16 15
16 17
16 19
17 8
17 13
17 16
17 19
17 21
18 10
18 11
18 12
18 15
18 20
19 15
19 16
19 17
19 23
20 11
20 12
20 18
20 26
21 13
21 17
21 22
21 25
21 28
22 14
22 21
22 27
22 28
23 19
23 24
23 25
23 29
23 30
24 23
24 26
24 29
24 31
25 21
25 23
25 30
26 20
26 24
26 31
26 33
27 22
27 28
28 21
28 22
28 27
28 35
28 36
29 23
29 24
29 30
29 31
29 32
29 34
30 23
30 25
30 29
30 32
30 35
31 24
31 26
31 29
31 33
31 34
31 37
32 29
32 30
32 35
32 37
32 38
33 26
33 31
33 34
34 29
34 31
34 33
34 37
35 28
35 30
35 32
35 36
35 38
36 28
36 35
36 39
36 41
36 42
37 31
37 32
37 34
37 38
37 44
37 46
38 32
38 35
38 37
38 44
38 45
39 36
39 42
39 47
40 43
41 36
41 42
41 45
41 47
41 49
42 36
42 39
42 41
42 47
43 40
43 46
43 48
44 37
44 38
44 45
44 46
44 51
45 38
45 41
45 44
45 46
45 49
45 51
46 37
46 43
46 44
46 45
46 48
46 50
46 51
47 39
47 41
47 42
47 53
48 43
48 46
48 50
48 52
49 41
49 45
49 53
50 46
50 48
50 51
51 44
51 45
51 46
51 50
52 48
53 47
53 49
