1 2
1 3
1 8
1 9
1 10
2 1
2 5
2 8
2 9
2 11
3 1
3 6
3 9
3 10
3 12
4 6
4 7
4 13
5 2
5 8
5 11
5 14
6 3
6 4
6 7
6 10
6 12
6 13
7 4
7 6
7 13
7 15
7 19
8 1
8 2
8 5
8 9
8 11
8 14
8 16
8 17
9 1
9 2
9 3
9 8
9 10
9 11
9 12
9 16
9 17
9 18
9 21
10 1
10 3
10 6
10 9
10 12
10 16
10 18
10 21
11 2
11 5
11 8
11 9
11 14
11 17
11 22
12 3
12 6
12 9
12 10
12 13
12 16
12 18
12 20
12 21
13 4
13 6
13 7
13 12
13 15
13 19
13 20
13 24
14 5
14 8
14 11
14 17
14 22
14 23
14 25
15 7
15 13
15 19
15 24
16 8
16 9
16 10
16 12
16 17
16 18
16 21
16 23
16 26
17 8
17 9
17 11
17 14
17 16
17 18
17 21
17 22
17 23
17 25
17 27
18 9
18 10
18 12
18 16
18 17
18 20
18 21
18 26
19 7
19 13
19 15
19 20
19 24
19 28
20 12
20 13
20 18
20 19
20 21
20 24
20 26
20 30
21 9
21 10
21 12
21 16
21 17
21 18
21 20
21 23
21 26
21 27
22 11
22 14
22 17
22 23
22 25
22 29
23 14
23 16
23 17
23 21
23 22
23 25
23 26
23 27
23 29
23 32
23 33
24 13
24 15
24 19
24 20
24 28
24 30
24 31
25 14
25 17
25 22
25 23
25 27
25 29
25 32
26 16
26 18
26 20
26 21
26 23
26 27
26 30
26 32
26 33
26 34
26 35
27 17
27 21
27 23
27 25
27 26
27 29
27 32
27 33
27 35
27 37
28 19
28 24
28 30
28 31
28 36
28 39
29 22
29 23
29 25
29 27
29 32
29 33
29 37
29 40
30 20
30 24
30 26
30 28
30 31
30 34
30 36
30 38
31 24
31 28
31 30
31 36
31 39
32 23
32 25
32 26
32 27
32 29
32 33
32 35
32 37
32 40
32 41
32 43
33 23
33 26
33 27
33 29
33 32
33 34
33 35
33 37
33 40
33 41
33 43
34 26
34 30
34 33
34 35
34 36
34 38
34 42
35 26
35 27
35 32
35 33
35 34
35 37
35 41
35 42
35 43
35 46
36 28
36 30
36 31
36 34
36 38
36 39
36 44
37 27
37 29
37 32
37 33
37 35
37 40
37 41
37 43
37 45
38 30
38 34
38 36
38 39
38 42
38 44
38 48
39 28
39 31
39 36
39 38
39 44
39 47
40 29
40 32
40 33
40 37
40 41
40 43
40 45
40 49
40 50
41 32
41 33
41 35
41 37
41 40
41 42
41 43
41 46
41 49
42 34
42 35
42 38
42 41
42 44
42 46
42 48
42 51
43 32
43 33
43 35
43 37
43 40
43 41
43 45
43 46
43 49
43 53
44 36
44 38
44 39
44 42
44 47
44 48
44 51
44 54
45 37
45 40
45 43
45 49
45 50
45 53
45 55
46 35
46 41
46 42
46 43
46 49
46 51
46 53
46 56
46 57
47 39
47 44
47 48
47 52
47 54
47 58
48 38
48 42
48 44
48 47
48 51
48 52
48 54
48 57
48 59
49 40
49 41
49 43
49 45
49 46
49 50
49 53
49 55
49 56
49 60
49 61
50 40
50 45
50 49
50 53
50 55
50 60
50 62
51 42
51 44
51 46
51 48
51 54
51 56
51 57
51 59
51 63
52 47
52 48
52 54
52 58
52 59
53 43
53 45
53 46
53 49
53 50
53 55
53 56
53 57
53 60
53 61
53 62
54 44
54 47
54 48
54 51
54 52
54 58
54 59
55 45
55 49
55 50
55 53
55 60
55 62
56 46
56 49
56 51
56 53
56 57
56 60
56 61
56 63
57 46
57 48
57 51
57 53
57 56
57 59
57 61
57 63
58 47
58 52
58 54
58 59
59 48
59 51
59 52
59 54
59 57
59 58
59 63
60 49
60 50
60 53
60 55
60 56
60 61
60 62
61 49
61 53
61 56
61 57
61 60
61 62
61 63
62 50
62 53
62 55
62 60
62 61
63 51
63 56
63 57
63 59
63 61
