1 2
1 4
1 7
1 10
2 1
2 4
2 8
3 5
3 9
4 1
4 2
4 8
5 3
5 6
5 9
6 5
6 13
7 1
7 10
7 12
8 2
8 4
8 16
9 3
9 5
9 12
9 14
10 1
10 7
10 11
10 15
11 10
11 16
12 7
12 9
12 14
12 15
12 19
13 6
13 14
13 17
14 9
14 12
14 13
14 17
14 18
15 10
15 12
15 19
16 8
16 11
16 21
16 22
17 13
17 14
17 18
17 23
18 14
18 17
18 23
18 27
19 12
19 15
19 26
19 27
20 22
20 26
20 28
21 16
21 22
21 24
22 16
22 20
22 21
22 24
22 28
23 17
23 18
23 25
23 30
24 21
24 22
24 28
25 23
25 30
26 19
26 20
26 27
26 28
26 29
27 18
27 19
27 26
27 31
28 20
28 22
28 24
28 26
28 29
29 26
29 28
30 23
30 25
30 33
31 27
31 33
31 34
31 38
32 36
32 39
33 30
33 31
33 37
33 38
34 31
34 35
35 34
35 36
36 32
36 35
36 39
36 40
36 45
37 33
37 38
37 43
38 31
38 33
38 37
38 42
38 43
39 32
39 36
39 40
39 41
40 36
40 39
40 41
40 45
40 48
41 39
41 40
41 48
42 38
42 43
42 44
43 37
43 38
43 42
43 46
44 42
44 47
45 36
45 40
45 47
45 48
46 43
47 44
47 45
48 40
48 41
48 45
