1 2
1 4
1 5
1 6
1 7
1 9
1 10
1 11
1 12
2 1
2 4
2 6
2 7
2 9
2 10
2 11
3 4
3 8
3 10
3 13
3 15
4 1
4 2
4 3
4 7
4 8
4 9
4 10
4 13
4 16
5 1
5 6
5 7
5 11
5 12
5 14
6 1
6 2
6 5
6 7
6 9
6 11
6 12
6 14
6 18
6 19
7 1
7 2
7 4
7 5
7 6
7 9
7 10
7 11
7 12
7 14
7 16
7 17
7 18
7 19
7 20
8 3
8 4
8 9
8 10
8 13
8 15
8 16
8 21
9 1
9 2
9 4
9 6
9 7
9 8
9 10
9 11
9 12
9 13
9 16
9 17
9 18
9 20
10 1
10 2
10 3
10 4
10 7
10 8
10 9
10 11
10 13
10 15
10 16
10 17
10 18
10 20
10 23
11 1
11 2
11 5
11 6
11 7
11 9
11 10
11 12
11 14
11 16
11 17
11 18
11 19
11 20
12 1
12 5
12 6
12 7
12 9
12 11
12 14
12 17
12 18
12 19
12 20
12 22
13 3
13 4
13 8
13 9
13 10
13 15
13 16
13 17
13 21
13 23
13 25
14 5
14 6
14 7
14 11
14 12
14 18
14 19
14 20
14 22
14 24
15 3
15 8
15 10
15 13
15 16
15 21
15 25
16 4
16 7
16 8
16 9
16 10
16 11
16 13
16 15
16 17
16 18
16 20
16 21
16 23
16 25
17 7
17 9
17 10
17 11
17 12
17 13
17 16
17 18
17 19
17 20
17 23
17 24
17 26
18 6
18 7
18 9
18 10
18 11
18 12
18 14
18 16
18 17
18 19
18 20
18 22
18 23
18 24
18 26
19 6
19 7
19 11
19 12
19 14
19 17
19 18
19 20
19 22
19 24
19 26
19 27
19 30
20 7
20 9
20 10
20 11
20 12
20 14
20 16
20 17
20 18
20 19
20 22
20 23
20 24
20 26
20 27
20 28
20 30
21 8
21 13
21 15
21 16
21 23
21 25
21 28
21 29
21 31
21 32
22 12
22 14
22 18
22 19
22 20
22 24
22 27
22 30
22 33
23 10
23 13
23 16
23 17
23 18
23 20
23 21
23 24
23 25
23 26
23 28
23 29
23 32
23 34
24 14
24 17
24 18
24 19
24 20
24 22
24 23
24 26
24 27
24 28
24 30
24 35
24 37
25 13
25 15
25 16
25 21
25 23
25 26
25 28
25 29
25 31
25 32
25 34
25 38
26 17
26 18
26 19
26 20
26 23
26 24
26 25
26 27
26 28
26 29
26 30
26 34
26 35
26 37
26 40
27 19
27 20
27 22
27 24
27 26
27 30
27 33
27 35
27 36
27 37
28 20
28 21
28 23
28 24
28 25
28 26
28 29
28 30
28 31
28 32
28 34
28 35
28 37
28 38
28 40
28 41
29 21
29 23
29 25
29 26
29 28
29 31
29 32
29 34
29 37
29 38
29 39
29 40
29 41
30 19
30 20
30 22
30 24
30 26
30 27
30 28
30 33
30 34
30 35
30 36
30 37
30 43
31 21
31 25
31 28
31 29
31 32
31 38
31 39
32 21
32 23
32 25
32 28
32 29
32 31
32 34
32 38
32 39
32 41
32 45
33 22
33 27
33 30
33 35
33 36
33 42
33 43
34 23
34 25
34 26
34 28
34 29
34 30
34 32
34 35
34 37
34 38
34 39
34 40
34 41
34 44
34 46
35 24
35 26
35 27
35 28
35 30
35 33
35 34
35 36
35 37
35 40
35 42
35 43
35 44
36 27
36 30
36 33
36 35
36 37
36 42
36 43
37 24
37 26
37 27
37 28
37 29
37 30
37 34
37 35
37 36
37 38
37 40
37 41
37 43
37 44
37 47
37 48
38 25
38 28
38 29
38 31
38 32
38 34
38 37
38 39
38 40
38 41
38 44
38 45
38 46
39 29
39 31
39 32
39 34
39 38
39 40
39 41
39 45
39 46
39 49
40 26
40 28
40 29
40 34
40 35
40 37
40 38
40 39
40 41
40 43
40 44
40 45
40 46
40 47
41 28
41 29
41 32
41 34
41 37
41 38
41 39
41 40
41 44
41 45
41 46
41 47
41 49
42 33
42 35
42 36
42 43
42 48
43 30
43 33
43 35
43 36
43 37
43 40
43 42
43 44
43 47
43 48
44 34
44 35
44 37
44 38
44 40
44 41
44 43
44 46
44 47
44 48
45 32
45 38
45 39
45 40
45 41
45 46
45 49
46 34
46 38
46 39
46 40
46 41
46 44
46 45
46 47
46 49
47 37
47 40
47 41
47 43
47 44
47 46
47 48
48 37
48 42
48 43
48 44
48 47
49 39
49 41
49 45
49 46
