1 4
2 4
2 5
3 6
4 1
4 2
4 5
4 8
5 2
5 4
5 10
6 3
6 7
6 9
6 11
7 6
7 8
7 9
8 4
8 7
8 9
9 6
9 7
9 8
9 11
9 14
10 5
10 12
10 13
11 6
11 9
11 15
11 16
12 10
12 13
12 17
12 18
13 10
13 12
13 18
13 20
14 9
14 16
15 11
15 16
15 19
16 11
16 14
16 15
16 19
16 22
17 12
17 18
18 12
18 13
18 17
18 20
18 23
19 15
19 16
19 22
19 26
20 13
20 18
20 21
20 25
21 20
21 24
21 25
22 16
22 19
22 24
22 26
22 27
23 18
23 28
24 21
24 22
24 27
24 30
25 20
25 21
25 29
26 19
26 22
26 27
26 31
27 22
27 24
27 26
27 31
28 23
28 32
29 25
30 24
31 26
31 27
31 33
32 28
33 31
33 34
34 33
