1 3
1 5
1 6
1 7
2 4
2 6
2 8
3 1
3 5
3 6
3 7
3 12
4 2
4 8
4 9
4 10
5 1
5 3
5 6
5 7
5 12
6 1
6 2
6 3
6 5
6 8
6 13
7 1
7 3
7 5
7 12
7 15
8 2
8 4
8 6
8 10
8 11
8 13
9 4
9 10
9 16
9 20
10 4
10 8
10 9
10 11
10 13
10 16
10 20
10 21
11 8
11 10
11 13
11 14
11 16
11 18
11 21
11 22
12 3
12 5
12 7
12 13
12 14
12 15
12 17
12 18
12 19
13 6
13 8
13 10
13 11
13 12
13 14
13 16
13 18
13 19
13 21
13 22
13 23
14 11
14 12
14 13
14 17
14 18
14 19
14 22
14 23
15 7
15 12
15 17
15 19
16 9
16 10
16 11
16 13
16 18
16 20
16 21
16 22
16 24
17 12
17 14
17 15
17 18
17 19
17 23
17 25
17 26
18 11
18 12
18 13
18 14
18 16
18 17
18 19
18 21
18 22
18 23
18 25
18 27
19 12
19 13
19 14
19 15
19 17
19 18
19 23
19 25
19 26
20 9
20 10
20 16
20 21
20 22
20 24
20 28
21 10
21 11
21 13
21 16
21 18
21 20
21 22
21 24
21 27
21 28
22 11
22 13
22 14
22 16
22 18
22 20
22 21
22 23
22 24
22 27
23 13
23 14
23 17
23 18
23 19
23 22
23 25
23 26
23 27
23 30
24 16
24 20
24 21
24 22
24 27
24 28
24 31
25 17
25 18
25 19
25 23
25 26
25 29
25 32
26 17
26 19
26 23
26 25
26 29
27 18
27 21
27 22
27 23
27 24
27 30
27 31
28 20
28 21
28 24
28 31
28 33
29 25
29 26
29 32
29 34
29 35
30 23
30 27
30 31
30 32
30 34
30 37
31 24
31 27
31 28
31 30
31 33
31 36
31 37
32 25
32 29
32 30
32 34
32 37
33 28
33 31
33 36
34 29
34 30
34 32
34 37
35 29
36 31
36 33
37 30
37 31
37 32
37 34
