1 2
1 4
1 7
1 8
1 9
2 1
2 4
2 9
3 5
3 6
3 7
3 10
3 11
4 1
4 2
4 7
4 8
4 9
4 13
5 3
5 6
5 7
5 10
5 12
6 3
6 5
6 10
6 12
6 15
7 1
7 3
7 4
7 5
7 8
7 10
7 11
7 14
8 1
8 4
8 7
8 9
8 11
8 13
8 14
8 16
9 1
9 2
9 4
9 8
9 13
9 16
9 19
10 3
10 5
10 6
10 7
10 11
10 12
10 14
10 15
10 17
10 18
11 3
11 7
11 8
11 10
11 14
11 15
11 16
11 18
12 5
12 6
12 10
12 14
12 15
12 17
12 22
12 23
13 4
13 8
13 9
13 16
13 19
13 20
14 7
14 8
14 10
14 11
14 12
14 15
14 16
14 18
14 21
14 22
14 24
15 6
15 10
15 11
15 12
15 14
15 17
15 18
15 22
15 23
15 25
15 26
16 8
16 9
16 11
16 13
16 14
16 18
16 19
16 20
16 21
17 10
17 12
17 15
17 22
17 23
17 25
17 26
18 10
18 11
18 14
18 15
18 16
18 20
18 21
18 22
18 24
18 25
19 9
19 13
19 16
19 20
19 21
19 27
19 28
19 30
20 13
20 16
20 18
20 19
20 21
20 24
20 27
20 28
20 30
21 14
21 16
21 18
21 19
21 20
21 24
21 25
21 27
21 28
21 30
21 34
22 12
22 14
22 15
22 17
22 18
22 23
22 24
22 25
22 26
22 29
22 33
23 12
23 15
23 17
23 22
23 25
23 26
23 29
23 33
24 14
24 18
24 20
24 21
24 22
24 25
24 28
24 29
24 32
24 34
25 15
25 17
25 18
25 21
25 22
25 23
25 24
25 26
25 29
25 32
25 33
25 36
26 15
26 17
26 22
26 23
26 25
26 29
26 33
27 19
27 20
27 21
27 28
27 30
27 31
27 34
27 35
28 19
28 20
28 21
28 24
28 27
28 30
28 31
28 32
28 34
28 35
29 22
29 23
29 24
29 25
29 26
29 32
29 33
29 36
29 37
30 19
30 20
30 21
30 27
30 28
30 31
30 34
30 35
30 38
30 40
31 27
31 28
31 30
31 35
31 38
31 40
32 24
32 25
32 28
32 29
32 33
32 34
32 36
32 39
32 41
33 22
33 23
33 25
33 26
33 29
33 32
33 36
33 37
33 41
34 21
34 24
34 27
34 28
34 30
34 32
34 35
34 36
34 38
34 39
35 27
35 28
35 30
35 31
35 34
35 38
35 39
35 40
36 25
36 29
36 32
36 33
36 34
36 37
36 39
36 41
37 29
37 33
37 36
37 41
38 30
38 31
38 34
38 35
38 39
38 40
39 32
39 34
39 35
39 36
39 38
39 40
39 41
40 30
40 31
40 35
40 38
40 39
41 32
41 33
41 36
41 37
41 39
