1 3
1 7
1 8
2 4
2 6
2 9
2 10
3 1
3 4
3 5
3 7
3 8
3 11
3 13
4 2
4 3
4 5
4 6
4 9
4 10
4 11
4 12
5 3
5 4
5 6
5 7
5 10
5 11
5 12
5 13
6 2
6 4
6 5
6 9
6 10
6 12
6 14
6 15
7 1
7 3
7 5
7 8
7 11
7 13
7 16
7 18
8 1
8 3
8 7
8 11
8 13
8 16
9 2
9 4
9 6
9 10
9 12
9 14
9 15
9 17
10 2
10 4
10 5
10 6
10 9
10 11
10 12
10 14
10 15
10 17
11 3
11 4
11 5
11 7
11 8
11 10
11 12
11 13
11 15
11 16
11 18
11 19
12 4
12 5
12 6
12 9
12 10
12 11
12 13
12 14
12 15
12 17
12 18
12 19
12 20
13 3
13 5
13 7
13 8
13 11
13 12
13 15
13 16
13 18
13 19
13 20
13 21
14 6
14 9
14 10
14 12
14 15
14 17
14 19
14 20
14 22
15 6
15 9
15 10
15 11
15 12
15 13
15 14
15 17
15 18
15 19
15 20
15 22
15 24
16 7
16 8
16 11
16 13
16 18
16 19
16 21
16 23
17 9
17 10
17 12
17 14
17 15
17 19
17 20
17 22
17 24
18 7
18 11
18 12
18 13
18 15
18 16
18 19
18 20
18 21
18 23
18 24
18 25
18 26
18 27
19 11
19 12
19 13
19 14
19 15
19 16
19 17
19 18
19 20
19 21
19 22
19 24
19 26
19 27
20 12
20 13
20 14
20 15
20 17
20 18
20 19
20 21
20 22
20 24
20 26
20 27
20 29
21 13
21 16
21 18
21 19
21 20
21 23
21 24
21 25
21 26
21 27
21 30
21 31
22 14
22 15
22 17
22 19
22 20
22 24
22 28
22 29
23 16
23 18
23 21
23 25
23 27
23 30
23 32
24 15
24 17
24 18
24 19
24 20
24 21
24 22
24 26
24 27
24 28
24 29
24 31
24 34
24 35
25 18
25 21
25 23
25 26
25 27
25 30
25 31
25 32
25 33
25 34
25 36
26 18
26 19
26 20
26 21
26 24
26 25
26 27
26 29
26 30
26 31
26 33
26 34
26 35
26 36
26 37
27 18
27 19
27 20
27 21
27 23
27 24
27 25
27 26
27 30
27 31
27 32
27 33
27 34
27 36
27 37
28 22
28 24
28 29
28 35
28 38
29 20
29 22
29 24
29 26
29 28
29 31
29 34
29 35
29 37
29 38
30 21
30 23
30 25
30 26
30 27
30 31
30 32
30 33
30 34
30 36
30 37
30 39
31 21
31 24
31 25
31 26
31 27
31 29
31 30
31 32
31 33
31 34
31 35
31 36
31 37
31 39
32 23
32 25
32 27
32 30
32 31
32 33
32 34
32 36
32 37
32 39
33 25
33 26
33 27
33 30
33 31
33 32
33 34
33 35
33 36
33 37
33 39
34 24
34 25
34 26
34 27
34 29
34 30
34 31
34 32
34 33
34 35
34 36
34 37
34 39
35 24
35 26
35 28
35 29
35 31
35 33
35 34
35 36
35 37
35 38
36 25
36 26
36 27
36 30
36 31
36 32
36 33
36 34
36 35
36 37
36 39
37 26
37 27
37 29
37 30
37 31
37 32
37 33
37 34
37 35
37 36
37 38
37 39
38 28
38 29
38 35
38 37
39 30
39 31
39 32
39 33
39 34
39 36
39 37
