1 4
2 4
3 5
3 7
4 1
4 2
5 3
5 6
6 5
7 3
7 11
8 11
9 13
10 11
10 14
10 15
11 7
11 8
11 10
11 14
12 15
12 17
13 9
13 16
14 10
14 11
14 18
15 10
15 12
15 17
16 13
16 19
16 20
17 12
17 15
17 23
18 14
18 24
18 25
19 16
19 20
20 16
20 19
20 21
21 20
21 24
21 28
22 23
22 25
22 26
22 29
23 17
23 22
23 26
24 18
24 21
24 25
25 18
25 22
25 24
26 22
26 23
26 29
26 33
27 28
27 30
27 31
28 21
28 27
28 30
29 22
29 26
29 33
30 27
30 28
30 31
30 35
31 27
31 30
32 34
32 36
33 26
33 29
33 37
34 32
34 35
35 30
35 34
35 38
36 32
36 41
37 33
38 35
38 39
38 40
39 38
40 38
41 36
