1 2
1 3
1 9
1 10
2 1
2 5
2 8
2 9
2 11
3 1
3 6
3 10
3 12
4 6
4 7
5 2
5 8
5 11
5 14
6 3
6 4
6 7
6 12
6 13
7 4
7 6
7 13
7 15
8 2
8 5
8 9
8 11
8 14
8 17
9 1
9 2
9 8
9 10
9 16
9 17
10 1
10 3
10 9
10 12
10 16
10 18
11 2
11 5
11 8
11 14
11 17
12 3
12 6
12 10
12 16
12 18
12 20
13 6
13 7
13 15
13 19
13 20
13 24
14 5
14 8
14 11
14 17
14 22
15 7
15 13
15 19
16 9
16 10
16 12
16 17
16 18
16 21
17 8
17 9
17 11
17 14
17 16
17 21
17 23
18 10
18 12
18 16
18 20
18 21
18 26
19 13
19 15
19 24
20 12
20 13
20 18
20 24
20 30
21 16
21 17
21 18
21 26
22 14
22 25
22 29
23 17
23 25
23 27
23 29
24 13
24 19
24 20
24 28
24 30
25 22
25 23
25 27
25 29
26 18
26 21
26 27
26 34
27 23
27 25
27 26
27 29
27 32
27 33
28 24
28 30
28 31
28 36
29 22
29 23
29 25
29 27
29 32
30 20
30 24
30 28
30 34
30 36
31 28
31 36
31 39
32 27
32 29
32 33
32 35
32 37
33 27
33 32
33 35
33 37
33 41
34 26
34 30
34 35
34 38
34 42
35 32
35 33
35 34
35 37
35 41
35 42
36 28
36 30
36 31
36 38
36 39
37 32
37 33
37 35
37 40
37 41
37 43
38 34
38 36
38 42
38 44
39 31
39 36
39 44
39 47
40 37
40 43
40 45
41 33
41 35
41 37
41 42
41 43
41 46
42 34
42 35
42 38
42 41
42 44
42 46
42 51
43 37
43 40
43 41
43 45
43 46
43 49
43 53
44 38
44 39
44 42
44 48
44 54
45 40
45 43
45 49
45 50
46 41
46 42
46 43
46 51
46 53
46 56
47 39
47 52
47 54
47 58
48 44
48 51
48 54
48 59
49 43
49 45
49 50
49 53
49 55
49 56
49 60
50 45
50 49
50 55
51 42
51 46
51 48
51 56
51 57
51 63
52 47
52 54
52 58
53 43
53 46
53 49
53 56
53 60
53 61
54 44
54 47
54 48
54 52
54 58
54 59
55 49
55 50
55 60
55 62
56 46
56 49
56 51
56 53
56 57
56 60
56 61
56 63
57 51
57 56
57 61
57 63
58 47
58 52
58 54
59 48
59 54
60 49
60 53
60 55
60 56
60 61
60 62
61 53
61 56
61 57
61 60
61 63
62 55
62 60
63 51
63 56
63 57
63 61
