1 4
2 4
3 5
3 6
3 7
4 1
4 2
4 8
4 9
5 3
5 6
5 10
6 3
6 5
6 10
6 12
7 3
7 8
7 10
7 11
7 14
8 4
8 7
8 11
8 16
9 4
9 13
10 5
10 6
10 7
10 11
10 12
10 14
10 15
11 7
11 8
11 10
11 14
11 18
12 6
12 10
12 15
12 17
13 9
13 16
13 19
14 7
14 10
14 11
14 15
14 18
15 10
15 12
15 14
15 17
15 22
16 8
16 13
16 19
16 20
16 21
17 12
17 15
17 22
17 23
18 11
18 14
18 21
18 24
18 25
19 13
19 16
19 20
19 21
19 27
20 16
20 19
20 21
20 28
21 16
21 18
21 19
21 20
21 24
21 28
22 15
22 17
22 23
22 25
22 26
22 29
23 17
23 22
23 26
24 18
24 21
24 25
25 18
25 22
25 24
25 29
26 22
26 23
26 29
26 33
27 19
27 28
27 30
27 31
28 20
28 21
28 27
28 30
28 34
29 22
29 25
29 26
29 33
30 27
30 28
30 31
30 34
30 35
31 27
31 30
31 35
32 34
32 36
33 26
33 29
33 37
34 28
34 30
34 32
34 35
34 39
35 30
35 31
35 34
35 38
35 39
35 40
36 32
36 41
37 33
38 35
38 39
38 40
39 34
39 35
39 38
40 35
40 38
41 36
