1 5
1 7
1 10
1 14
2 5
2 6
2 8
2 10
2 12
2 13
2 15
3 4
3 9
3 11
3 16
3 17
3 19
4 3
4 6
4 9
4 11
4 12
4 16
4 17
4 19
5 1
5 2
5 7
5 8
5 10
5 13
5 14
5 15
6 2
6 4
6 8
6 9
6 11
6 12
6 13
6 15
6 17
6 20
6 22
7 1
7 5
7 10
7 13
7 14
7 18
7 21
8 2
8 5
8 6
8 10
8 11
8 12
8 13
8 15
8 17
8 20
8 22
8 23
9 3
9 4
9 6
9 11
9 12
9 16
9 17
9 19
9 24
10 1
10 2
10 5
10 7
10 8
10 13
10 14
10 15
10 20
10 21
10 23
11 3
11 4
11 6
11 8
11 9
11 12
11 15
11 16
11 17
11 19
11 22
11 24
12 2
12 4
12 6
12 8
12 9
12 11
12 13
12 15
12 17
12 19
12 20
12 22
12 23
12 24
12 28
13 2
13 5
13 6
13 7
13 8
13 10
13 12
13 14
13 15
13 20
13 21
13 23
13 26
13 27
14 1
14 5
14 7
14 10
14 13
14 18
14 21
14 23
14 25
14 26
14 29
15 2
15 5
15 6
15 8
15 10
15 11
15 12
15 13
15 17
15 20
15 22
15 23
15 27
15 28
16 3
16 4
16 9
16 11
16 17
16 19
16 22
16 24
16 30
17 3
17 4
17 6
17 8
17 9
17 11
17 12
17 15
17 16
17 19
17 20
17 22
17 24
17 28
17 30
18 7
18 14
18 21
18 25
18 26
18 29
18 34
19 3
19 4
19 9
19 11
19 12
19 16
19 17
19 22
19 24
19 30
19 33
19 35
20 6
20 8
20 10
20 12
20 13
20 15
20 17
20 21
20 22
20 23
20 24
20 26
20 27
20 28
20 30
20 31
20 36
20 37
21 7
21 10
21 13
21 14
21 18
21 20
21 23
21 25
21 26
21 27
21 29
21 31
21 32
21 34
22 6
22 8
22 11
22 12
22 15
22 16
22 17
22 19
22 20
22 23
22 24
22 27
22 28
22 30
22 31
22 35
22 36
23 8
23 10
23 12
23 13
23 14
23 15
23 20
23 21
23 22
23 25
23 26
23 27
23 28
23 31
23 32
23 36
23 37
24 9
24 11
24 12
24 16
24 17
24 19
24 20
24 22
24 28
24 30
24 33
24 35
24 38
25 14
25 18
25 21
25 23
25 26
25 29
25 32
25 34
26 13
26 14
26 18
26 20
26 21
26 23
26 25
26 27
26 29
26 31
26 32
26 34
26 37
26 42
26 44
27 13
27 15
27 20
27 21
27 22
27 23
27 26
27 28
27 31
27 32
27 36
27 37
27 39
27 41
27 42
28 12
28 15
28 17
28 20
28 22
28 23
28 24
28 27
28 30
28 31
28 35
28 36
28 37
28 39
28 40
28 41
28 42
29 14
29 18
29 21
29 25
29 26
29 32
29 34
30 16
30 17
30 19
30 20
30 22
30 24
30 28
30 33
30 35
30 36
30 38
30 40
30 41
30 43
31 20
31 21
31 22
31 23
31 26
31 27
31 28
31 32
31 34
31 36
31 37
31 39
31 41
31 42
31 44
31 46
32 21
32 23
32 25
32 26
32 27
32 29
32 31
32 34
32 36
32 37
32 39
32 42
32 44
32 45
33 19
33 24
33 30
33 35
33 38
33 40
33 43
33 47
34 18
34 21
34 25
34 26
34 29
34 31
34 32
34 37
34 42
34 44
34 45
35 19
35 22
35 24
35 28
35 30
35 33
35 36
35 38
35 39
35 40
35 41
35 43
35 46
35 47
35 48
35 49
36 20
36 22
36 23
36 27
36 28
36 30
36 31
36 32
36 35
36 37
36 38
36 39
36 40
36 41
36 42
36 46
36 47
36 48
37 20
37 23
37 26
37 27
37 28
37 31
37 32
37 34
37 36
37 39
37 41
37 42
37 44
37 45
37 46
37 50
37 51
38 24
38 30
38 33
38 35
38 36
38 40
38 41
38 43
38 47
38 48
38 49
39 27
39 28
39 31
39 32
39 35
39 36
39 37
39 40
39 41
39 42
39 44
39 46
39 47
39 48
39 50
39 51
39 53
40 28
40 30
40 33
40 35
40 36
40 38
40 39
40 41
40 42
40 43
40 46
40 47
40 48
40 49
40 53
41 27
41 28
41 30
41 31
41 35
41 36
41 37
41 38
41 39
41 40
41 42
41 43
41 46
41 47
41 48
41 51
41 53
42 26
42 27
42 28
42 31
42 32
42 34
42 36
42 37
42 39
42 40
42 41
42 44
42 45
42 46
42 50
42 51
42 52
42 53
42 54
43 30
43 33
43 35
43 38
43 40
43 41
43 46
43 47
43 48
43 49
43 53
43 55
43 57
44 26
44 31
44 32
44 34
44 37
44 39
44 42
44 45
44 46
44 50
44 51
44 52
44 54
44 56
44 59
45 32
45 34
45 37
45 42
45 44
45 50
45 51
45 52
45 54
45 56
46 31
46 35
46 36
46 37
46 39
46 40
46 41
46 42
46 43
46 44
46 47
46 48
46 49
46 50
46 51
46 53
46 54
46 55
46 58
47 33
47 35
47 36
47 38
47 39
47 40
47 41
47 43
47 46
47 48
47 49
47 53
47 55
47 57
48 35
48 36
48 38
48 39
48 40
48 41
48 43
48 46
48 47
48 49
48 51
48 53
48 55
48 57
48 58
48 60
49 35
49 38
49 40
49 43
49 46
49 47
49 48
49 53
49 55
49 57
49 60
49 62
50 37
50 39
50 42
50 44
50 45
50 46
50 51
50 52
50 53
50 54
50 56
50 58
50 59
50 63
50 64
50 65
51 37
51 39
51 41
51 42
51 44
51 45
51 46
51 48
51 50
51 52
51 53
51 54
51 58
51 59
51 60
51 63
51 64
52 42
52 44
52 45
52 50
52 51
52 54
52 56
52 59
52 61
52 65
53 39
53 40
53 41
53 42
53 43
53 46
53 47
53 48
53 49
53 50
53 51
53 54
53 55
53 58
53 60
53 62
53 63
53 66
54 42
54 44
54 45
54 46
54 50
54 51
54 52
54 53
54 56
54 58
54 59
54 61
54 63
54 64
54 65
54 66
55 43
55 46
55 47
55 48
55 49
55 53
55 57
55 58
55 60
55 62
55 66
55 67
56 44
56 45
56 50
56 52
56 54
56 59
56 61
56 64
56 65
57 43
57 47
57 48
57 49
57 55
57 60
57 62
57 67
58 46
58 48
58 50
58 51
58 53
58 54
58 55
58 59
58 60
58 63
58 64
58 66
59 44
59 50
59 51
59 52
59 54
59 56
59 58
59 61
59 63
59 64
59 65
60 48
60 49
60 51
60 53
60 55
60 57
60 58
60 62
60 63
60 64
60 66
60 67
61 52
61 54
61 56
61 59
61 64
61 65
62 49
62 53
62 55
62 57
62 60
62 66
62 67
63 50
63 51
63 53
63 54
63 58
63 59
63 60
63 64
63 65
63 66
64 50
64 51
64 54
64 56
64 58
64 59
64 60
64 61
64 63
64 65
64 66
65 50
65 52
65 54
65 56
65 59
65 61
65 63
65 64
66 53
66 54
66 55
66 58
66 60
66 62
66 63
66 64
66 67
67 55
67 57
67 60
67 62
67 66
