1 3
1 4
2 4
2 5
2 6
3 1
3 7
3 8
3 12
4 1
4 2
4 5
4 10
4 11
5 2
5 4
5 6
5 11
6 2
6 5
6 9
7 3
7 8
7 10
7 12
8 3
8 7
8 12
8 14
9 6
10 4
10 7
10 11
10 12
10 15
11 4
11 5
11 10
11 13
11 15
12 3
12 7
12 8
12 10
12 14
12 16
13 11
13 15
13 17
14 8
14 12
14 16
14 18
15 10
15 11
15 13
15 19
16 12
16 14
16 18
16 20
17 13
17 22
18 14
18 16
19 15
19 20
19 21
19 24
19 26
20 16
20 19
20 23
20 24
21 19
21 22
21 26
21 27
22 17
22 21
22 27
23 20
23 24
23 25
23 28
23 29
24 19
24 20
24 23
24 26
24 29
24 30
25 23
25 28
25 31
26 19
26 21
26 24
26 27
26 29
26 30
27 21
27 22
27 26
27 32
27 34
28 23
28 25
28 29
28 31
28 33
28 36
29 23
29 24
29 26
29 28
29 30
29 33
29 35
30 24
30 26
30 29
30 34
30 35
31 25
31 28
31 33
31 36
32 27
33 28
33 29
33 31
33 35
33 36
33 38
34 27
34 30
34 35
34 37
35 29
35 30
35 33
35 34
35 37
36 28
36 31
36 33
36 38
37 34
37 35
38 33
38 36
