1 3
1 5
1 7
2 3
2 6
3 1
3 2
3 5
3 6
3 7
4 8
4 12
4 13
5 1
5 3
5 7
5 8
5 10
5 17
6 2
6 3
6 7
6 11
6 15
6 16
7 1
7 3
7 5
7 6
7 10
7 16
8 4
8 5
8 10
8 12
8 13
8 17
9 13
9 14
10 5
10 7
10 8
10 12
10 16
10 17
11 6
11 15
11 22
12 4
12 8
12 10
12 13
12 17
12 18
12 19
13 4
13 8
13 9
13 12
13 14
13 18
13 21
14 9
14 13
14 21
15 6
15 11
15 16
15 20
15 22
16 6
16 7
16 10
16 15
16 17
16 20
16 23
17 5
17 8
17 10
17 12
17 16
17 19
17 23
18 12
18 13
18 19
18 21
18 24
18 25
19 12
19 17
19 18
19 24
19 25
19 27
20 15
20 16
20 22
20 23
20 26
21 13
21 14
21 18
21 25
21 28
22 11
22 15
22 20
22 26
22 32
23 16
23 17
23 20
23 26
23 29
23 30
24 18
24 19
24 25
24 27
24 31
25 18
25 19
25 21
25 24
25 27
25 28
25 31
26 20
26 22
26 23
26 30
26 32
26 37
27 19
27 24
27 25
27 29
27 31
27 34
28 21
28 25
28 31
28 35
28 38
29 23
29 27
29 30
29 33
30 23
30 26
30 29
30 33
30 36
30 37
31 24
31 25
31 27
31 28
31 34
31 35
31 39
31 40
32 22
32 26
32 36
33 29
33 30
33 34
33 37
33 43
34 27
34 31
34 33
34 39
34 43
35 28
35 31
35 38
35 39
35 40
35 42
36 30
36 32
36 37
36 41
36 44
37 26
37 30
37 33
37 36
37 41
37 44
38 28
38 35
38 40
38 42
39 31
39 34
39 35
39 40
39 45
40 31
40 35
40 38
40 39
40 42
40 45
40 50
41 36
41 37
41 44
41 46
41 47
42 35
42 38
42 40
42 48
43 33
43 34
43 47
43 49
43 51
44 36
44 37
44 41
44 46
44 52
45 39
45 40
45 49
45 50
45 54
45 55
46 41
46 44
46 47
46 52
46 53
46 57
47 41
47 43
47 46
47 51
47 52
47 53
47 58
48 42
49 43
49 45
49 51
49 54
49 56
50 40
50 45
50 54
50 55
51 43
51 47
51 49
51 53
51 54
51 56
51 58
52 44
52 46
52 47
52 53
52 57
53 46
53 47
53 51
53 52
53 56
53 57
53 58
53 63
54 45
54 49
54 50
54 51
54 55
54 56
54 60
54 61
55 45
55 50
55 54
55 60
55 62
56 49
56 51
56 53
56 54
56 58
56 60
56 61
57 46
57 52
57 53
57 58
58 47
58 51
58 53
58 56
58 57
58 63
59 62
60 54
60 55
60 56
60 61
60 62
61 54
61 56
61 60
62 55
62 59
62 60
63 53
63 58
